
     Program PWSCF v.7.1 starts on 13Jul2026 at 13:58:22 

     This program is part of the open-source Quantum ESPRESSO suite
     for quantum simulation of materials; please cite
         "P. Giannozzi et al., J. Phys.:Condens. Matter 21 395502 (2009);
         "P. Giannozzi et al., J. Phys.:Condens. Matter 29 465901 (2017);
         "P. Giannozzi et al., J. Chem. Phys. 152 154105 (2020);
          URL http://www.quantum-espresso.org", 
     in publications or presentations arising from this work. More details at
     http://www.quantum-espresso.org/quote

     Parallel version (MPI), running on    36 processors

     MPI processes distributed on     1 nodes
     182995 MiB available memory on the printing compute node when the environment starts
 
     Waiting for input...
     Reading input from standard input

     Current dimensions of program PWSCF are:
     Max number of different atomic species (ntypx) = 10
     Max number of k-points (npk) =  40000
     Max angular momentum in pseudopotentials (lmaxx) =  4
     Message from routine setup:
     using ibrav=0 with symmetry is DISCOURAGED, use correct ibrav instead
 
     K-points division:     npool     =       3
     R & G space division:  proc/nbgrp/npool/nimage =      12
     Subspace diagonalization in iterative solution of the eigenvalue problem:
     a serial algorithm will be used

 
     Parallelization info
     --------------------
     sticks:   dense  smooth     PW     G-vecs:    dense   smooth      PW
     Min         114     114     33                 2214     2214     353
     Max         115     115     34                 2217     2217     356
     Sum        1369    1369    405                26589    26589    4259
 
     Using Slab Decomposition
 


     bravais-lattice index     =            0
     lattice parameter (alat)  =       8.4977  a.u.
     unit-cell volume          =     423.6931 (a.u.)^3
     number of atoms/cell      =            6
     number of atomic types    =            2
     number of electrons       =        56.00
     number of Kohn-Sham states=           28
     kinetic-energy cutoff     =      60.0000  Ry
     charge density cutoff     =     240.0000  Ry
     scf convergence threshold =      1.0E-06
     mixing beta               =       0.7000
     number of iterations used =            8  plain     mixing
     Exchange-correlation= PBE
                           (   1   4   3   4   0   0   0)

     celldm(1)=   8.497720  celldm(2)=   0.000000  celldm(3)=   0.000000
     celldm(4)=   0.000000  celldm(5)=   0.000000  celldm(6)=   0.000000

     crystal axes: (cart. coord. in units of alat)
               a(1) = (   1.000000   0.000000   0.000000 )  
               a(2) = (   0.000000   1.000000   0.000000 )  
               a(3) = (   0.000000   0.000000   0.690469 )  

     reciprocal axes: (cart. coord. in units 2 pi/alat)
               b(1) = (  1.000000  0.000000  0.000000 )  
               b(2) = (  0.000000  1.000000  0.000000 )  
               b(3) = (  0.000000  0.000000  1.448291 )  


     PseudoPot. # 1 for Ru read from file:
     ./Ru_ONCV_PBE-1.2.upf
     MD5 check sum: 197966c748556f6a714a34a8c7eb0781
     Pseudo is Norm-conserving, Zval = 16.0
     Generated using ONCVPSP code by D. R. Hamann
     Using radial grid of  602 points,  6 beta functions with: 
                l(1) =   0
                l(2) =   0
                l(3) =   1
                l(4) =   1
                l(5) =   2
                l(6) =   2

     PseudoPot. # 2 for O  read from file:
     ./O_ONCV_PBE-1.2.upf
     MD5 check sum: e36c48deb68f4e355fffe4602be2c42c
     Pseudo is Norm-conserving, Zval =  6.0
     Generated using ONCVPSP code by D. R. Hamann
     Using radial grid of  602 points,  4 beta functions with: 
                l(1) =   0
                l(2) =   0
                l(3) =   1
                l(4) =   1

     atomic species   valence    mass     pseudopotential
        Ru            16.00   101.07000     Ru( 1.00)
        O              6.00    15.99900     O ( 1.00)

     16 Sym. Ops., with inversion, found ( 8 have fractional translation)



   Cartesian axes

     site n.     atom                  positions (alat units)
         1           Ru  tau(   1) = (   0.0000000   0.0000000   0.0000000  )
         2           Ru  tau(   2) = (   0.5000000   0.5000000   0.3452344  )
         3           O   tau(   3) = (   0.3053000   0.3053000   0.0000000  )
         4           O   tau(   4) = (   0.6947000   0.6947000   0.0000000  )
         5           O   tau(   5) = (   0.8053000   0.1947000   0.3452344  )
         6           O   tau(   6) = (   0.1947000   0.8053000   0.3452344  )

     number of k points=    80
                       cart. coord. in units 2pi/alat
        k(    1) = (   0.0000000   0.0000000   0.0000000), wk =   0.0027211
        k(    2) = (   0.0000000   0.0000000   0.0965528), wk =   0.0054422
        k(    3) = (   0.0000000   0.0000000   0.1931055), wk =   0.0054422
        k(    4) = (   0.0000000   0.0000000   0.2896583), wk =   0.0054422
        k(    5) = (   0.0000000   0.0000000   0.3862110), wk =   0.0054422
        k(    6) = (   0.0000000   0.0000000   0.4827638), wk =   0.0054422
        k(    7) = (   0.0000000   0.0000000   0.5793166), wk =   0.0054422
        k(    8) = (   0.0000000   0.0000000   0.6758693), wk =   0.0054422
        k(    9) = (   0.0000000   0.1428571   0.0000000), wk =   0.0108844
        k(   10) = (   0.0000000   0.1428571   0.0965528), wk =   0.0217687
        k(   11) = (   0.0000000   0.1428571   0.1931055), wk =   0.0217687
        k(   12) = (   0.0000000   0.1428571   0.2896583), wk =   0.0217687
        k(   13) = (   0.0000000   0.1428571   0.3862110), wk =   0.0217687
        k(   14) = (   0.0000000   0.1428571   0.4827638), wk =   0.0217687
        k(   15) = (   0.0000000   0.1428571   0.5793166), wk =   0.0217687
        k(   16) = (   0.0000000   0.1428571   0.6758693), wk =   0.0217687
        k(   17) = (   0.0000000   0.2857143   0.0000000), wk =   0.0108844
        k(   18) = (   0.0000000   0.2857143   0.0965528), wk =   0.0217687
        k(   19) = (   0.0000000   0.2857143   0.1931055), wk =   0.0217687
        k(   20) = (   0.0000000   0.2857143   0.2896583), wk =   0.0217687
        k(   21) = (   0.0000000   0.2857143   0.3862110), wk =   0.0217687
        k(   22) = (   0.0000000   0.2857143   0.4827638), wk =   0.0217687
        k(   23) = (   0.0000000   0.2857143   0.5793166), wk =   0.0217687
        k(   24) = (   0.0000000   0.2857143   0.6758693), wk =   0.0217687
        k(   25) = (   0.0000000   0.4285714   0.0000000), wk =   0.0108844
        k(   26) = (   0.0000000   0.4285714   0.0965528), wk =   0.0217687
        k(   27) = (   0.0000000   0.4285714   0.1931055), wk =   0.0217687
        k(   28) = (   0.0000000   0.4285714   0.2896583), wk =   0.0217687
        k(   29) = (   0.0000000   0.4285714   0.3862110), wk =   0.0217687
        k(   30) = (   0.0000000   0.4285714   0.4827638), wk =   0.0217687
        k(   31) = (   0.0000000   0.4285714   0.5793166), wk =   0.0217687
        k(   32) = (   0.0000000   0.4285714   0.6758693), wk =   0.0217687
        k(   33) = (   0.1428571   0.1428571   0.0000000), wk =   0.0108844
        k(   34) = (   0.1428571   0.1428571   0.0965528), wk =   0.0217687
        k(   35) = (   0.1428571   0.1428571   0.1931055), wk =   0.0217687
        k(   36) = (   0.1428571   0.1428571   0.2896583), wk =   0.0217687
        k(   37) = (   0.1428571   0.1428571   0.3862110), wk =   0.0217687
        k(   38) = (   0.1428571   0.1428571   0.4827638), wk =   0.0217687
        k(   39) = (   0.1428571   0.1428571   0.5793166), wk =   0.0217687
        k(   40) = (   0.1428571   0.1428571   0.6758693), wk =   0.0217687
        k(   41) = (   0.1428571   0.2857143   0.0000000), wk =   0.0217687
        k(   42) = (   0.1428571   0.2857143   0.0965528), wk =   0.0435374
        k(   43) = (   0.1428571   0.2857143   0.1931055), wk =   0.0435374
        k(   44) = (   0.1428571   0.2857143   0.2896583), wk =   0.0435374
        k(   45) = (   0.1428571   0.2857143   0.3862110), wk =   0.0435374
        k(   46) = (   0.1428571   0.2857143   0.4827638), wk =   0.0435374
        k(   47) = (   0.1428571   0.2857143   0.5793166), wk =   0.0435374
        k(   48) = (   0.1428571   0.2857143   0.6758693), wk =   0.0435374
        k(   49) = (   0.1428571   0.4285714   0.0000000), wk =   0.0217687
        k(   50) = (   0.1428571   0.4285714   0.0965528), wk =   0.0435374
        k(   51) = (   0.1428571   0.4285714   0.1931055), wk =   0.0435374
        k(   52) = (   0.1428571   0.4285714   0.2896583), wk =   0.0435374
        k(   53) = (   0.1428571   0.4285714   0.3862110), wk =   0.0435374
        k(   54) = (   0.1428571   0.4285714   0.4827638), wk =   0.0435374
        k(   55) = (   0.1428571   0.4285714   0.5793166), wk =   0.0435374
        k(   56) = (   0.1428571   0.4285714   0.6758693), wk =   0.0435374
        k(   57) = (   0.2857143   0.2857143   0.0000000), wk =   0.0108844
        k(   58) = (   0.2857143   0.2857143   0.0965528), wk =   0.0217687
        k(   59) = (   0.2857143   0.2857143   0.1931055), wk =   0.0217687
        k(   60) = (   0.2857143   0.2857143   0.2896583), wk =   0.0217687
        k(   61) = (   0.2857143   0.2857143   0.3862110), wk =   0.0217687
        k(   62) = (   0.2857143   0.2857143   0.4827638), wk =   0.0217687
        k(   63) = (   0.2857143   0.2857143   0.5793166), wk =   0.0217687
        k(   64) = (   0.2857143   0.2857143   0.6758693), wk =   0.0217687
        k(   65) = (   0.2857143   0.4285714   0.0000000), wk =   0.0217687
        k(   66) = (   0.2857143   0.4285714   0.0965528), wk =   0.0435374
        k(   67) = (   0.2857143   0.4285714   0.1931055), wk =   0.0435374
        k(   68) = (   0.2857143   0.4285714   0.2896583), wk =   0.0435374
        k(   69) = (   0.2857143   0.4285714   0.3862110), wk =   0.0435374
        k(   70) = (   0.2857143   0.4285714   0.4827638), wk =   0.0435374
        k(   71) = (   0.2857143   0.4285714   0.5793166), wk =   0.0435374
        k(   72) = (   0.2857143   0.4285714   0.6758693), wk =   0.0435374
        k(   73) = (   0.4285714   0.4285714   0.0000000), wk =   0.0108844
        k(   74) = (   0.4285714   0.4285714   0.0965528), wk =   0.0217687
        k(   75) = (   0.4285714   0.4285714   0.1931055), wk =   0.0217687
        k(   76) = (   0.4285714   0.4285714   0.2896583), wk =   0.0217687
        k(   77) = (   0.4285714   0.4285714   0.3862110), wk =   0.0217687
        k(   78) = (   0.4285714   0.4285714   0.4827638), wk =   0.0217687
        k(   79) = (   0.4285714   0.4285714   0.5793166), wk =   0.0217687
        k(   80) = (   0.4285714   0.4285714   0.6758693), wk =   0.0217687

     Dense  grid:    26589 G-vectors     FFT dimensions: (  48,  48,  30)

     Estimated max dynamical RAM per process >       8.20 MB

     Estimated total dynamical RAM >     282.18 MB

     Initial potential from superposition of free atoms

     starting charge      55.8739, renormalised to      56.0000
     Starting wfcs are random

     total cpu time spent up to now is        0.1 secs

     per-process dynamical memory:   114.0 Mb

     Self-consistent Calculation

     iteration #  1     ecut=    60.00 Ry     beta= 0.70
     Davidson diagonalization with overlap
     ethr =  1.00E-02,  avg # of iterations = 10.2

     total cpu time spent up to now is        0.9 secs

     total energy              =    -504.25933463 Ry
     estimated scf accuracy    <       0.92347152 Ry

     iteration #  2     ecut=    60.00 Ry     beta= 0.70
     Davidson diagonalization with overlap
     ethr =  1.65E-03,  avg # of iterations =  6.5

     total cpu time spent up to now is        1.5 secs

     total energy              =    -504.22068828 Ry
     estimated scf accuracy    <       3.93400975 Ry

     iteration #  3     ecut=    60.00 Ry     beta= 0.70
     Davidson diagonalization with overlap
     ethr =  1.65E-03,  avg # of iterations =  5.9

     total cpu time spent up to now is        1.9 secs

     total energy              =    -504.88297070 Ry
     estimated scf accuracy    <       0.02600874 Ry

     iteration #  4     ecut=    60.00 Ry     beta= 0.70
     Davidson diagonalization with overlap
     ethr =  4.64E-05,  avg # of iterations =  4.9

     total cpu time spent up to now is        2.3 secs

     total energy              =    -504.89230814 Ry
     estimated scf accuracy    <       0.01445012 Ry

     iteration #  5     ecut=    60.00 Ry     beta= 0.70
     Davidson diagonalization with overlap
     ethr =  2.58E-05,  avg # of iterations =  5.1

     total cpu time spent up to now is        2.7 secs

     total energy              =    -504.89644841 Ry
     estimated scf accuracy    <       0.00079655 Ry

     iteration #  6     ecut=    60.00 Ry     beta= 0.70
     Davidson diagonalization with overlap
     ethr =  1.42E-06,  avg # of iterations =  5.4

     total cpu time spent up to now is        3.1 secs

     total energy              =    -504.89686960 Ry
     estimated scf accuracy    <       0.00002072 Ry

     iteration #  7     ecut=    60.00 Ry     beta= 0.70
     Davidson diagonalization with overlap
     ethr =  3.70E-08,  avg # of iterations =  8.6

     total cpu time spent up to now is        3.7 secs

     total energy              =    -504.89689813 Ry
     estimated scf accuracy    <       0.00000429 Ry

     iteration #  8     ecut=    60.00 Ry     beta= 0.70
     Davidson diagonalization with overlap
     c_bands:  1 eigenvalues not converged
     ethr =  7.67E-09,  avg # of iterations =  4.8

     total cpu time spent up to now is        4.1 secs

     total energy              =    -504.89691603 Ry
     estimated scf accuracy    <       0.00001312 Ry

     iteration #  9     ecut=    60.00 Ry     beta= 0.70
     Davidson diagonalization with overlap
     ethr =  7.67E-09,  avg # of iterations =  1.3

     total cpu time spent up to now is        4.3 secs

     total energy              =    -504.89691147 Ry
     estimated scf accuracy    <       0.00001098 Ry

     iteration # 10     ecut=    60.00 Ry     beta= 0.70
     Davidson diagonalization with overlap
     ethr =  7.67E-09,  avg # of iterations =  5.7

     total cpu time spent up to now is        4.8 secs

     End of self-consistent calculation

          k = 0.0000 0.0000 0.0000 (  3363 PWs)   bands (ev):

   -60.3176 -60.3108 -30.5959 -30.5959 -30.1617 -30.1611 -30.1611 -30.1374
    -7.0451  -6.0116  -5.0454  -5.0454   4.7053   4.8467   5.9643   6.3757
     6.3757   8.9417   8.9593   8.9593  10.4146  10.8470  10.8470  11.3805
    11.6456  11.7570  11.8437  11.8437

          k = 0.0000 0.0000 0.0966 (  3359 PWs)   bands (ev):

   -60.3171 -60.3104 -30.5952 -30.5952 -30.1694 -30.1599 -30.1599 -30.1457
    -7.0051  -5.9900  -5.0692  -5.0692   4.7521   4.9075   6.0106   6.3889
     6.3889   8.7941   9.0112   9.0112  10.1559  10.6187  10.6187  11.3405
    11.7500  11.8387  12.0671  12.0671

          k = 0.0000 0.0000 0.1931 (  3351 PWs)   bands (ev):

   -60.3156 -60.3094 -30.5933 -30.5933 -30.1912 -30.1691 -30.1565 -30.1565
    -6.8918  -5.9285  -5.1361  -5.1361   4.8817   5.0857   6.1510   6.4329
     6.4329   8.4290   9.1496   9.1496   9.6171  10.1876  10.1876  11.1556
    11.7902  12.1786  12.3390  12.4842

          k = 0.0000 0.0000 0.2897 (  3327 PWs)   bands (ev):

   -60.3133 -60.3078 -30.5906 -30.5906 -30.2230 -30.2036 -30.1513 -30.1513
    -6.7146  -5.8433  -5.2331  -5.2331   5.0788   5.3567   6.3808   6.5149
     6.5149   7.9600   9.0384   9.3160   9.3160   9.7564   9.7564  10.8073
    11.9193  12.3570  12.4863  12.9193

          k = 0.0000 0.0000 0.3862 (  3318 PWs)   bands (ev):

   -60.3107 -60.3061 -30.5874 -30.5874 -30.2590 -30.2432 -30.1454 -30.1454
    -6.4970  -5.7569  -5.3428  -5.3428   5.3110   5.6727   6.6355   6.6355
     6.6947   7.5145   8.4972   9.2021   9.2021   9.6293   9.6293  10.3391
    12.1195  12.3550  12.7088  13.3199

          k = 0.0000 0.0000 0.4828 (  3330 PWs)   bands (ev):

   -60.3080 -60.3046 -30.5844 -30.5844 -30.2929 -30.2812 -30.1398 -30.1398
    -6.2635  -5.6960  -5.4459  -5.4459   5.5373   5.9410   6.7880   6.7880
     7.0881   7.2063   8.0486   8.8351   8.8351   9.7634   9.7634   9.7966
    12.3580  12.3745  12.8178  13.6576

          k = 0.0000 0.0000 0.5793 (  3334 PWs)   bands (ev):

   -60.3057 -60.3036 -30.5820 -30.5820 -30.3186 -30.3114 -30.1353 -30.1353
    -6.0419  -5.6851  -5.5244  -5.5244   5.7222   6.0314   6.9508   6.9508
     7.1500   7.5522   7.7217   8.5166   8.5166   9.2194   9.8675   9.8675
    12.4036  12.6737  12.7979  13.6976

          k = 0.0000 0.0000 0.6759 (  3326 PWs)   bands (ev):

   -60.3041 -60.3034 -30.5807 -30.5807 -30.3315 -30.3290 -30.1329 -30.1329
    -5.8594  -5.7372  -5.5670  -5.5670   5.8568   5.9641   7.0703   7.0703
     7.2932   7.4867   8.0743   8.3217   8.3217   8.6373   9.9194   9.9194
    12.5152  12.6714  13.0041  13.3501

          k = 0.0000 0.1429 0.0000 (  3337 PWs)   bands (ev):

   -60.3173 -60.3111 -30.5954 -30.5954 -30.1619 -30.1619 -30.1605 -30.1386
    -6.9683  -5.9912  -5.1423  -5.0911   4.8572   5.0228   6.1060   6.3938
     6.4034   8.6773   8.7769   8.8754  10.1028  10.3216  10.5820  11.2994
    11.8723  12.0138  12.0836  12.1493

          k = 0.0000 0.1429 0.0966 (  3327 PWs)   bands (ev):

   -60.3168 -60.3108 -30.5948 -30.5947 -30.1684 -30.1608 -30.1605 -30.1467
    -6.9299  -5.9680  -5.1640  -5.1137   4.9020   5.0790   6.1318   6.4038
     6.4432   8.6784   8.7213   8.8762   9.8367  10.3076  10.4481  11.2588
    11.8826  12.0683  12.1445  12.3722

          k = 0.0000 0.1429 0.1931 (  3340 PWs)   bands (ev):

   -60.3153 -60.3097 -30.5930 -30.5930 -30.1901 -30.1708 -30.1569 -30.1565
    -6.8205  -5.9051  -5.2272  -5.1771   5.0276   5.2376   6.2059   6.4397
     6.5614   8.3003   8.7838   9.0179   9.4073  10.0994  10.1201  11.1463
    11.7760  12.3512  12.4302  12.6301

          k = 0.0000 0.1429 0.2897 (  3332 PWs)   bands (ev):

   -60.3131 -60.3081 -30.5905 -30.5904 -30.2219 -30.2047 -30.1517 -30.1515
    -6.6513  -5.8198  -5.3145  -5.2680   5.2157   5.4745   6.3285   6.5124
     6.7684   7.8314   8.5497   9.2182   9.2941   9.7218   9.7580  10.9039
    11.7795  12.5661  12.6302  12.8624

          k = 0.0000 0.1429 0.3862 (  3327 PWs)   bands (ev):

   -60.3104 -60.3063 -30.5875 -30.5875 -30.2581 -30.2439 -30.1456 -30.1455
    -6.4451  -5.7419  -5.4029  -5.3671   5.4312   5.7444   6.4744   6.6254
     7.0454   7.4455   8.1021   9.2467   9.3758   9.4494   9.4809  10.5024
    11.9310  12.5431  12.8080  13.1754

          k = 0.0000 0.1429 0.4828 (  3324 PWs)   bands (ev):

   -60.3078 -60.3048 -30.5848 -30.5847 -30.2920 -30.2815 -30.1398 -30.1398
    -6.2301  -5.7144  -5.4572  -5.4539   5.6283   5.9768   6.5197   6.7551
     7.2388   7.5011   7.7387   8.8692   9.0161   9.5958   9.6300  10.0138
    12.1699  12.4967  12.8688  13.3718

          k = 0.0000 0.1429 0.5793 (  3321 PWs)   bands (ev):

   -60.3056 -60.3037 -30.5827 -30.5826 -30.3178 -30.3114 -30.1353 -30.1353
    -6.0400  -5.7502  -5.5068  -5.4729   5.7730   6.0521   6.5092   6.8222
     7.4596   7.5802   7.9085   8.5253   8.6879   9.4299   9.7455   9.7546
    12.4558  12.4835  12.8115  13.3165

          k = 0.0000 0.1429 0.6759 (  3338 PWs)   bands (ev):

   -60.3041 -60.3035 -30.5815 -30.5815 -30.3308 -30.3286 -30.1328 -30.1328
    -5.9027  -5.8147  -5.5142  -5.4914   5.8684   5.9623   6.6309   6.7611
     7.6383   7.6680   8.3103   8.3921   8.4172   8.9007   9.7959   9.7980
    12.5442  12.6753  12.7634  13.0676

          k = 0.0000 0.2857 0.0000 (  3321 PWs)   bands (ev):

   -60.3163 -60.3121 -30.5943 -30.5943 -30.1636 -30.1635 -30.1571 -30.1420
    -6.7516  -5.9664  -5.3652  -5.2144   5.2721   5.4641   6.4383   6.4630
     6.5370   8.0793   8.2076   8.7806   9.3408   9.5542  10.3824  11.0649
    12.2564  12.4071  12.6285  12.6505

          k = 0.0000 0.2857 0.0966 (  3313 PWs)   bands (ev):

   -60.3158 -60.3117 -30.5938 -30.5937 -30.1660 -30.1628 -30.1611 -30.1496
    -6.7162  -5.9392  -5.3864  -5.2334   5.3152   5.5102   6.3783   6.4351
     6.6844   8.1286   8.2646   8.5951   9.1301   9.6104  10.3786  11.0481
    12.2537  12.4109  12.5256  12.8469

          k = 0.0000 0.2857 0.1931 (  3331 PWs)   bands (ev):

   -60.3144 -60.3105 -30.5924 -30.5922 -30.1873 -30.1746 -30.1579 -30.1569
    -6.6166  -5.8644  -5.4462  -5.2878   5.4340   5.6306   6.3425   6.4434
     6.9111   8.1450   8.1713   8.4333   8.8050   9.6396  10.2755  10.9550
    12.1284  12.5139  12.6520  12.9560

          k = 0.0000 0.2857 0.2897 (  3320 PWs)   bands (ev):

   -60.3123 -60.3088 -30.5902 -30.5901 -30.2192 -30.2076 -30.1524 -30.1521
    -6.4666  -5.7614  -5.5262  -5.3612   5.5985   5.7877   6.3994   6.5001
     7.1815   7.6849   7.8991   8.6240   8.7923   9.5956  10.0528  10.8281
    11.9170  12.7016  12.8799  12.9824

          k = 0.0000 0.2857 0.3862 (  3323 PWs)   bands (ev):

   -60.3098 -60.3070 -30.5879 -30.5877 -30.2555 -30.2460 -30.1461 -30.1459
    -6.2951  -5.7054  -5.5605  -5.4326   5.7564   5.9408   6.4434   6.6108
     7.3206   7.4997   7.5869   8.7745   8.9644   9.4472   9.8037  10.6761
    11.7611  12.8317  12.9207  13.0000

          k = 0.0000 0.2857 0.4828 (  3338 PWs)   bands (ev):

   -60.3074 -60.3052 -30.5857 -30.5856 -30.2896 -30.2826 -30.1400 -30.1398
    -6.1381  -5.7749  -5.4818  -5.4738   5.8528   6.0816   6.2742   6.6653
     7.3148   7.4551   7.9228   8.8082   9.0758   9.2781   9.6312  10.4118
    11.7804  12.7510  12.8606  12.9712

          k = 0.0000 0.2857 0.5793 (  3343 PWs)   bands (ev):

   -60.3053 -60.3040 -30.5841 -30.5840 -30.3157 -30.3114 -30.1352 -30.1351
    -6.0302  -5.8554  -5.4637  -5.4137   5.8606   6.0118   6.2473   6.5750
     7.4678   7.7785   8.1815   8.8298   8.8926   9.3175   9.5708  10.0426
    11.9503  12.6155  12.7157  12.8372

          k = 0.0000 0.2857 0.6759 (  3334 PWs)   bands (ev):

   -60.3040 -60.3036 -30.5832 -30.5832 -30.3292 -30.3278 -30.1326 -30.1325
    -5.9687  -5.9186  -5.4205  -5.3934   5.8320   5.8677   6.3739   6.4772
     7.7371   7.9477   8.2975   8.6005   9.0953   9.3384   9.5625   9.6831
    12.1884  12.4379  12.6151  12.6834

          k = 0.0000 0.4286 0.0000 (  3329 PWs)   bands (ev):

   -60.3150 -60.3134 -30.5934 -30.5934 -30.1650 -30.1649 -30.1522 -30.1468
    -6.4344  -6.1066  -5.4714  -5.3693   5.7890   5.8991   6.4879   6.5025
     7.2749   7.5301   7.5603   8.2585   8.8212   9.0882  10.4830  10.7526
    12.5768  12.7695  12.7796  12.8871

          k = 0.0000 0.4286 0.0966 (  3325 PWs)   bands (ev):

   -60.3145 -60.3130 -30.5930 -30.5929 -30.1651 -30.1645 -30.1585 -30.1538
    -6.4027  -6.0761  -5.4909  -5.3860   5.8428   5.9522   6.4457   6.4500
     7.3136   7.6035   7.6572   8.2323   8.6439   8.9891  10.5283  10.7806
    12.5229  12.6038  12.9453  12.9936

          k = 0.0000 0.4286 0.1931 (  3315 PWs)   bands (ev):

   -60.3131 -60.3118 -30.5918 -30.5917 -30.1834 -30.1791 -30.1584 -30.1579
    -6.3144  -5.9919  -5.5429  -5.4311   5.9823   6.0795   6.3855   6.3937
     7.3265   7.6526   7.9177   8.1691   8.2991   8.8994  10.5335  10.7605
    12.4492  12.5526  13.0105  13.1600

          k = 0.0000 0.4286 0.2897 (  3326 PWs)   bands (ev):

   -60.3112 -60.3099 -30.5900 -30.5899 -30.2155 -30.2115 -30.1529 -30.1527
    -6.1921  -5.8806  -5.6061  -5.4874   6.1069   6.1479   6.4504   6.5068
     7.1743   7.3591   8.0493   8.2785   8.3014   8.9813  10.4003  10.6332
    12.2995  12.5539  13.1056  13.2095

          k = 0.0000 0.4286 0.3862 (  3326 PWs)   bands (ev):

   -60.3089 -60.3079 -30.5881 -30.5880 -30.2522 -30.2489 -30.1464 -30.1462
    -6.0743  -5.8261  -5.6032  -5.5200   6.1234   6.1677   6.5175   6.6323
     7.0326   7.1248   8.0967   8.4658   8.6241   9.1149  10.1917  10.4920
    12.0535  12.4665  13.1420  13.1446

          k = 0.0000 0.4286 0.4828 (  3325 PWs)   bands (ev):

   -60.3067 -60.3059 -30.5864 -30.5863 -30.2868 -30.2844 -30.1400 -30.1400
    -6.0094  -5.8776  -5.4969  -5.4921   6.0517   6.1370   6.2735   6.4962
     7.2279   7.4776   8.1972   8.6420   8.9106   9.1541  10.0012  10.4212
    11.7830  12.2650  12.9772  13.0354

          k = 0.0000 0.4286 0.5793 (  3324 PWs)   bands (ev):

   -60.3049 -60.3044 -30.5852 -30.5851 -30.3135 -30.3120 -30.1351 -30.1350
    -5.9998  -5.9422  -5.4165  -5.3945   5.8676   5.8782   6.3123   6.4187
     7.5765   7.8695   8.2873   8.8007   9.0451   9.0882   9.9330  10.3940
    11.5870  12.0050  12.7814  12.8398

          k = 0.0000 0.4286 0.6759 (  3337 PWs)   bands (ev):

   -60.3039 -60.3037 -30.5846 -30.5845 -30.3278 -30.3273 -30.1324 -30.1324
    -6.0019  -5.9861  -5.3536  -5.3427   5.7232   5.7252   6.3718   6.4043
     7.8630   8.0084   8.4993   8.8068   8.9518   9.0773  10.0695  10.2791
    11.5762  11.7485  12.6564  12.6794

          k = 0.1429 0.1429 0.0000 (  3333 PWs)   bands (ev):

   -60.3170 -60.3114 -30.5963 -30.5941 -30.1636 -30.1611 -30.1594 -30.1397
    -6.9032  -5.9747  -5.2742  -5.0727   4.7672   5.3954   6.2380   6.3594
     6.4634   8.1715   8.8179   8.8949  10.0142  10.1024  10.4432  11.2133
    11.7943  11.8506  12.3644  12.5329

          k = 0.1429 0.1429 0.0966 (  3340 PWs)   bands (ev):

   -60.3165 -60.3111 -30.5956 -30.5935 -30.1676 -30.1621 -30.1599 -30.1477
    -6.8664  -5.9505  -5.2943  -5.0969   4.8179   5.4387   6.2115   6.4425
     6.4759   8.2245   8.6424   8.9430   9.6825  10.2490  10.3473  11.1317
    11.8603  11.8849  12.4837  12.5352

          k = 0.1429 0.1429 0.1931 (  3324 PWs)   bands (ev):

   -60.3150 -60.3099 -30.5937 -30.5921 -30.1892 -30.1720 -30.1573 -30.1565
    -6.7584  -5.8837  -5.3494  -5.1626   4.9658   5.5574   6.2076   6.5300
     6.6237   8.1088   8.4941   9.0688   9.1872  10.0666  10.2149  11.0504
    11.7759  12.1079  12.6382  12.8004

          k = 0.1429 0.1429 0.2897 (  3339 PWs)   bands (ev):

   -60.3128 -60.3083 -30.5909 -30.5900 -30.2211 -30.2056 -30.1522 -30.1514
    -6.5953  -5.7960  -5.4230  -5.2590   5.1879   5.7194   6.2537   6.6503
     6.8715   7.6337   8.5851   8.7340   9.2060   9.7112  10.0114  10.9269
    11.7063  12.3473  12.8182  13.0288

          k = 0.1429 0.1429 0.3862 (  3332 PWs)   bands (ev):

   -60.3102 -60.3065 -30.5877 -30.5876 -30.2573 -30.2445 -30.1459 -30.1455
    -6.3980  -5.7277  -5.4761  -5.3666   5.4491   5.8867   6.3495   6.7399
     7.1877   7.3121   8.0924   8.8900   9.1125   9.5838   9.7545  10.6158
    11.8053  12.4887  12.9529  13.1752

          k = 0.1429 0.1429 0.4828 (  3327 PWs)   bands (ev):

   -60.3077 -60.3049 -30.5855 -30.5846 -30.2914 -30.2818 -30.1399 -30.1398
    -6.1986  -5.7294  -5.4679  -5.4629   5.6827   6.0376   6.4809   6.5265
     7.4784   7.5657   7.6738   8.7875   8.9611   9.5531   9.6863  10.1741
    12.0214  12.5245  12.9315  13.4230

          k = 0.1429 0.1429 0.5793 (  3331 PWs)   bands (ev):

   -60.3055 -60.3038 -30.5839 -30.5822 -30.3174 -30.3111 -30.1355 -30.1351
    -6.0385  -5.7610  -5.5460  -5.4220   5.8085   6.0900   6.4041   6.6200
     7.3284   7.8921   7.9951   8.4972   8.8381   9.4852   9.5856   9.8699
    12.2794  12.5254  12.8235  13.3383

          k = 0.1429 0.1429 0.6759 (  3326 PWs)   bands (ev):

   -60.3041 -60.3035 -30.5831 -30.5809 -30.3311 -30.3276 -30.1331 -30.1325
    -5.9597  -5.7668  -5.5883  -5.3994   5.8145   6.0505   6.4789   6.7163
     7.1637   8.2680   8.3091   8.4488   8.5934   9.1319   9.4853   9.8924
    12.5069  12.5660  12.6790  13.1253

          k = 0.1429 0.2857 0.0000 (  3328 PWs)   bands (ev):

   -60.3161 -60.3123 -30.5960 -30.5933 -30.1649 -30.1619 -30.1564 -30.1427
    -6.7183  -5.9787  -5.4459  -5.1539   4.9305   5.8941   6.3685   6.5053
     6.6488   7.5696   8.5810   8.7747   9.5672   9.6782  10.1311  10.9506
    12.0576  12.0734  12.7958  12.8535

          k = 0.1429 0.2857 0.0966 (  3324 PWs)   bands (ev):

   -60.3156 -60.3119 -30.5954 -30.5928 -30.1660 -30.1623 -30.1604 -30.1504
    -6.6833  -5.9501  -5.4662  -5.1754   4.9801   5.9425   6.3169   6.4701
     6.7603   7.6722   8.4820   8.6609   9.4009   9.7333  10.1646  10.8879
    12.0800  12.1314  12.7110  12.8994

          k = 0.1429 0.2857 0.1931 (  3331 PWs)   bands (ev):

   -60.3142 -60.3107 -30.5936 -30.5916 -30.1867 -30.1750 -30.1581 -30.1567
    -6.5842  -5.8693  -5.5233  -5.2364   5.1223   6.0518   6.2587   6.4581
     6.9807   7.8477   8.0730   8.6089   9.1309   9.7339  10.1427  10.7863
    12.0602  12.2605  12.7328  13.0533

          k = 0.1429 0.2857 0.2897 (  3324 PWs)   bands (ev):

   -60.3121 -60.3090 -30.5910 -30.5898 -30.2187 -30.2080 -30.1528 -30.1517
    -6.4352  -5.7520  -5.6042  -5.3227   5.3376   6.1188   6.2549   6.6079
     7.2086   7.4694   8.2068   8.3097   9.1418   9.5549  10.0469  10.7344
    11.9107  12.4450  12.8269  13.2315

          k = 0.1429 0.2857 0.3862 (  3329 PWs)   bands (ev):

   -60.3097 -60.3071 -30.5880 -30.5879 -30.2552 -30.2463 -30.1463 -30.1457
    -6.2648  -5.7037  -5.6084  -5.4154   5.5861   6.1454   6.3014   6.6883
     7.0979   7.6290   7.8428   8.5106   9.2155   9.3121   9.9100  10.6802
    11.7562  12.5981  12.9022  13.2283

          k = 0.1429 0.2857 0.4828 (  3330 PWs)   bands (ev):

   -60.3073 -60.3053 -30.5862 -30.5852 -30.2896 -30.2827 -30.1400 -30.1399
    -6.1114  -5.7784  -5.4926  -5.4831   5.8084   6.1635   6.2853   6.4515
     7.2522   7.7066   7.9717   8.6888   8.9172   9.4279   9.7492  10.4882
    11.7543  12.6444  12.9036  13.0880

          k = 0.1429 0.2857 0.5793 (  3320 PWs)   bands (ev):

   -60.3053 -60.3041 -30.5850 -30.5830 -30.3162 -30.3111 -30.1355 -30.1350
    -6.0224  -5.8214  -5.5236  -5.3904   5.8569   6.0691   6.2616   6.4727
     7.2012   8.0428   8.2418   8.6906   8.8354   9.4208   9.6756  10.1653
    11.8944  12.6196  12.7980  12.8779

          k = 0.1429 0.2857 0.6759 (  3321 PWs)   bands (ev):

   -60.3040 -60.3036 -30.5845 -30.5818 -30.3305 -30.3267 -30.1331 -30.1323
    -6.0030  -5.8312  -5.5213  -5.3415   5.7408   6.0646   6.3461   6.4499
     7.2132   8.2468   8.3991   8.6973   8.9073   9.3921   9.6001   9.9075
    12.0469  12.6071  12.6738  12.6863

          k = 0.1429 0.4286 0.0000 (  3314 PWs)   bands (ev):

   -60.3149 -60.3135 -30.5949 -30.5936 -30.1649 -30.1636 -30.1520 -30.1471
    -6.4471  -6.1555  -5.4457  -5.3045   5.3536   5.8558   6.4239   6.4861
     7.2459   7.6415   7.9970   8.6601   8.9121   9.2455  10.2441  10.5833
    12.4384  12.5095  12.7035  12.8429

          k = 0.1429 0.4286 0.0966 (  3324 PWs)   bands (ev):

   -60.3144 -60.3131 -30.5943 -30.5932 -30.1649 -30.1632 -30.1584 -30.1542
    -6.4156  -6.1259  -5.4645  -5.3238   5.3997   5.9113   6.3900   6.4336
     7.3118   7.7612   7.9769   8.6603   8.7483   9.1157  10.3010  10.5947
    12.3892  12.4929  12.7545  12.9816

          k = 0.1429 0.4286 0.1931 (  3324 PWs)   bands (ev):

   -60.3131 -60.3118 -30.5928 -30.5919 -30.1831 -30.1789 -30.1582 -30.1575
    -6.3266  -6.0433  -5.5138  -5.3751   5.5284   6.0557   6.3409   6.3583
     7.4340   7.8166   8.0412   8.4242   8.6262   9.0092  10.3179  10.5625
    12.3771  12.4834  12.8769  13.1502

          k = 0.1429 0.4286 0.2897 (  3317 PWs)   bands (ev):

   -60.3111 -60.3100 -30.5906 -30.5901 -30.2153 -30.2115 -30.1528 -30.1523
    -6.1998  -5.9321  -5.5725  -5.4428   5.7026   6.1488   6.3498   6.4374
     7.3141   7.5854   8.1390   8.4119   8.6414   9.0813  10.2097  10.4763
    12.3054  12.5334  12.9537  13.2136

          k = 0.1429 0.4286 0.3862 (  3319 PWs)   bands (ev):

   -60.3088 -60.3079 -30.5882 -30.5882 -30.2522 -30.2490 -30.1463 -30.1461
    -6.0711  -5.8552  -5.5857  -5.4985   5.8597   6.1358   6.4130   6.5698
     7.0504   7.3880   8.2013   8.6492   8.7943   9.1165  10.0892  10.4105
    12.1116  12.5140  12.9560  13.1587

          k = 0.1429 0.4286 0.4828 (  3333 PWs)   bands (ev):

   -60.3066 -60.3060 -30.5864 -30.5860 -30.2871 -30.2846 -30.1401 -30.1400
    -5.9908  -5.8695  -5.5081  -5.5025   5.9420   6.0630   6.3834   6.4235
     7.1662   7.4538   8.3565   8.7234   8.9981   9.0929  10.0260  10.4227
    11.8717  12.3657  12.8705  13.0110

          k = 0.1429 0.4286 0.5793 (  3336 PWs)   bands (ev):

   -60.3049 -60.3045 -30.5852 -30.5843 -30.3141 -30.3121 -30.1354 -30.1351
    -5.9800  -5.9082  -5.4594  -5.4056   5.8595   5.9185   6.3239   6.3933
     7.3667   7.7631   8.4424   8.6987   9.0016   9.2437  10.0393  10.4386
    11.6924  12.1499  12.7447  12.8199

          k = 0.1429 0.4286 0.6759 (  3329 PWs)   bands (ev):

   -60.3038 -60.3037 -30.5846 -30.5835 -30.3288 -30.3271 -30.1328 -30.1324
    -5.9934  -5.9304  -5.4141  -5.3466   5.7191   5.8424   6.3537   6.3885
     7.5366   7.9705   8.4839   8.6256   9.0084   9.3476  10.1320  10.3736
    11.6450  11.9650  12.6569  12.6781

          k = 0.2857 0.2857 0.0000 (  3327 PWs)   bands (ev):

   -60.3155 -60.3129 -30.5972 -30.5937 -30.1649 -30.1611 -30.1542 -30.1448
    -6.6197  -6.0778  -5.4608  -5.1357   4.7790   5.8792   6.3206   6.4803
     6.9900   7.6409   8.7546   8.8895   9.4557   9.7777   9.9171  10.7261
    11.8104  11.8666  12.7193  12.8475

          k = 0.2857 0.2857 0.0966 (  3323 PWs)   bands (ev):

   -60.3150 -60.3124 -30.5965 -30.5933 -30.1653 -30.1607 -30.1599 -30.1525
    -6.5861  -6.0480  -5.4798  -5.1580   4.8322   5.9352   6.2795   6.4292
     7.0836   7.7564   8.5777   8.7928   9.4353   9.8019   9.9423  10.5731
    11.8755  11.9734  12.6735  12.9838

          k = 0.2857 0.2857 0.1931 (  3327 PWs)   bands (ev):

   -60.3137 -60.3112 -30.5945 -30.5920 -30.1850 -30.1763 -30.1582 -30.1565
    -6.4896  -5.9660  -5.5316  -5.2223   4.9829   6.0799   6.2108   6.3532
     7.3047   7.9574   8.0905   8.8949   9.0611   9.9181   9.9280  10.3507
    12.0353  12.1100  12.7046  13.1662

          k = 0.2857 0.2857 0.2897 (  3327 PWs)   bands (ev):

   -60.3116 -60.3095 -30.5916 -30.5902 -30.2172 -30.2094 -30.1528 -30.1515
    -6.3454  -5.8529  -5.5974  -5.3149   5.2162   6.1581   6.1734   6.4526
     7.4480   7.5936   8.2924   8.5975   9.0218   9.6653   9.9223  10.4073
    12.0888  12.2452  12.8013  13.2750

          k = 0.2857 0.2857 0.3862 (  3327 PWs)   bands (ev):

   -60.3093 -60.3075 -30.5883 -30.5882 -30.2541 -30.2474 -30.1464 -30.1457
    -6.1802  -5.7810  -5.6067  -5.4197   5.5028   6.1407   6.1827   6.6165
     7.0693   7.9185   8.0259   8.6099   9.0395   9.4543   9.8649  10.5483
    11.9441  12.4449  12.9040  13.2789

          k = 0.2857 0.2857 0.4828 (  3331 PWs)   bands (ev):

   -60.3070 -60.3056 -30.5865 -30.5852 -30.2891 -30.2834 -30.1402 -30.1401
    -6.0377  -5.7996  -5.5182  -5.5051   5.7954   6.0873   6.2318   6.4202
     7.1194   7.7785   8.2450   8.6903   8.8339   9.5144   9.8271  10.5812
    11.8265  12.5713  12.9325  13.2582

          k = 0.2857 0.2857 0.5793 (  3326 PWs)   bands (ev):

   -60.3051 -60.3043 -30.5853 -30.5827 -30.3162 -30.3113 -30.1358 -30.1352
    -5.9873  -5.7702  -5.5936  -5.4022   5.8567   6.1114   6.2982   6.3370
     6.9819   7.9645   8.3951   8.6455   8.7970   9.6197   9.8249  10.4426
    11.8323  12.6192  12.8089  13.0536

          k = 0.2857 0.2857 0.6759 (  3331 PWs)   bands (ev):

   -60.3039 -60.3036 -30.5847 -30.5814 -30.3311 -30.3265 -30.1334 -30.1325
    -5.9959  -5.7183  -5.6349  -5.3434   5.7272   6.2820   6.3344   6.3455
     6.8174   8.2486   8.3224   8.5189   8.9985   9.6648   9.8278  10.2674
    11.8904  12.6320  12.6804  12.9015

          k = 0.2857 0.4286 0.0000 (  3328 PWs)   bands (ev):

   -60.3147 -60.3137 -30.5969 -30.5953 -30.1635 -30.1619 -30.1512 -30.1478
    -6.4633  -6.2671  -5.3493  -5.2134   4.9377   5.3615   6.3342   6.4017
     7.5432   8.0822   8.5970   9.1876   9.2711   9.5588   9.7626  10.2815
    12.0672  12.0901  12.4613  12.5239

          k = 0.2857 0.4286 0.0966 (  3327 PWs)   bands (ev):

   -60.3142 -60.3133 -30.5962 -30.5948 -30.1633 -30.1611 -30.1581 -30.1553
    -6.4311  -6.2370  -5.3683  -5.2349   4.9880   5.4085   6.3017   6.3734
     7.6170   8.1564   8.6137   8.9625   9.3253   9.3685   9.8630  10.2181
    12.1058  12.1407  12.4878  12.6516

          k = 0.2857 0.4286 0.1931 (  3317 PWs)   bands (ev):

   -60.3129 -60.3120 -30.5944 -30.5933 -30.1821 -30.1789 -30.1576 -30.1569
    -6.3401  -6.1530  -5.4198  -5.2937   5.1331   5.5392   6.2411   6.3258
     7.7916   8.1882   8.6048   8.7036   9.0326   9.4481   9.8803  10.0610
    12.2237  12.2757  12.6217  12.8348

          k = 0.2857 0.4286 0.2897 (  3314 PWs)   bands (ev):

   -60.3109 -60.3102 -30.5917 -30.5910 -30.2147 -30.2118 -30.1524 -30.1518
    -6.2068  -6.0341  -5.4878  -5.3775   5.3518   5.7144   6.2016   6.3160
     7.7715   7.9950   8.4143   8.7826   8.9736   9.4550   9.7832  10.0428
    12.3795  12.3949  12.7529  12.9543

          k = 0.2857 0.4286 0.3862 (  3315 PWs)   bands (ev):

   -60.3087 -60.3081 -30.5886 -30.5885 -30.2520 -30.2495 -30.1462 -30.1459
    -6.0582  -5.9178  -5.5400  -5.4668   5.6074   5.8648   6.2024   6.3604
     7.4029   7.7726   8.4401   8.9351   8.9926   9.2338   9.8673  10.2141
    12.3306  12.5432  12.8114  12.9649

          k = 0.2857 0.4286 0.4828 (  3318 PWs)   bands (ev):

   -60.3065 -60.3061 -30.5863 -30.5857 -30.2874 -30.2852 -30.1403 -30.1402
    -5.9412  -5.8526  -5.5344  -5.5269   5.8409   5.9327   6.2391   6.3722
     7.2124   7.5123   8.5710   8.7744   9.0056   9.2612  10.0588  10.4144
    12.1698  12.5976  12.7626  12.8747

          k = 0.2857 0.4286 0.5793 (  3319 PWs)   bands (ev):

   -60.3048 -60.3045 -30.5846 -30.5834 -30.3149 -30.3129 -30.1358 -30.1355
    -5.9158  -5.8221  -5.5489  -5.4612   5.8879   5.9978   6.2815   6.3485
     7.1230   7.5363   8.4803   8.5839   9.1266   9.4243  10.2338  10.5316
    12.0131  12.5211  12.6881  12.7574

          k = 0.2857 0.4286 0.6759 (  3325 PWs)   bands (ev):

   -60.3038 -60.3037 -30.5837 -30.5822 -30.3299 -30.3279 -30.1334 -30.1330
    -5.9291  -5.8172  -5.5298  -5.4113   5.8198   6.0457   6.3129   6.3529
     7.0918   7.6562   8.3796   8.4476   9.2708   9.5228  10.3318  10.5535
    11.9341  12.4135  12.6577  12.6745

          k = 0.4286 0.4286 0.0000 (  3322 PWs)   bands (ev):

   -60.3143 -60.3140 -30.5979 -30.5973 -30.1618 -30.1611 -30.1501 -30.1489
    -6.4441  -6.3758  -5.2389  -5.1839   4.7862   4.9409   6.2894   6.3171
     8.0504   8.5554   8.6503   9.1448   9.5393   9.7259   9.8745  10.3110
    11.7738  11.8803  12.0540  12.0974

          k = 0.4286 0.4286 0.0966 (  3318 PWs)   bands (ev):

   -60.3139 -60.3136 -30.5972 -30.5966 -30.1611 -30.1599 -30.1577 -30.1567
    -6.4120  -6.3444  -5.2600  -5.2061   4.8379   4.9909   6.2599   6.2902
     8.1199   8.6344   8.6808   9.2034   9.3629   9.5152   9.8598  10.1847
    11.8521  11.9966  12.1501  12.1933

          k = 0.4286 0.4286 0.1931 (  3307 PWs)   bands (ev):

   -60.3126 -60.3123 -30.5952 -30.5947 -30.1808 -30.1795 -30.1569 -30.1566
    -6.3209  -6.2562  -5.3184  -5.2681   4.9882   5.1364   6.1975   6.2339
     8.2934   8.6640   8.7686   9.0599   9.1720   9.3599   9.6802   9.9146
    12.0565  12.2535  12.3558  12.4035

          k = 0.4286 0.4286 0.2897 (  3300 PWs)   bands (ev):

   -60.3107 -60.3104 -30.5923 -30.5920 -30.2137 -30.2126 -30.1519 -30.1516
    -6.1859  -6.1265  -5.4013  -5.3583   5.2220   5.3554   6.1444   6.1891
     8.2634   8.5069   8.5265   8.9031   9.3062   9.4000   9.5095   9.8149
    12.2941  12.5163  12.5387  12.6482

          k = 0.4286 0.4286 0.3862 (  3313 PWs)   bands (ev):

   -60.3085 -60.3083 -30.5889 -30.5889 -30.2514 -30.2504 -30.1460 -30.1459
    -6.0294  -5.9810  -5.4896  -5.4606   5.5106   5.6099   6.1221   6.1773
     7.7997   7.9962   8.6785   9.0250   9.0510   9.2095   9.8427  10.0707
    12.4838  12.6497  12.6665  12.8886

          k = 0.4286 0.4286 0.4828 (  3318 PWs)   bands (ev):

   -60.3064 -60.3062 -30.5859 -30.5856 -30.2872 -30.2863 -30.1404 -30.1404
    -5.8841  -5.8507  -5.5567  -5.5524   5.8135   5.8417   6.1336   6.2028
     7.4149   7.5545   8.6250   8.7290   9.1558   9.2914  10.1846  10.3511
    12.5967  12.6220  12.6901  13.1049

          k = 0.4286 0.4286 0.5793 (  3322 PWs)   bands (ev):

   -60.3047 -60.3046 -30.5836 -30.5831 -30.3150 -30.3141 -30.1361 -30.1359
    -5.8177  -5.7415  -5.6308  -5.5560   5.9720   6.0838   6.1632   6.2584
     7.1173   7.2945   8.4500   8.5001   9.3231   9.4423  10.4359  10.5561
    12.4804  12.6462  12.6844  12.8760

          k = 0.4286 0.4286 0.6759 (  3318 PWs)   bands (ev):

   -60.3038 -60.3037 -30.5824 -30.5818 -30.3302 -30.3293 -30.1337 -30.1335
    -5.8152  -5.6755  -5.6706  -5.5279   6.0066   6.1881   6.2617   6.3010
     6.9256   7.2147   8.3392   8.3742   9.4414   9.5366  10.5674  10.6576
    12.3795  12.6601  12.6680  12.7400

     highest occupied level (ev):    13.6976

!    total energy              =    -504.89691253 Ry
     estimated scf accuracy    <       0.00000059 Ry

     The total energy is the sum of the following terms:
     one-electron contribution =    -163.53483099 Ry
     hartree contribution      =     112.46807923 Ry
     xc contribution           =     -67.47363156 Ry
     ewald contribution        =    -386.35652921 Ry

     convergence has been achieved in  10 iterations

     Forces acting on atoms (cartesian axes, Ry/au):

     atom    1 type  1   force =     0.00000000    0.00000000   -0.00000000
     atom    2 type  1   force =     0.00000000    0.00000000    0.00000000
     atom    3 type  2   force =     0.00248993    0.00248993    0.00000000
     atom    4 type  2   force =    -0.00248993   -0.00248993    0.00000000
     atom    5 type  2   force =     0.00248993   -0.00248993   -0.00000000
     atom    6 type  2   force =    -0.00248993    0.00248993   -0.00000000

     Total force =     0.007043     Total SCF correction =     0.000181
 
     init_run     :      0.09s CPU      0.09s WALL (       1 calls)
     electrons    :      4.43s CPU      4.63s WALL (       1 calls)
     forces       :      0.02s CPU      0.03s WALL (       1 calls)

     Called by init_run:
     wfcinit      :      0.07s CPU      0.07s WALL (       1 calls)
     potinit      :      0.01s CPU      0.01s WALL (       1 calls)
     hinit0       :      0.01s CPU      0.01s WALL (       1 calls)

     Called by electrons:
     c_bands      :      4.12s CPU      4.31s WALL (      10 calls)
     sum_band     :      0.28s CPU      0.28s WALL (      10 calls)
     v_of_rho     :      0.02s CPU      0.02s WALL (      11 calls)
     mix_rho      :      0.00s CPU      0.00s WALL (      10 calls)

     Called by c_bands:
     init_us_2    :      0.04s CPU      0.04s WALL (     594 calls)
     init_us_2:cp :      0.04s CPU      0.04s WALL (     594 calls)
     cegterg      :      3.45s CPU      3.55s WALL (     270 calls)

     Called by *egterg:
     cdiaghg      :      1.15s CPU      1.18s WALL (    1869 calls)
     h_psi        :      1.90s CPU      1.97s WALL (    1896 calls)
     g_psi        :      0.01s CPU      0.01s WALL (    1599 calls)

     Called by h_psi:
     h_psi:calbec :      0.12s CPU      0.12s WALL (    1896 calls)
     vloc_psi     :      1.69s CPU      1.76s WALL (    1896 calls)
     add_vuspsi   :      0.08s CPU      0.08s WALL (    1896 calls)

     General routines
     calbec       :      0.12s CPU      0.13s WALL (    2004 calls)
     fft          :      0.01s CPU      0.01s WALL (     111 calls)
     ffts         :      0.00s CPU      0.00s WALL (      10 calls)
     fftw         :      1.68s CPU      1.74s WALL (   63160 calls)
 
     Parallel routines
 
     PWSCF        :      4.56s CPU      4.82s WALL

 
   This run was terminated on:  13:58:27  13Jul2026            

=------------------------------------------------------------------------------=
   JOB DONE.
=------------------------------------------------------------------------------=
