
     Program PWSCF v.7.1 starts on 13Jul2026 at 13:58:25 

     This program is part of the open-source Quantum ESPRESSO suite
     for quantum simulation of materials; please cite
         "P. Giannozzi et al., J. Phys.:Condens. Matter 21 395502 (2009);
         "P. Giannozzi et al., J. Phys.:Condens. Matter 29 465901 (2017);
         "P. Giannozzi et al., J. Chem. Phys. 152 154105 (2020);
          URL http://www.quantum-espresso.org", 
     in publications or presentations arising from this work. More details at
     http://www.quantum-espresso.org/quote

     Parallel version (MPI), running on    36 processors

     MPI processes distributed on     1 nodes
     169478 MiB available memory on the printing compute node when the environment starts
 
     Waiting for input...
     Reading input from standard input

     Current dimensions of program PWSCF are:
     Max number of different atomic species (ntypx) = 10
     Max number of k-points (npk) =  40000
     Max angular momentum in pseudopotentials (lmaxx) =  4
     Message from routine setup:
     using ibrav=0 with symmetry is DISCOURAGED, use correct ibrav instead
 
     K-points division:     npool     =       3
     R & G space division:  proc/nbgrp/npool/nimage =      12
     Subspace diagonalization in iterative solution of the eigenvalue problem:
     a serial algorithm will be used

 
     Parallelization info
     --------------------
     sticks:   dense  smooth     PW     G-vecs:    dense   smooth      PW
     Min         114     114     33                 2214     2214     351
     Max         115     115     34                 2217     2217     354
     Sum        1369    1369    405                26589    26589    4235
 
     Using Slab Decomposition
 


     bravais-lattice index     =            0
     lattice parameter (alat)  =       8.4977  a.u.
     unit-cell volume          =     423.6931 (a.u.)^3
     number of atoms/cell      =            6
     number of atomic types    =            2
     number of electrons       =        56.00
     number of Kohn-Sham states=           28
     kinetic-energy cutoff     =      60.0000  Ry
     charge density cutoff     =     240.0000  Ry
     scf convergence threshold =      1.0E-06
     mixing beta               =       0.7000
     number of iterations used =            8  plain     mixing
     Exchange-correlation= PBE
                           (   1   4   3   4   0   0   0)

     celldm(1)=   8.497720  celldm(2)=   0.000000  celldm(3)=   0.000000
     celldm(4)=   0.000000  celldm(5)=   0.000000  celldm(6)=   0.000000

     crystal axes: (cart. coord. in units of alat)
               a(1) = (   1.000000   0.000000   0.000000 )  
               a(2) = (   0.000000   1.000000   0.000000 )  
               a(3) = (   0.000000   0.000000   0.690469 )  

     reciprocal axes: (cart. coord. in units 2 pi/alat)
               b(1) = (  1.000000  0.000000  0.000000 )  
               b(2) = (  0.000000  1.000000  0.000000 )  
               b(3) = (  0.000000  0.000000  1.448291 )  


     PseudoPot. # 1 for Ru read from file:
     ./Ru_ONCV_PBE-1.2.upf
     MD5 check sum: 197966c748556f6a714a34a8c7eb0781
     Pseudo is Norm-conserving, Zval = 16.0
     Generated using ONCVPSP code by D. R. Hamann
     Using radial grid of  602 points,  6 beta functions with: 
                l(1) =   0
                l(2) =   0
                l(3) =   1
                l(4) =   1
                l(5) =   2
                l(6) =   2

     PseudoPot. # 2 for O  read from file:
     ./O_ONCV_PBE-1.2.upf
     MD5 check sum: e36c48deb68f4e355fffe4602be2c42c
     Pseudo is Norm-conserving, Zval =  6.0
     Generated using ONCVPSP code by D. R. Hamann
     Using radial grid of  602 points,  4 beta functions with: 
                l(1) =   0
                l(2) =   0
                l(3) =   1
                l(4) =   1

     atomic species   valence    mass     pseudopotential
        Ru            16.00   101.07000     Ru( 1.00)
        O              6.00    15.99900     O ( 1.00)

     16 Sym. Ops., with inversion, found ( 8 have fractional translation)



   Cartesian axes

     site n.     atom                  positions (alat units)
         1           Ru  tau(   1) = (   0.0000000   0.0000000   0.0000000  )
         2           Ru  tau(   2) = (   0.5000000   0.5000000   0.3452344  )
         3           O   tau(   3) = (   0.3053000   0.3053000   0.0000000  )
         4           O   tau(   4) = (   0.6947000   0.6947000   0.0000000  )
         5           O   tau(   5) = (   0.8053000   0.1947000   0.3452344  )
         6           O   tau(   6) = (   0.1947000   0.8053000   0.3452344  )

     number of k points=    63
                       cart. coord. in units 2pi/alat
        k(    1) = (   0.0000000   0.0000000   0.0000000), wk =   0.0033058
        k(    2) = (   0.0000000   0.0000000   0.2896583), wk =   0.0066116
        k(    3) = (   0.0000000   0.0000000   0.5793166), wk =   0.0066116
        k(    4) = (   0.0000000   0.0909091   0.0000000), wk =   0.0132231
        k(    5) = (   0.0000000   0.0909091   0.2896583), wk =   0.0264463
        k(    6) = (   0.0000000   0.0909091   0.5793166), wk =   0.0264463
        k(    7) = (   0.0000000   0.1818182   0.0000000), wk =   0.0132231
        k(    8) = (   0.0000000   0.1818182   0.2896583), wk =   0.0264463
        k(    9) = (   0.0000000   0.1818182   0.5793166), wk =   0.0264463
        k(   10) = (   0.0000000   0.2727273   0.0000000), wk =   0.0132231
        k(   11) = (   0.0000000   0.2727273   0.2896583), wk =   0.0264463
        k(   12) = (   0.0000000   0.2727273   0.5793166), wk =   0.0264463
        k(   13) = (   0.0000000   0.3636364   0.0000000), wk =   0.0132231
        k(   14) = (   0.0000000   0.3636364   0.2896583), wk =   0.0264463
        k(   15) = (   0.0000000   0.3636364   0.5793166), wk =   0.0264463
        k(   16) = (   0.0000000   0.4545455   0.0000000), wk =   0.0132231
        k(   17) = (   0.0000000   0.4545455   0.2896583), wk =   0.0264463
        k(   18) = (   0.0000000   0.4545455   0.5793166), wk =   0.0264463
        k(   19) = (   0.0909091   0.0909091   0.0000000), wk =   0.0132231
        k(   20) = (   0.0909091   0.0909091   0.2896583), wk =   0.0264463
        k(   21) = (   0.0909091   0.0909091   0.5793166), wk =   0.0264463
        k(   22) = (   0.0909091   0.1818182   0.0000000), wk =   0.0264463
        k(   23) = (   0.0909091   0.1818182   0.2896583), wk =   0.0528926
        k(   24) = (   0.0909091   0.1818182   0.5793166), wk =   0.0528926
        k(   25) = (   0.0909091   0.2727273   0.0000000), wk =   0.0264463
        k(   26) = (   0.0909091   0.2727273   0.2896583), wk =   0.0528926
        k(   27) = (   0.0909091   0.2727273   0.5793166), wk =   0.0528926
        k(   28) = (   0.0909091   0.3636364   0.0000000), wk =   0.0264463
        k(   29) = (   0.0909091   0.3636364   0.2896583), wk =   0.0528926
        k(   30) = (   0.0909091   0.3636364   0.5793166), wk =   0.0528926
        k(   31) = (   0.0909091   0.4545455   0.0000000), wk =   0.0264463
        k(   32) = (   0.0909091   0.4545455   0.2896583), wk =   0.0528926
        k(   33) = (   0.0909091   0.4545455   0.5793166), wk =   0.0528926
        k(   34) = (   0.1818182   0.1818182   0.0000000), wk =   0.0132231
        k(   35) = (   0.1818182   0.1818182   0.2896583), wk =   0.0264463
        k(   36) = (   0.1818182   0.1818182   0.5793166), wk =   0.0264463
        k(   37) = (   0.1818182   0.2727273   0.0000000), wk =   0.0264463
        k(   38) = (   0.1818182   0.2727273   0.2896583), wk =   0.0528926
        k(   39) = (   0.1818182   0.2727273   0.5793166), wk =   0.0528926
        k(   40) = (   0.1818182   0.3636364   0.0000000), wk =   0.0264463
        k(   41) = (   0.1818182   0.3636364   0.2896583), wk =   0.0528926
        k(   42) = (   0.1818182   0.3636364   0.5793166), wk =   0.0528926
        k(   43) = (   0.1818182   0.4545455   0.0000000), wk =   0.0264463
        k(   44) = (   0.1818182   0.4545455   0.2896583), wk =   0.0528926
        k(   45) = (   0.1818182   0.4545455   0.5793166), wk =   0.0528926
        k(   46) = (   0.2727273   0.2727273   0.0000000), wk =   0.0132231
        k(   47) = (   0.2727273   0.2727273   0.2896583), wk =   0.0264463
        k(   48) = (   0.2727273   0.2727273   0.5793166), wk =   0.0264463
        k(   49) = (   0.2727273   0.3636364   0.0000000), wk =   0.0264463
        k(   50) = (   0.2727273   0.3636364   0.2896583), wk =   0.0528926
        k(   51) = (   0.2727273   0.3636364   0.5793166), wk =   0.0528926
        k(   52) = (   0.2727273   0.4545455   0.0000000), wk =   0.0264463
        k(   53) = (   0.2727273   0.4545455   0.2896583), wk =   0.0528926
        k(   54) = (   0.2727273   0.4545455   0.5793166), wk =   0.0528926
        k(   55) = (   0.3636364   0.3636364   0.0000000), wk =   0.0132231
        k(   56) = (   0.3636364   0.3636364   0.2896583), wk =   0.0264463
        k(   57) = (   0.3636364   0.3636364   0.5793166), wk =   0.0264463
        k(   58) = (   0.3636364   0.4545455   0.0000000), wk =   0.0264463
        k(   59) = (   0.3636364   0.4545455   0.2896583), wk =   0.0528926
        k(   60) = (   0.3636364   0.4545455   0.5793166), wk =   0.0528926
        k(   61) = (   0.4545455   0.4545455   0.0000000), wk =   0.0132231
        k(   62) = (   0.4545455   0.4545455   0.2896583), wk =   0.0264463
        k(   63) = (   0.4545455   0.4545455   0.5793166), wk =   0.0264463

     Dense  grid:    26589 G-vectors     FFT dimensions: (  48,  48,  30)

     Estimated max dynamical RAM per process >       7.49 MB

     Estimated total dynamical RAM >     256.62 MB

     Initial potential from superposition of free atoms

     starting charge      55.8739, renormalised to      56.0000
     Starting wfcs are random

     total cpu time spent up to now is        0.1 secs

     per-process dynamical memory:   113.4 Mb

     Self-consistent Calculation

     iteration #  1     ecut=    60.00 Ry     beta= 0.70
     Davidson diagonalization with overlap
     ethr =  1.00E-02,  avg # of iterations = 10.2

     total cpu time spent up to now is        0.7 secs

     total energy              =    -504.24106657 Ry
     estimated scf accuracy    <       0.94061739 Ry

     iteration #  2     ecut=    60.00 Ry     beta= 0.70
     Davidson diagonalization with overlap
     ethr =  1.68E-03,  avg # of iterations =  6.4

     total cpu time spent up to now is        1.2 secs

     total energy              =    -504.20682347 Ry
     estimated scf accuracy    <       4.04972616 Ry

     iteration #  3     ecut=    60.00 Ry     beta= 0.70
     Davidson diagonalization with overlap
     ethr =  1.68E-03,  avg # of iterations =  5.9

     total cpu time spent up to now is        1.5 secs

     total energy              =    -504.88579440 Ry
     estimated scf accuracy    <       0.02660506 Ry

     iteration #  4     ecut=    60.00 Ry     beta= 0.70
     Davidson diagonalization with overlap
     ethr =  4.75E-05,  avg # of iterations =  4.6

     total cpu time spent up to now is        1.8 secs

     total energy              =    -504.89196026 Ry
     estimated scf accuracy    <       0.01150879 Ry

     iteration #  5     ecut=    60.00 Ry     beta= 0.70
     Davidson diagonalization with overlap
     ethr =  2.06E-05,  avg # of iterations =  5.2

     total cpu time spent up to now is        2.1 secs

     total energy              =    -504.89562918 Ry
     estimated scf accuracy    <       0.00096230 Ry

     iteration #  6     ecut=    60.00 Ry     beta= 0.70
     Davidson diagonalization with overlap
     c_bands:  1 eigenvalues not converged
     ethr =  1.72E-06,  avg # of iterations =  5.8

     total cpu time spent up to now is        2.5 secs

     total energy              =    -504.89707940 Ry
     estimated scf accuracy    <       0.00007290 Ry

     iteration #  7     ecut=    60.00 Ry     beta= 0.70
     Davidson diagonalization with overlap
     ethr =  1.30E-07,  avg # of iterations =  6.0

     total cpu time spent up to now is        2.8 secs

     total energy              =    -504.89710105 Ry
     estimated scf accuracy    <       0.00003333 Ry

     iteration #  8     ecut=    60.00 Ry     beta= 0.70
     Davidson diagonalization with overlap
     ethr =  5.95E-08,  avg # of iterations =  4.6

     total cpu time spent up to now is        3.1 secs

     total energy              =    -504.89710564 Ry
     estimated scf accuracy    <       0.00000706 Ry

     iteration #  9     ecut=    60.00 Ry     beta= 0.70
     Davidson diagonalization with overlap
     ethr =  1.26E-08,  avg # of iterations =  5.0

     total cpu time spent up to now is        3.4 secs

     End of self-consistent calculation

          k = 0.0000 0.0000 0.0000 (  3363 PWs)   bands (ev):

   -60.3141 -60.3073 -30.5939 -30.5939 -30.1574 -30.1574 -30.1573 -30.1330
    -7.0430  -6.0091  -5.0432  -5.0432   4.7076   4.8488   5.9633   6.3810
     6.3810   8.9468   8.9598   8.9598  10.4206  10.8473  10.8473  11.3790
    11.6489  11.7587  11.8464  11.8464

          k = 0.0000 0.0000 0.2897 (  3327 PWs)   bands (ev):

   -60.3098 -60.3043 -30.5886 -30.5886 -30.2186 -30.1992 -30.1475 -30.1475
    -6.7126  -5.8409  -5.2308  -5.2308   5.0811   5.3588   6.3798   6.5191
     6.5191   7.9648   9.0435   9.3167   9.3167   9.7583   9.7583  10.8061
    11.9207  12.3608  12.4904  12.9210

          k = 0.0000 0.0000 0.5793 (  3334 PWs)   bands (ev):

   -60.3022 -60.3001 -30.5800 -30.5800 -30.3142 -30.3070 -30.1315 -30.1315
    -6.0399  -5.6830  -5.5219  -5.5219   5.7248   6.0340   6.9536   6.9536
     7.1541   7.5513   7.7261   8.5183   8.5183   9.2184   9.8697   9.8697
    12.4079  12.6747  12.8023  13.6986

          k = 0.0000 0.0909 0.0000 (  3347 PWs)   bands (ev):

   -60.3139 -60.3074 -30.5937 -30.5936 -30.1577 -30.1577 -30.1568 -30.1335
    -7.0113  -6.0002  -5.0836  -5.0620   4.7704   4.9218   6.0204   6.3888
     6.3929   8.8376   8.8894   8.9174  10.2797  10.6032  10.7129  11.3471
    11.7529  11.9151  11.9182  11.9882

          k = 0.0000 0.0909 0.2897 (  3336 PWs)   bands (ev):

   -60.3097 -60.3044 -30.5885 -30.5885 -30.2181 -30.1997 -30.1477 -30.1476
    -6.6872  -5.8312  -5.2646  -5.2454   5.1363   5.4071   6.3406   6.5178
     6.6403   7.9065   8.7829   9.3145   9.3730   9.7037   9.7488  10.8546
    11.8457  12.4548  12.5545  12.8952

          k = 0.0000 0.0909 0.5793 (  3319 PWs)   bands (ev):

   -60.3022 -60.3001 -30.5803 -30.5803 -30.3138 -30.3070 -30.1315 -30.1315
    -6.0390  -5.7135  -5.5147  -5.4960   5.7469   6.0437   6.6869   6.8986
     7.3589   7.6538   7.7096   8.5198   8.6048   9.3100   9.8180   9.8203
    12.4427  12.5826  12.8082  13.5054

          k = 0.0000 0.1818 0.0000 (  3323 PWs)   bands (ev):

   -60.3135 -60.3078 -30.5931 -30.5931 -30.1585 -30.1585 -30.1554 -30.1349
    -6.9199  -5.9782  -5.1949  -5.1157   4.9512   5.1273   6.1936   6.4093
     6.4240   8.5298   8.6593   8.8496   9.9618  10.0770  10.4947  11.2502
    11.9801  12.1110  12.2280  12.2890

          k = 0.0000 0.1818 0.2897 (  3326 PWs)   bands (ev):

   -60.3093 -60.3047 -30.5884 -30.5883 -30.2169 -30.2010 -30.1481 -30.1478
    -6.6095  -5.8035  -5.3600  -5.2864   5.3006   5.5470   6.3352   6.5150
     6.8839   7.7779   8.3734   9.0837   9.1854   9.7602   9.7907  10.9179
    11.7626  12.6626  12.7029  12.8435

          k = 0.0000 0.1818 0.5793 (  3331 PWs)   bands (ev):

   -60.3020 -60.3003 -30.5810 -30.5809 -30.3129 -30.3069 -30.1315 -30.1314
    -6.0367  -5.7769  -5.4946  -5.4515   5.8011   6.0611   6.4002   6.7563
     7.5371   7.5385   8.0573   8.5509   8.7527   9.5075   9.6857   9.7277
    12.3368  12.5285  12.8229  13.1599

          k = 0.0000 0.2727 0.0000 (  3319 PWs)   bands (ev):

   -60.3129 -60.3084 -30.5924 -30.5924 -30.1597 -30.1596 -30.1531 -30.1372
    -6.7741  -5.9628  -5.3429  -5.1988   5.2286   5.4205   6.4392   6.4638
     6.4840   8.1378   8.2728   8.7912   9.4375   9.6090  10.3856  11.0895
    12.2258  12.3715  12.5942  12.5962

          k = 0.0000 0.2727 0.2897 (  3323 PWs)   bands (ev):

   -60.3088 -60.3052 -30.5882 -30.5881 -30.2151 -30.2029 -30.1486 -30.1482
    -6.4855  -5.7642  -5.5024  -5.3486   5.5580   5.7565   6.3897   6.5059
     7.1529   7.6865   7.9583   8.6837   8.8462   9.6328  10.0193  10.8452
    11.8868  12.7133  12.8615  12.9561

          k = 0.0000 0.2727 0.5793 (  3340 PWs)   bands (ev):

   -60.3018 -60.3004 -30.5819 -30.5818 -30.3115 -30.3070 -30.1314 -30.1313
    -6.0296  -5.8441  -5.4656  -5.4152   5.8578   6.0283   6.2539   6.5976
     7.4736   7.7470   8.1894   8.7855   8.8795   9.3584   9.5762   9.9917
    12.0024  12.6197  12.7642  12.8396

          k = 0.0000 0.3636 0.0000 (  3323 PWs)   bands (ev):

   -60.3121 -60.3092 -30.5918 -30.5917 -30.1607 -30.1606 -30.1502 -30.1401
    -6.5850  -6.0065  -5.4539  -5.2967   5.5650   5.7335   6.4724   6.4962
     6.9022   7.7497   7.8248   8.7496   8.7820   9.2837  10.4070  10.8962
    12.4462  12.6329  12.7995  12.8144

          k = 0.0000 0.3636 0.2897 (  3322 PWs)   bands (ev):

   -60.3082 -60.3059 -30.5881 -30.5880 -30.2129 -30.2053 -30.1490 -30.1486
    -6.3230  -5.7679  -5.6215  -5.4264   5.8783   5.9956   6.4751   6.4830
     7.2290   7.5839   7.8522   8.3454   8.4930   9.3042  10.2549  10.7174
    12.1338  12.6305  13.0079  13.1431

          k = 0.0000 0.3636 0.5793 (  3331 PWs)   bands (ev):

   -60.3016 -60.3007 -30.5828 -30.5827 -30.3101 -30.3073 -30.1313 -30.1313
    -6.0149  -5.9038  -5.4339  -5.3951   5.8786   5.9289   6.2720   6.4784
     7.4996   7.9476   8.1349   8.9585   9.0483   9.0779   9.6791  10.3125
    11.6821  12.3074  12.7361  12.8483

          k = 0.0000 0.4545 0.0000 (  3327 PWs)   bands (ev):

   -60.3111 -60.3102 -30.5914 -30.5913 -30.1613 -30.1612 -30.1468 -30.1434
    -6.3689  -6.1565  -5.4609  -5.3933   5.8634   5.9378   6.4999   6.5112
     7.4341   7.4732   7.4960   8.0673   8.8562   9.0278  10.5219  10.6956
    12.6261  12.7503  12.8281  12.8989

          k = 0.0000 0.4545 0.2897 (  3324 PWs)   bands (ev):

   -60.3074 -60.3066 -30.5879 -30.5879 -30.2104 -30.2078 -30.1491 -30.1490
    -6.1338  -5.9334  -5.5855  -5.5086   6.1856   6.2001   6.4432   6.5001
     7.1686   7.2898   8.0838   8.2150   8.3894   8.8462  10.4513  10.5985
    12.3597  12.5204  13.1457  13.2189

          k = 0.0000 0.4545 0.5793 (  3325 PWs)   bands (ev):

   -60.3013 -60.3010 -30.5832 -30.5832 -30.3088 -30.3078 -30.1313 -30.1312
    -5.9896  -5.9527  -5.4076  -5.3936   5.8664   5.8704   6.3332   6.4006
     7.6240   7.8157   8.3771   8.7090   9.0592   9.0903  10.0484  10.3634
    11.6111  11.8940  12.8016  12.8387

          k = 0.0909 0.0909 0.0000 (  3327 PWs)   bands (ev):

   -60.3138 -60.3075 -30.5940 -30.5930 -30.1585 -30.1574 -30.1563 -30.1340
    -6.9813  -5.9918  -5.1451  -5.0541   4.7583   5.0638   6.0768   6.3744
     6.4231   8.6123   8.8878   8.9330  10.1960  10.4393  10.6407  11.3155
    11.7566  11.8492  12.0562  12.2073

          k = 0.0909 0.0909 0.2897 (  3337 PWs)   bands (ev):

   -60.3096 -60.3045 -30.5887 -30.5883 -30.2177 -30.2001 -30.1479 -30.1476
    -6.6625  -5.8214  -5.3130  -5.2420   5.1547   5.4876   6.3018   6.5846
     6.6904   7.8296   8.7269   9.1506   9.2678   9.7344   9.8529  10.8916
    11.7848  12.3908  12.7215  12.8785

          k = 0.0909 0.0909 0.5793 (  3320 PWs)   bands (ev):

   -60.3021 -60.3002 -30.5809 -30.5801 -30.3136 -30.3069 -30.1316 -30.1314
    -6.0386  -5.7291  -5.5309  -5.4630   5.7664   6.0560   6.5997   6.7752
     7.4448   7.6851   7.7772   8.5030   8.6973   9.3899   9.6820   9.8630
    12.4696  12.4960  12.8140  13.4704

          k = 0.0909 0.1818 0.0000 (  3328 PWs)   bands (ev):

   -60.3134 -60.3079 -30.5940 -30.5922 -30.1596 -30.1577 -30.1549 -30.1353
    -6.8960  -5.9720  -5.2617  -5.0897   4.8317   5.3512   6.2446   6.3770
     6.4620   8.2288   8.8133   8.8251   9.9642  10.0651  10.4164  11.2105
    11.8943  11.9461  12.3489  12.5005

          k = 0.0909 0.1818 0.2897 (  3337 PWs)   bands (ev):

   -60.3092 -60.3048 -30.5888 -30.5880 -30.2166 -30.2013 -30.1484 -30.1477
    -6.5890  -5.7938  -5.4135  -5.2702   5.2373   5.6891   6.2792   6.6067
     6.9073   7.6677   8.4699   8.7778   9.2697   9.6635   9.9733  10.9199
    11.7304  12.4371  12.8275  12.9695

          k = 0.0909 0.1818 0.5793 (  3328 PWs)   bands (ev):

   -60.3020 -60.3003 -30.5818 -30.5805 -30.3128 -30.3068 -30.1316 -30.1313
    -6.0361  -5.7725  -5.5251  -5.4244   5.8134   6.0826   6.3781   6.6614
     7.3692   7.7871   8.0711   8.5194   8.8316   9.4817   9.6167   9.8355
    12.2717  12.5388  12.8277  13.2084

          k = 0.0909 0.2727 0.0000 (  3328 PWs)   bands (ev):

   -60.3128 -60.3085 -30.5935 -30.5916 -30.1606 -30.1585 -30.1528 -30.1375
    -6.7594  -5.9640  -5.3919  -5.1647   5.0217   5.6833   6.3975   6.4954
     6.5313   7.8097   8.5117   8.7801   9.5426   9.6614  10.2676  11.0425
    12.1359  12.1798  12.6898  12.7492

          k = 0.0909 0.2727 0.2897 (  3326 PWs)   bands (ev):

   -60.3088 -60.3053 -30.5887 -30.5879 -30.2149 -30.2031 -30.1488 -30.1480
    -6.4718  -5.7563  -5.5456  -5.3275   5.4079   5.9483   6.3052   6.5943
     7.1601   7.5487   8.1380   8.4241   9.0954   9.5807  10.0393  10.8156
    11.8738  12.5541  12.8375  13.1165

          k = 0.0909 0.2727 0.5793 (  3332 PWs)   bands (ev):

   -60.3018 -60.3005 -30.5826 -30.5812 -30.3117 -30.3068 -30.1316 -30.1312
    -6.0274  -5.8300  -5.4968  -5.3983   5.8576   6.0548   6.2558   6.5461
     7.3236   7.9183   8.2051   8.6992   8.9123   9.3475   9.6400  10.0452
    11.9711  12.6192  12.8005  12.8607

          k = 0.0909 0.3636 0.0000 (  3324 PWs)   bands (ev):

   -60.3120 -60.3093 -30.5928 -30.5913 -30.1612 -30.1596 -30.1500 -30.1403
    -6.5812  -6.0228  -5.4677  -5.2629   5.3058   5.9320   6.4322   6.5109
     6.9357   7.5065   8.1040   8.7963   8.9089   9.3554  10.2927  10.8347
    12.3762  12.4620  12.7928  12.8856

          k = 0.0909 0.3636 0.2897 (  3325 PWs)   bands (ev):

   -60.3081 -60.3059 -30.5885 -30.5879 -30.2127 -30.2053 -30.1490 -30.1484
    -6.3186  -5.7872  -5.6238  -5.4044   5.6556   6.1826   6.3628   6.5301
     7.2103   7.5942   7.9535   8.2427   8.7408   9.3205  10.1854  10.6688
    12.1279  12.5939  12.9254  13.2177

          k = 0.0909 0.3636 0.5793 (  3332 PWs)   bands (ev):

   -60.3015 -60.3007 -30.5831 -30.5821 -30.3104 -30.3072 -30.1315 -30.1312
    -6.0094  -5.8882  -5.4597  -5.3898   5.8684   5.9535   6.2822   6.4551
     7.3754   7.9675   8.2185   8.8681   8.9233   9.2534   9.7433  10.3437
    11.6933  12.3658  12.7218  12.8479

          k = 0.0909 0.4545 0.0000 (  3321 PWs)   bands (ev):

   -60.3111 -60.3102 -30.5920 -30.5914 -30.1612 -30.1606 -30.1468 -30.1435
    -6.3783  -6.1761  -5.4470  -5.3651   5.6366   5.9092   6.4710   6.5013
     7.3229   7.5698   7.7673   8.2522   8.8996   9.0912  10.4261  10.6181
    12.5754  12.7151  12.7191  12.8718

          k = 0.0909 0.4545 0.2897 (  3318 PWs)   bands (ev):

   -60.3074 -60.3066 -30.5882 -30.5880 -30.2103 -30.2078 -30.1491 -30.1488
    -6.1408  -5.9529  -5.5698  -5.4888   5.9499   6.2040   6.4254   6.4521
     7.2423   7.4101   8.1215   8.3833   8.4411   8.8877  10.3692  10.5305
    12.3615  12.5200  13.0821  13.2141

          k = 0.0909 0.4545 0.5793 (  3335 PWs)   bands (ev):

   -60.3013 -60.3010 -30.5832 -30.5828 -30.3090 -30.3079 -30.1314 -30.1313
    -5.9804  -5.9399  -5.4246  -5.3993   5.8623   5.8862   6.3366   6.3934
     7.5317   7.7584   8.4426   8.6921   9.0432   9.1389  10.0885  10.3816
    11.6614  11.9536  12.7856  12.8287

          k = 0.1818 0.1818 0.0000 (  3343 PWs)   bands (ev):

   -60.3131 -60.3083 -30.5945 -30.5915 -30.1606 -30.1574 -30.1537 -30.1365
    -6.8263  -5.9623  -5.3722  -5.0875   4.7731   5.6928   6.3539   6.3988
     6.4980   7.8161   8.7846   8.8600   9.8803   9.9201  10.2997  11.1006
    11.8130  11.8571  12.6176  12.7419

          k = 0.1818 0.1818 0.2897 (  3336 PWs)   bands (ev):

   -60.3090 -60.3051 -30.5891 -30.5878 -30.2157 -30.2022 -30.1487 -30.1476
    -6.5280  -5.7672  -5.5162  -5.2706   5.2035   5.9447   6.2276   6.6825
     7.0397   7.4835   8.4087   8.5787   9.1546   9.6995  10.0711  10.8641
    11.7393  12.3143  12.8181  13.2093

          k = 0.1818 0.1818 0.5793 (  3337 PWs)   bands (ev):

   -60.3019 -60.3004 -30.5826 -30.5804 -30.3126 -30.3066 -30.1318 -30.1312
    -6.0313  -5.7714  -5.5555  -5.3972   5.8386   6.1322   6.3030   6.5153
     7.2144   8.0429   8.1598   8.5136   8.8623   9.4292   9.6812   9.9551
    12.1085  12.5682  12.8358  13.2530

          k = 0.1818 0.2727 0.0000 (  3331 PWs)   bands (ev):

   -60.3125 -60.3088 -30.5945 -30.5912 -30.1612 -30.1577 -30.1518 -30.1384
    -6.7147  -5.9824  -5.4570  -5.1283   4.8418   5.9618   6.3537   6.5121
     6.6685   7.5123   8.6992   8.7859   9.6451   9.7624  10.0749  10.9224
    11.9363  11.9564  12.7982  12.8823

          k = 0.1818 0.2727 0.2897 (  3329 PWs)   bands (ev):

   -60.3085 -60.3055 -30.5892 -30.5878 -30.2143 -30.2037 -30.1490 -30.1478
    -6.4306  -5.7519  -5.6148  -5.3043   5.2655   6.1765   6.2219   6.6050
     7.2472   7.4223   8.2144   8.4265   9.1445   9.6141  10.0419  10.6908
    11.9034  12.3504  12.8214  13.2887

          k = 0.1818 0.2727 0.5793 (  3325 PWs)   bands (ev):

   -60.3017 -60.3005 -30.5831 -30.5807 -30.3120 -30.3066 -30.1318 -30.1312
    -6.0171  -5.7963  -5.5491  -5.3865   5.8577   6.1085   6.2707   6.4310
     7.1259   8.0873   8.2929   8.6453   8.7773   9.5047   9.6880  10.1936
    11.9013  12.6142  12.8277  12.9767

          k = 0.1818 0.3636 0.0000 (  3320 PWs)   bands (ev):

   -60.3118 -60.3095 -30.5940 -30.5915 -30.1612 -30.1585 -30.1494 -30.1409
    -6.5691  -6.0747  -5.4642  -5.2057   5.0292   5.9324   6.3764   6.4980
     7.0250   7.5635   8.3525   8.8655   9.2519   9.5205  10.0120  10.6810
    12.1813  12.1944  12.7444  12.8777

          k = 0.1818 0.3636 0.2897 (  3322 PWs)   bands (ev):

   -60.3080 -60.3061 -30.5891 -30.5881 -30.2124 -30.2056 -30.1491 -30.1481
    -6.3043  -5.8488  -5.6008  -5.3660   5.4257   6.2056   6.2645   6.4650
     7.3197   7.6426   8.1839   8.3216   8.9783   9.4151  10.0233  10.5008
    12.1496  12.4709  12.8363  13.2711

          k = 0.1818 0.3636 0.5793 (  3328 PWs)   bands (ev):

   -60.3015 -60.3008 -30.5833 -30.5815 -30.3109 -30.3072 -30.1318 -30.1313
    -5.9910  -5.8466  -5.5116  -5.3954   5.8607   6.0029   6.3063   6.3988
     7.1683   7.9126   8.3853   8.7084   8.8752   9.4317   9.8675  10.4308
    11.7431  12.5203  12.6969  12.8365

          k = 0.1818 0.4545 0.0000 (  3322 PWs)   bands (ev):

   -60.3111 -60.3102 -30.5932 -30.5922 -30.1606 -30.1596 -30.1466 -30.1436
    -6.4014  -6.2276  -5.4005  -5.3041   5.3118   5.6463   6.4154   6.4604
     7.4057   7.7496   8.1799   8.6847   9.0293   9.2579  10.1721  10.4163
    12.4231  12.4786  12.6159  12.7288

          k = 0.1818 0.4545 0.2897 (  3315 PWs)   bands (ev):

   -60.3073 -60.3067 -30.5888 -30.5884 -30.2102 -30.2078 -30.1489 -30.1485
    -6.1575  -6.0007  -5.5277  -5.4444   5.6694   5.9624   6.3258   6.3992
     7.4735   7.6550   8.2845   8.5635   8.6869   9.0470  10.1543  10.3288
    12.3768  12.5045  12.9358  13.1264

          k = 0.1818 0.4545 0.5793 (  3332 PWs)   bands (ev):

   -60.3012 -60.3010 -30.5830 -30.5823 -30.3096 -30.3082 -30.1316 -30.1315
    -5.9522  -5.9023  -5.4647  -5.4231   5.8714   5.9184   6.3372   6.3735
     7.3533   7.6260   8.5225   8.6387   9.0655   9.2505  10.1813  10.4331
    11.8117  12.1245  12.7480  12.7984

          k = 0.2727 0.2727 0.0000 (  3327 PWs)   bands (ev):

   -60.3121 -60.3092 -30.5951 -30.5915 -30.1612 -30.1573 -30.1503 -30.1399
    -6.6418  -6.0475  -5.4679  -5.1275   4.7809   5.9480   6.3297   6.4960
     6.9054   7.5603   8.7675   8.8585   9.4897   9.7928   9.9667  10.7764
    11.8160  11.8677  12.7502  12.8792

          k = 0.2727 0.2727 0.2897 (  3329 PWs)   bands (ev):

   -60.3082 -60.3058 -30.5896 -30.5881 -30.2132 -30.2047 -30.1491 -30.1477
    -6.3648  -5.8202  -5.6097  -5.3075   5.2173   6.1810   6.2121   6.4820
     7.4080   7.5169   8.2541   8.5836   9.0373   9.6720   9.9620  10.4755
    12.0394  12.2527  12.8093  13.3100

          k = 0.2727 0.2727 0.5793 (  3333 PWs)   bands (ev):

   -60.3016 -60.3007 -30.5833 -30.5807 -30.3119 -30.3068 -30.1320 -30.1313
    -5.9945  -5.7704  -5.5869  -5.3943   5.8586   6.1199   6.3202   6.3240
     7.0011   8.0213   8.3857   8.6634   8.7423   9.6359   9.7602  10.3901
    11.8395  12.6195  12.8195  13.0768

          k = 0.2727 0.3636 0.0000 (  3321 PWs)   bands (ev):

   -60.3116 -60.3097 -30.5951 -30.5924 -30.1606 -30.1577 -30.1484 -30.1418
    -6.5434  -6.1594  -5.4169  -5.1677   4.8472   5.6564   6.3310   6.4537
     7.2354   7.9098   8.5895   9.0121   9.4409   9.6835   9.7470  10.5333
    11.9337  11.9672  12.6266  12.7344

          k = 0.2727 0.3636 0.2897 (  3318 PWs)   bands (ev):

   -60.3078 -60.3063 -30.5897 -30.5885 -30.2117 -30.2061 -30.1489 -30.1478
    -6.2776  -5.9352  -5.5480  -5.3404   5.2742   5.9697   6.1862   6.3970
     7.5758   7.8154   8.3773   8.6202   9.0046   9.5824   9.8308  10.2422
    12.2354  12.3153  12.7856  13.1542

          k = 0.2727 0.3636 0.5793 (  3323 PWs)   bands (ev):

   -60.3014 -60.3008 -30.5830 -30.5811 -30.3113 -30.3076 -30.1320 -30.1315
    -5.9567  -5.7910  -5.5724  -5.4215   5.8669   6.0575   6.2804   6.3643
     7.0239   7.7762   8.4360   8.6238   8.9549   9.5298  10.0225  10.5320
    11.8607  12.6366  12.7628  12.8232

          k = 0.2727 0.4545 0.0000 (  3328 PWs)   bands (ev):

   -60.3110 -60.3103 -30.5945 -30.5935 -30.1596 -30.1585 -30.1462 -30.1440
    -6.4247  -6.2925  -5.3319  -5.2414   5.0324   5.3162   6.3563   6.4011
     7.6165   7.9824   8.6373   9.1076   9.2273   9.4697   9.8745  10.1973
    12.1846  12.2045  12.4323  12.4873

          k = 0.2727 0.4545 0.2897 (  3313 PWs)   bands (ev):

   -60.3073 -60.3068 -30.5895 -30.5891 -30.2099 -30.2079 -30.1485 -30.1482
    -6.1733  -6.0569  -5.4722  -5.3987   5.4325   5.6760   6.2311   6.3074
     7.7884   7.9529   8.4452   8.7247   8.9937   9.3357   9.8573  10.0294
    12.4152  12.4468  12.7754  12.9261

          k = 0.2727 0.4545 0.5793 (  3318 PWs)   bands (ev):

   -60.3012 -60.3010 -30.5824 -30.5817 -30.3101 -30.3088 -30.1319 -30.1318
    -5.9053  -5.8461  -5.5214  -5.4661   5.8984   5.9662   6.3036   6.3452
     7.2050   7.4769   8.5095   8.5784   9.1668   9.3632  10.2917  10.4943
    12.0507  12.3802  12.7060  12.7541

          k = 0.3636 0.3636 0.0000 (  3327 PWs)   bands (ev):

   -60.3112 -60.3101 -30.5956 -30.5936 -30.1596 -30.1573 -30.1472 -30.1430
    -6.4999  -6.2579  -5.3418  -5.1643   4.7857   5.3183   6.3072   6.3954
     7.5447   8.2976   8.6866   9.2221   9.4509   9.5514   9.7463  10.4495
    11.7939  11.8779  12.4332  12.4905

          k = 0.3636 0.3636 0.2897 (  3320 PWs)   bands (ev):

   -60.3075 -60.3065 -30.5900 -30.5892 -30.2107 -30.2070 -30.1486 -30.1478
    -6.2366  -6.0255  -5.4825  -5.3405   5.2223   5.6781   6.1558   6.3037
     7.8695   8.0825   8.4920   8.9446   9.0005   9.6050   9.6203  10.0092
    12.2528  12.3663  12.7357  12.9176

          k = 0.3636 0.3636 0.5793 (  3313 PWs)   bands (ev):

   -60.3013 -60.3009 -30.5825 -30.5810 -30.3111 -30.3084 -30.1322 -30.1318
    -5.9063  -5.7511  -5.6145  -5.4660   5.8926   6.0935   6.2066   6.3466
     7.0156   7.5703   8.4344   8.5773   9.1212   9.5165  10.2129  10.5839
    12.0638  12.6406  12.7528  12.9402

          k = 0.3636 0.4545 0.0000 (  3334 PWs)   bands (ev):

   -60.3108 -60.3104 -30.5955 -30.5948 -30.1585 -30.1576 -30.1458 -30.1444
    -6.4362  -6.3539  -5.2622  -5.1983   4.8506   5.0344   6.3105   6.3424
     7.9090   8.2719   8.8450   9.2165   9.4537   9.6545   9.7854  10.1957
    11.9158  11.9756  12.1780  12.2102

          k = 0.3636 0.4545 0.2897 (  3309 PWs)   bands (ev):

   -60.3072 -60.3068 -30.5900 -30.5897 -30.2094 -30.2081 -30.1482 -30.1479
    -6.1800  -6.1085  -5.4179  -5.3676   5.2783   5.4358   6.1689   6.2212
     8.1244   8.2802   8.5601   8.8239   9.3374   9.4927   9.5372   9.7804
    12.3508  12.4707  12.6562  12.6910

          k = 0.3636 0.4545 0.5793 (  3315 PWs)   bands (ev):

   -60.3012 -60.3011 -30.5819 -30.5813 -30.3104 -30.3094 -30.1322 -30.1320
    -5.8445  -5.7808  -5.5867  -5.5248   5.9474   6.0295   6.2284   6.2926
     7.1400   7.3413   8.4687   8.5231   9.2849   9.4234  10.4020  10.5396
    12.3472  12.6437  12.7023  12.7071

          k = 0.4545 0.4545 0.0000 (  3318 PWs)   bands (ev):

   -60.3107 -60.3106 -30.5960 -30.5957 -30.1576 -30.1573 -30.1453 -30.1448
    -6.4289  -6.4010  -5.2088  -5.1855   4.7893   4.8516   6.2923   6.3036
     8.2559   8.5820   8.6411   8.9597   9.6471   9.7286  10.0774  10.2821
    11.7726  11.8842  11.9065  11.9787

          k = 0.4545 0.4545 0.2897 (  3300 PWs)   bands (ev):

   -60.3071 -60.3069 -30.5903 -30.5902 -30.2090 -30.2085 -30.1479 -30.1478
    -6.1718  -6.1477  -5.3777  -5.3599   5.2242   5.2796   6.1462   6.1648
     8.4087   8.5384   8.6726   8.8930   9.1889   9.2669   9.6637   9.7907
    12.3211  12.4314  12.5525  12.6104

          k = 0.4545 0.4545 0.5793 (  3311 PWs)   bands (ev):

   -60.3011 -60.3011 -30.5814 -30.5812 -30.3104 -30.3101 -30.1323 -30.1322
    -5.7768  -5.7360  -5.6314  -5.5909   6.0186   6.0847   6.1569   6.2157
     7.1573   7.2321   8.4572   8.4787   9.3732   9.4235  10.4954  10.5459
    12.6532  12.6586  12.6695  12.8621

     highest occupied level (ev):    13.6986

!    total energy              =    -504.89710699 Ry
     estimated scf accuracy    <       0.00000086 Ry

     The total energy is the sum of the following terms:
     one-electron contribution =    -163.54913005 Ry
     hartree contribution      =     112.48399528 Ry
     xc contribution           =     -67.47544301 Ry
     ewald contribution        =    -386.35652921 Ry

     convergence has been achieved in   9 iterations

     Forces acting on atoms (cartesian axes, Ry/au):

     atom    1 type  1   force =     0.00000000    0.00000000    0.00000000
     atom    2 type  1   force =     0.00000000    0.00000000    0.00000000
     atom    3 type  2   force =     0.00534741    0.00534741   -0.00000000
     atom    4 type  2   force =    -0.00534741   -0.00534741   -0.00000000
     atom    5 type  2   force =     0.00534741   -0.00534741    0.00000000
     atom    6 type  2   force =    -0.00534741    0.00534741    0.00000000

     Total force =     0.015125     Total SCF correction =     0.000064
 
     init_run     :      0.06s CPU      0.08s WALL (       1 calls)
     electrons    :      3.18s CPU      3.33s WALL (       1 calls)
     forces       :      0.02s CPU      0.02s WALL (       1 calls)

     Called by init_run:
     wfcinit      :      0.05s CPU      0.05s WALL (       1 calls)
     potinit      :      0.01s CPU      0.01s WALL (       1 calls)
     hinit0       :      0.01s CPU      0.01s WALL (       1 calls)

     Called by electrons:
     c_bands      :      2.96s CPU      3.10s WALL (       9 calls)
     sum_band     :      0.20s CPU      0.20s WALL (       9 calls)
     v_of_rho     :      0.02s CPU      0.02s WALL (      10 calls)
     mix_rho      :      0.00s CPU      0.00s WALL (       9 calls)

     Called by c_bands:
     init_us_2    :      0.03s CPU      0.03s WALL (     420 calls)
     init_us_2:cp :      0.02s CPU      0.03s WALL (     420 calls)
     cegterg      :      2.44s CPU      2.51s WALL (     189 calls)

     Called by *egterg:
     cdiaghg      :      0.81s CPU      0.83s WALL (    1320 calls)
     h_psi        :      1.35s CPU      1.40s WALL (    1341 calls)
     g_psi        :      0.01s CPU      0.01s WALL (    1131 calls)

     Called by h_psi:
     h_psi:calbec :      0.08s CPU      0.09s WALL (    1341 calls)
     vloc_psi     :      1.20s CPU      1.24s WALL (    1341 calls)
     add_vuspsi   :      0.05s CPU      0.06s WALL (    1341 calls)

     General routines
     calbec       :      0.09s CPU      0.09s WALL (    1425 calls)
     fft          :      0.01s CPU      0.01s WALL (     101 calls)
     ffts         :      0.00s CPU      0.00s WALL (       9 calls)
     fftw         :      1.18s CPU      1.22s WALL (   44538 calls)
 
     Parallel routines
 
     PWSCF        :      3.29s CPU      3.49s WALL

 
   This run was terminated on:  13:58:29  13Jul2026            

=------------------------------------------------------------------------------=
   JOB DONE.
=------------------------------------------------------------------------------=
