../04-vc-relax-with-consistent-param/output final structure
1.0
   4.642831961   0.000000000   0.000000000
   0.000000000   4.642831961   0.000000000
   0.000000000   0.000000000   2.967470812
Ti O
2  4
Cartesian
               0.0000000000        0.0000000000        0.0000000000
               2.3214159806        2.3214159806        1.4837354063
               1.4162226201        1.4162226201        0.0000000000
               3.2266093414        3.2266093414        0.0000000000
               3.7376386006        0.9051933608        1.4837354063
               0.9051933608        3.7376386006        1.4837354063
