../8_layer/output final structure
1.0
        6.5252737999         0.0000000000         0.0000000000
        0.0000000000         2.9672219753         0.0000000000
        0.0000000000         0.0000000000        47.9658851624
    O   Ru
    4    2
Cartesian
     3.262636511         0.000000000        34.986138378
     3.262636511         0.000000000        37.571854268
     5.296183497         1.483610988        36.384833257
     1.229090594         1.483610988        36.384833257
     0.000000000         0.000000000        36.020246333
     3.262636511         1.483610811        36.505376833
