../../../03-100-interface/04-strained-RuO2-film/relax_1_layer_R-RuO2_only.vasp/output final
1.0
        4.7124180794         0.0000000000         0.0000000000
        0.0000000000         2.9626882076         0.0000000000
        0.0000000000         0.0000000000        55.8528175354
    O   Ru
    2    1
Cartesian
               1.4856604004        0.0000000000       10.0014771735
               3.0590869185        0.0000000000       11.7584260969
               2.2724269261        1.4813439270       10.8800297066
