=== Begin structure: 01-TiO2-R-bulk-optimized.vasp ===
../04-vc-relax-with-consistent-param/output final structure
1.0
   4.641577898   0.000000000   0.000000000
   0.000000000   4.641577898   0.000000000
   0.000000000   0.000000000   2.968675875
Ti O
2  4
Cartesian
            0.0000000000        0.0000000000       -0.0000000000
            2.3207889491        2.3207889491        1.4843379377
            1.4157865023        1.4157865023        0.0000000000
            3.2257913961        3.2257913961        0.0000000000
            3.7365754513        0.9050024470        1.4843379377
            0.9050024470        3.7365754513        1.4843379377
===  End  structure: 01-TiO2-R-bulk-optimized.vasp ===
=== Begin structure: 02-RuO2-R-bulk-optimized.vasp ===
../04-vc-relax-with-consistent-param/output final structure
1.0
   4.527911459   0.000000000   0.000000000
   0.000000000   4.527911459   0.000000000
   0.000000000   0.000000000   3.117533920
Ru O
2  4
Cartesian
            0.0000000000        0.0000000000        0.0000000000
            2.2639557299        2.2639557299        1.5587669598
            1.3838447779        1.3838447779       -0.0000000000
            3.1440666819        3.1440666819       -0.0000000000
            3.6478005077        0.8801109520        1.5587669598
            0.8801109520        3.6478005077        1.5587669598
===  End  structure: 02-RuO2-R-bulk-optimized.vasp ===
=== Begin structure: 03-TiO2-R_110_6layer_optimized.vasp ===
../6_layer/output final structure
1.0
   6.516889485   0.000000000   0.000000000
   0.000000000   2.965677286   0.000000000
   0.000000000   0.000000000  41.469413757
   Ti    O
   12   24
Cartesian
               3.2584445483        0.0000000000       13.2699644555
               0.0000000000        1.4828385552       12.7664183351
               0.0000000000        0.0000000000       16.1054405088
               3.2584445483        1.4828385552       16.5136887429
               3.2584445483        0.0000000000       19.9029073980
               0.0000000000        1.4828385552       19.5613645726
               0.0000000000        0.0000000000       22.8349849739
               3.2584445483        1.4828385552       23.1762609384
               3.2584445483        0.0000000000       26.6302529023
               0.0000000000        1.4828385552       26.2250877850
               0.0000000000        0.0000000000       29.4710553104
               3.2584445483        1.4828385552       29.9695822492
               0.0000000000        0.0000000000       11.6998470830
               3.2584445483        0.0000000000       15.0678293618
               0.0000000000        0.0000000000       14.2849204939
               2.0289981535        1.4828385552       12.9047836092
               4.4878911377        1.4828385552       12.9047836092
               0.0000000000        0.0000000000       18.4011444674
               3.2584445483        0.0000000000       17.6569695576
               5.2332100287        1.4828386434       16.3245467882
               1.2836794560        1.4828386434       16.3245467882
               3.2584445483        0.0000000000       21.7546095508
               0.0000000000        0.0000000000       20.9836248783
               1.9903366109        1.4828385552       19.7077583436
               4.5265526802        1.4828385552       19.7077583436
               0.0000000000        0.0000000000       25.0830553901
               3.2584445483        0.0000000000       24.3354672652
               5.2489685874        1.4828386434       23.0293666718
               1.2679208973        1.4828386434       23.0293666718
               3.2584445483        0.0000000000       28.4518586606
               0.0000000000        0.0000000000       27.6727761163
               1.9755573951        1.4828385552       26.4071977636
               4.5413318961        1.4828385552       26.4071977636
               3.2584445483        0.0000000000       31.0349538920
               5.2880812432        1.4828386434       29.8381879495
               1.2288082416        1.4828386434       29.8381879495
===  End  structure: 03-TiO2-R_110_6layer_optimized.vasp ===
=== Begin structure: 04-TiO2-R_110_6layer_and_1layer_RuO2_each_side_optimized.vasp ===
../relax_1L_RuO2_on_both_sides_of_6layer-R-TiO2_110.vasp/output final
1.0
6.52527379990000 0.00000000000000 0.00000000000000
0.00000000000000 2.96722197530000 0.00000000000000
0.00000000000000 0.00000000000000 47.96588516240000
   Ti    O   Ru
   12   32    4
Cartesian
               0.0000000000        0.0000000000       16.1669067301
               3.2626367050        1.4836108990       16.4649596409
               3.2626367050        0.0000000000       19.8047544850
               0.0000000000        1.4836108990       19.5317094574
               0.0000000000        0.0000000000       22.7921891600  
               3.2626367050        1.4836108990       23.0753820810  
               3.2626367050        0.0000000000       26.4420624140  
               0.0000000000        1.4836108990       26.1587165370  
               0.0000000000        0.0000000000       29.4288208526
               3.2626367050        1.4836108990       29.7022857437
               3.2626367050        0.0000000000       33.0678567048
               0.0000000000        1.4836108990       32.7684605455
               0.0000000000        0.0000000000       11.6995635676
               3.2626367050        0.0000000000       15.0902430404
               0.0000000000        0.0000000000       14.2690904626
               1.9959063896        1.4836108990       12.9772617346
               4.5293674104        1.4836108990       12.9772617346
               0.0000000000        0.0000000000       18.3422894410
               3.2626367050        0.0000000000       17.6419840112
               5.2528534918        1.4836109880       16.3103301947
               1.2724203082        1.4836109880       16.3103301947
               3.2626367050        0.0000000000       21.6865628921
               0.0000000000        0.0000000000       20.9145863440
               1.9895760027        1.4836108990       19.6563085045
               4.5356976033        1.4836108990       19.6563085045
               0.0000000000        0.0000000000       24.9739306864
               3.2626367050        0.0000000000       24.2598734540
               5.2531933821        1.4836109880       22.9459520770
               1.2720805159        1.4836109880       22.9459520770
               3.2626367050        0.0000000000       28.3189114002
               0.0000000000        0.0000000000       27.5474904684
               1.9904590564        1.4836108990       26.2875531039
               4.5348145496        1.4836108990       26.2875531039
               0.0000000000        0.0000000000       31.5911316374
               3.2626367050        0.0000000000       30.8916812699
               5.2518883338        1.4836109880       29.5762436821
               1.2733856602        1.4836109880       29.5762436821
               3.2626367050        0.0000000000       34.9653011750
               0.0000000000        0.0000000000       34.1429494051
               1.9900318693        1.4836108990       32.9250886404
               4.5352417357        1.4836108990       32.9250886404
               3.2626367050        0.0000000000       37.5337135581
               5.2585186812        1.4836109880       36.2558653904
               1.2667549238        1.4836109880       36.2558653904
               3.2626367050        0.0000000000       13.2002655068
               0.0000000000        1.4836108990       12.8581120577
               0.0000000000        0.0000000000       36.0325699098
               3.2626367050        1.4836108990       36.3756232594
===  End  structure: 04-TiO2-R_110_6layer_and_1layer_RuO2_each_side_optimized.vasp ===
=== Begin structure: 05-1layer_strained_RuO2_by_TiO2-R_110.vasp ===
../relax_1_layer_R-RuO2_only.vasp/output final
1.0
  6.52527379990000 0.00000000000000 0.00000000000000
  0.00000000000000 2.96722197530000 0.00000000000000
  0.00000000000000 0.00000000000000 22.58571589000001
    O   Ru
    4    2
Cartesian
               3.2626365110        0.0000000000       10.1204217715
               3.2626365110        0.0000000000       12.5267136948
               5.2772669434        1.4836109880       11.3226827731
               1.2480071476        1.4836109880       11.3226827731
               0.0000000000        0.0000000000       11.3203998517
               3.2626365110        1.4836108110       11.3235511938
===  End  structure: 05-1layer_strained_RuO2_by_TiO2-R_110.vasp ===
=== Begin structure: 06-TiO2-R_100_12layer_optimized.vasp ===
../6_layer/output final
1.0
   4.721640958   0.000000000   0.000000000
   0.000000000   2.961395139   0.000000000
   0.000000000   0.000000000  51.259117127
   Ti    O
   12   24
Cartesian
              0.1603001722        0.0000000000       14.6075172097
              2.4782968433        1.4806974816       16.8402016607
              0.0943124268        0.0000000000       19.1998115185
              2.4467794130        1.4806974816       21.4618504648
              0.0802004462        0.0000000000       23.7998092710
              2.4359328628        1.4806974816       26.0621872812
              0.0750142636        0.0000000000       28.3888001037
              2.4411231082        1.4806974816       30.6519918363
              0.0860694502        0.0000000000       32.9911638406
              2.4553319352        1.4806974816       35.2529670890
              0.1176688040        0.0000000000       37.6137067104
              2.5210935580        1.4806974816       39.8461726096
              0.6195196194        1.4806975697       13.6062995409
              1.4207932975        0.0000000000       15.9438753890
              3.2432220551        0.0000000000       17.7676155811
              0.8671956870        1.4806975697       18.2643798769
              3.6828510671        1.4806975697       15.4302434467
              1.4490018982        0.0000000000       20.5583440203
              3.2426925146        0.0000000000       22.3946480724
              0.8824616346        1.4806975697       22.8688836865
              3.8030824973        1.4806975697       20.0980259882
              1.4550700943        0.0000000000       25.1556745313
              3.2350962880        0.0000000000       26.9971879406
              0.8740849475        1.4806975697       27.4535221288
              3.8153723824        1.4806975697       24.7070791671
              1.4538738875        0.0000000000       29.7447438345
              3.2434086461        0.0000000000       31.5830620307
              0.8823545869        1.4806975697       32.0591852105
              3.8151976488        1.4806975697       29.2951398039
              1.4419131218        0.0000000000       34.3551507735
              3.2290375170        0.0000000000       36.1874738879
              0.8834941821        1.4806975697       36.6873267936
              3.8096001247        1.4806975697       33.8942406194
              1.3209814533        0.0000000000       39.0248823546
              2.9812174065        0.0000000000       40.8469447543
              3.7809634658        1.4806975697       38.5093186570
===  End  structure: 06-TiO2-R_100_12layer_optimized.vasp ===
=== Begin structure: 07-TiO2-R_100_12layer_and_1layer_RuO2_each_side_optimized.vasp ===
../relax_1L_RuO2_both_side_on-5-layer-R-TiO2_100.vasp/output final
1.0
   4.712418216   0.000000000   0.000000000
   0.000000000   2.962688321   0.000000000
   0.000000000   0.000000000  55.852817535
   Ti    O   Ru
   12   28   2
Cartesian
              2.4157380148        1.4813440160       16.8666537958
              0.0602074419        0.0000000000       19.1907476069
              2.4125112934        1.4813440160       21.4654146262
              0.0591050166        0.0000000000       23.7916694819
              2.4158909216        1.4813440160       26.0630978705
              0.0639511540        0.0000000000       28.3897578030 
              2.4210453140        1.4813440160       30.6554714000 
              0.0605084475        0.0000000000       32.9823494238
              2.4160699504        1.4813440160       35.2537186531
              0.0576713509        0.0000000000       37.5813589603
              2.4173566132        1.4813440160       39.8566476777
              0.0606223166        0.0000000000       42.1812606021
              0.6489001704        1.4813440160       13.5869026091
              1.4423438964        0.0000000000       15.9608429800
              3.2749735363        0.0000000000       17.7514591847
              0.9022462405        1.4813440160       18.2777406489
              3.7175281713        1.4813440160       15.4008073348
              1.4422760773        0.0000000000       20.5660757559
              3.2467513786        0.0000000000       22.3866966173
              0.8902231494        1.4813440160       22.8695130906
              3.7954696971        1.4813440160       20.0862864957
              1.4469980142        0.0000000000       25.1571580746
              3.2350480271        0.0000000000       26.9934735106
              0.8775869341        1.4813440160       27.4569911878
              3.8040973191        1.4813440160       24.6974531161
              1.4487655060        0.0000000000       29.7492948181
              3.2374633765        0.0000000000       31.5850235552
              0.8825127870        1.4813440160       32.0545941818
              3.8052600279        1.4813440160       29.2961674715
              1.4465235485        0.0000000000       34.3501022088
              3.2491432772        0.0000000000       36.1738254453
              0.8928743359        1.4813440160       36.6612246529
              3.8016398419        1.4813440160       33.8853561075
              1.4399665748        0.0000000000       38.9608944143
              3.2586018507        0.0000000000       40.7704311645
              0.9190103126        1.4813440160       41.2957783826
              3.7992193051        1.4813440160       38.4804635103
              1.3633716077        0.0000000000       43.6455587251
              3.0042964301        0.0000000000       45.4624920768
              3.8002343979        1.4813440160       43.0880303131
              0.0924089190        0.0000000000       14.5796942794
              2.4495068415        1.4813440160       44.4685538428
===  End  structure: 07-TiO2-R_100_12layer_and_1layer_RuO2_each_side_optimized.vasp ===
=== Begin structure: 08-1layer_strained_RuO2_by_TiO2-R_100.vasp ===
../relax_1L_RuO2_both_side_on-5-layer-R-TiO2_100.vasp/output final
1.0
        4.7124180794         0.0000000000         0.0000000000
        0.0000000000         2.9626882076         0.0000000000
        0.0000000000         0.0000000000        55.8528175354
    O   Ru
    2    1
Cartesian
     1.363371482         0.000000000        43.645553590
     3.004296237         0.000000000        45.462489567
     2.449506526         1.481343927        44.468550590
===  End  structure: 08-1layer_strained_RuO2_by_TiO2-R_100.vasp ===
=== Begin structure: 09-TiO2-R_101_6layer_optimized.vasp ===
../6_layer/output final
1.0
   5.509726651   0.000000000   0.000000000
   0.000000000   4.646922051   0.000000000
   0.000000000   0.000000000  36.653774261
   Ti    O
   12   24
Cartesian
               3.9601170242       -0.2518419957       12.5376200848
               1.2052538628        2.5753028824       12.5376200848
               2.2213646976        0.1531749016       14.8960892075
               4.9762276948        2.1702859851       14.8960892075
               0.6867178751       -0.1126489245       17.4894744051
               3.4415808309        2.4361098112       17.4894744051
               4.5347757835        0.1126719293       19.9224420241
               1.7799126220        2.2107889574       19.9224420241
               3.0003730584       -0.1529527091       22.5161213255
               0.2455099998        2.4764135958       22.5161213255
               1.2590331595        0.2514309985       24.8741020446
               4.0138960750        2.0720298882       24.8741020446
               2.6697599852        3.3108308538       11.7302986840
               5.4246233111        3.6595513914       11.7302986840
               5.0647907274        1.4051802407       13.1903760658
               1.0850655767        3.2561709654       14.2203775449
               2.3099272382        0.9182807158       13.1903738808
               3.8399284095        3.7142115561       14.2203753609
               3.4501485247        1.4177680464       15.7130802143
               4.9913755665        3.2169783048       16.6881452253
               0.6952855276        0.9056928403       15.7130813073
               2.2365120763        3.7534042167       16.6881441333
               1.8560621331        1.4176158405       18.2146024602
               3.3647413250        3.2294015843       19.1972796196
               4.6109254589        0.9058449774       18.2146024602
               0.6098780405        3.7409806610       19.1972796196
               0.2306494033        1.4297535380       20.7236731359
               1.7713499522        3.2287976692       21.6994503269
               2.9855121130        0.8937074184       20.7236709519
               4.5262136068        3.7415848533       21.6994525119
               4.1340282442        1.3923567576       23.1908059794
               0.1580665014        3.2407002245       24.2222572196
               1.3791645079        0.9311041989       23.1908037954
               2.9129294270        3.7296822969       24.2222550346
               2.5492105938        1.3371621729       25.6807805403
               5.3040737553        0.9862987138       25.6807827243
===  End  structure: 09-TiO2-R_101_6layer_optimized.vasp ===
=== Begin structure: 10-TiO2-R_101_6layer_and_1layer_RuO2_each_side_optimized.vasp ===
../relax_1L_RuO2_both_side_on-6-layer-R-TiO2_101.vasp/output final
1.0
        5.4640631676         0.0000000000         0.0000000000
        0.0000000000         4.5936999321         0.0000000000
        0.0000000000         0.0000000000        41.6286010742
   Ti    O   Ru
   12   32    4
Cartesian
           2.2679112941        0.1032942364       14.8658498767
           4.9999422261        2.1935554556       14.8658498767
           0.7348489531       -0.0489261670       17.4438203178
           3.4668801701        2.3457758590       17.4438203178
           4.4949953775        0.0421571286       19.9156034637
           1.7629639565        2.2546925634       19.9156034637
           2.9421582739       -0.0415833761       22.4709964016
           0.2101269549        2.3384330681       22.4709964016
           1.2384665170        0.0477558083       24.9427096413
           3.9704973680        2.2490938837       24.9427096413
           5.1728590639       -0.1022261232       27.5195480677
           2.4408276429        2.3990758152       27.5195480677
           2.6309367919        3.2429641653       11.6620815660
           5.3629687009        3.6475849117       11.6620815660
           4.9595785391        1.3599426841       13.1333598092
           1.0502448525        3.2466960932       14.1653706805
           2.2275471181        0.9369072139       13.1333585682
           3.7822758665        3.6438532568       14.1653694395
           3.4398999212        1.3965047614       15.6754671017
           4.9465434515        3.1984057203       16.6379460937
           0.7078686632        0.9003450676       15.6754695837
           2.2145120305        3.6921436297       16.6379448527
           1.8344186787        1.3925277337       18.1920387472
           3.3431818809        3.2011714626       19.1628139997
           4.5664505887        0.9043220273       18.1920387472
           0.6111503379        3.6893776144       19.1628139997
           0.2320347285        1.3965944535       20.7065186013
           1.7401200644        3.1972017437       21.6803578543
           2.9640657015        0.9002554445       20.7065173603
           4.4721519744        3.6933476073       21.6803603363
           4.0935014934        1.3910133369       23.2256524902
           0.1374042364        3.2022183025       24.1931134475
           1.3614695024        0.9058365611       23.2256500092
           2.8694354234        3.6883310475       24.1931084845
           2.4924399797        1.3943198763       25.7495110438
           3.9994469371        3.1974212159       26.7097340250
           5.2244709127        0.9025298847       25.7495110438
           1.2674160041        3.6931278611       26.7097340250
           0.9254964113        1.3473938924       28.2219423840
           2.4759584570        3.2347734719       29.2504054457
           3.6575276693        0.9494560056       28.2219374210
           5.2079906930        3.6557758791       29.2504104077
           4.8055391587        1.3493264899       30.7279504795
           2.0735074117        0.9475234081       30.7279455165
           3.8466633349       -0.1617014744       12.4062132747
           1.1146319139        2.4585511664       12.4062132747
           3.5887032132        0.1622603906       29.9815531274
           0.8566719552        2.1345893014       29.9815531274
===  End  structure: 10-TiO2-R_101_6layer_and_1layer_RuO2_each_side_optimized.vasp ===
=== Begin structure: 11-1layer_strained_RuO2_by_TiO2-R_101.vasp ===
../relax_1L_RuO2_both_side_on-6-layer-R-TiO2_101.vasp/output final
1.0
        5.4640631676         0.0000000000         0.0000000000
        0.0000000000         4.5936999321         0.0000000000
        0.0000000000         0.0000000000        41.6286010742
    O   Ru
    4    2
Cartesian
              2.6309367919        3.2429641653       11.6620815660
              5.3629687009        3.6475849117       11.6620815660
              4.9595785391        1.3599426841       13.1333598092
              2.2275471181        0.9369072139       13.1333585682
              3.8466633349       -0.1617014744       12.4062132747
              1.1146319139        2.4585511664       12.4062132747
===  End  structure: 11-1layer_strained_RuO2_by_TiO2-R_101.vasp ===
