
     Program PWSCF v.7.1 starts on 23Jul2026 at 22:42:14 

     This program is part of the open-source Quantum ESPRESSO suite
     for quantum simulation of materials; please cite
         "P. Giannozzi et al., J. Phys.:Condens. Matter 21 395502 (2009);
         "P. Giannozzi et al., J. Phys.:Condens. Matter 29 465901 (2017);
         "P. Giannozzi et al., J. Chem. Phys. 152 154105 (2020);
          URL http://www.quantum-espresso.org", 
     in publications or presentations arising from this work. More details at
     http://www.quantum-espresso.org/quote

     Parallel version (MPI), running on    36 processors

     MPI processes distributed on     1 nodes
     182625 MiB available memory on the printing compute node when the environment starts
 
     Waiting for input...
     Reading input from standard input

     Current dimensions of program PWSCF are:
     Max number of different atomic species (ntypx) = 10
     Max number of k-points (npk) =  40000
     Max angular momentum in pseudopotentials (lmaxx) =  4
     Message from routine setup:
     using ibrav=0 with symmetry is DISCOURAGED, use correct ibrav instead
 
     K-points division:     npool     =       3
     R & G space division:  proc/nbgrp/npool/nimage =      12
     Subspace diagonalization in iterative solution of the eigenvalue problem:
     a serial algorithm will be used

 
     Parallelization info
     --------------------
     sticks:   dense  smooth     PW     G-vecs:    dense   smooth      PW
     Min         114     114     34                 2214     2214     359
     Max         115     115     36                 2217     2217     360
     Sum        1369    1369    421                26589    26589    4315
 
     Using Slab Decomposition
 


     bravais-lattice index     =            0
     lattice parameter (alat)  =       8.4977  a.u.
     unit-cell volume          =     423.6931 (a.u.)^3
     number of atoms/cell      =            6
     number of atomic types    =            2
     number of electrons       =        56.00
     number of Kohn-Sham states=           28
     kinetic-energy cutoff     =      60.0000  Ry
     charge density cutoff     =     240.0000  Ry
     scf convergence threshold =      1.0E-06
     mixing beta               =       0.7000
     number of iterations used =            8  plain     mixing
     Exchange-correlation= PBE
                           (   1   4   3   4   0   0   0)

     celldm(1)=   8.497720  celldm(2)=   0.000000  celldm(3)=   0.000000
     celldm(4)=   0.000000  celldm(5)=   0.000000  celldm(6)=   0.000000

     crystal axes: (cart. coord. in units of alat)
               a(1) = (   1.000000   0.000000   0.000000 )  
               a(2) = (   0.000000   1.000000   0.000000 )  
               a(3) = (   0.000000   0.000000   0.690469 )  

     reciprocal axes: (cart. coord. in units 2 pi/alat)
               b(1) = (  1.000000  0.000000  0.000000 )  
               b(2) = (  0.000000  1.000000  0.000000 )  
               b(3) = (  0.000000  0.000000  1.448291 )  


     PseudoPot. # 1 for Ru read from file:
     ./Ru_ONCV_PBE-1.2.upf
     MD5 check sum: 197966c748556f6a714a34a8c7eb0781
     Pseudo is Norm-conserving, Zval = 16.0
     Generated using ONCVPSP code by D. R. Hamann
     Using radial grid of  602 points,  6 beta functions with: 
                l(1) =   0
                l(2) =   0
                l(3) =   1
                l(4) =   1
                l(5) =   2
                l(6) =   2

     PseudoPot. # 2 for O  read from file:
     ./O_ONCV_PBE-1.2.upf
     MD5 check sum: e36c48deb68f4e355fffe4602be2c42c
     Pseudo is Norm-conserving, Zval =  6.0
     Generated using ONCVPSP code by D. R. Hamann
     Using radial grid of  602 points,  4 beta functions with: 
                l(1) =   0
                l(2) =   0
                l(3) =   1
                l(4) =   1

     atomic species   valence    mass     pseudopotential
        Ru            16.00   101.07000     Ru( 1.00)
        O              6.00    15.99900     O ( 1.00)

     16 Sym. Ops., with inversion, found ( 8 have fractional translation)



   Cartesian axes

     site n.     atom                  positions (alat units)
         1           Ru  tau(   1) = (   0.0000000   0.0000000   0.0000000  )
         2           Ru  tau(   2) = (   0.5000000   0.5000000   0.3452344  )
         3           O   tau(   3) = (   0.3053000   0.3053000   0.0000000  )
         4           O   tau(   4) = (   0.6947000   0.6947000   0.0000000  )
         5           O   tau(   5) = (   0.8053000   0.1947000   0.3452344  )
         6           O   tau(   6) = (   0.1947000   0.8053000   0.3452344  )

     number of k points=    50
                       cart. coord. in units 2pi/alat
        k(    1) = (   0.0000000   0.0000000   0.0000000), wk =   0.0061728
        k(    2) = (   0.0000000   0.0000000   0.1609213), wk =   0.0123457
        k(    3) = (   0.0000000   0.0000000   0.3218425), wk =   0.0123457
        k(    4) = (   0.0000000   0.0000000   0.4827638), wk =   0.0123457
        k(    5) = (   0.0000000   0.0000000   0.6436851), wk =   0.0123457
        k(    6) = (   0.0000000   0.1666667   0.0000000), wk =   0.0246914
        k(    7) = (   0.0000000   0.1666667   0.1609213), wk =   0.0493827
        k(    8) = (   0.0000000   0.1666667   0.3218425), wk =   0.0493827
        k(    9) = (   0.0000000   0.1666667   0.4827638), wk =   0.0493827
        k(   10) = (   0.0000000   0.1666667   0.6436851), wk =   0.0493827
        k(   11) = (   0.0000000   0.3333333   0.0000000), wk =   0.0246914
        k(   12) = (   0.0000000   0.3333333   0.1609213), wk =   0.0493827
        k(   13) = (   0.0000000   0.3333333   0.3218425), wk =   0.0493827
        k(   14) = (   0.0000000   0.3333333   0.4827638), wk =   0.0493827
        k(   15) = (   0.0000000   0.3333333   0.6436851), wk =   0.0493827
        k(   16) = (   0.0000000  -0.5000000   0.0000000), wk =   0.0123457
        k(   17) = (   0.0000000  -0.5000000   0.1609213), wk =   0.0246914
        k(   18) = (   0.0000000  -0.5000000   0.3218425), wk =   0.0246914
        k(   19) = (   0.0000000  -0.5000000   0.4827638), wk =   0.0246914
        k(   20) = (   0.0000000  -0.5000000   0.6436851), wk =   0.0246914
        k(   21) = (   0.1666667   0.1666667   0.0000000), wk =   0.0246914
        k(   22) = (   0.1666667   0.1666667   0.1609213), wk =   0.0493827
        k(   23) = (   0.1666667   0.1666667   0.3218425), wk =   0.0493827
        k(   24) = (   0.1666667   0.1666667   0.4827638), wk =   0.0493827
        k(   25) = (   0.1666667   0.1666667   0.6436851), wk =   0.0493827
        k(   26) = (   0.1666667   0.3333333   0.0000000), wk =   0.0493827
        k(   27) = (   0.1666667   0.3333333   0.1609213), wk =   0.0987654
        k(   28) = (   0.1666667   0.3333333   0.3218425), wk =   0.0987654
        k(   29) = (   0.1666667   0.3333333   0.4827638), wk =   0.0987654
        k(   30) = (   0.1666667   0.3333333   0.6436851), wk =   0.0987654
        k(   31) = (   0.1666667  -0.5000000   0.0000000), wk =   0.0246914
        k(   32) = (   0.1666667  -0.5000000   0.1609213), wk =   0.0493827
        k(   33) = (   0.1666667  -0.5000000   0.3218425), wk =   0.0493827
        k(   34) = (   0.1666667  -0.5000000   0.4827638), wk =   0.0493827
        k(   35) = (   0.1666667  -0.5000000   0.6436851), wk =   0.0493827
        k(   36) = (   0.3333333   0.3333333   0.0000000), wk =   0.0246914
        k(   37) = (   0.3333333   0.3333333   0.1609213), wk =   0.0493827
        k(   38) = (   0.3333333   0.3333333   0.3218425), wk =   0.0493827
        k(   39) = (   0.3333333   0.3333333   0.4827638), wk =   0.0493827
        k(   40) = (   0.3333333   0.3333333   0.6436851), wk =   0.0493827
        k(   41) = (   0.3333333  -0.5000000   0.0000000), wk =   0.0246914
        k(   42) = (   0.3333333  -0.5000000   0.1609213), wk =   0.0493827
        k(   43) = (   0.3333333  -0.5000000   0.3218425), wk =   0.0493827
        k(   44) = (   0.3333333  -0.5000000   0.4827638), wk =   0.0493827
        k(   45) = (   0.3333333  -0.5000000   0.6436851), wk =   0.0493827
        k(   46) = (  -0.5000000  -0.5000000   0.0000000), wk =   0.0061728
        k(   47) = (  -0.5000000  -0.5000000   0.1609213), wk =   0.0123457
        k(   48) = (  -0.5000000  -0.5000000   0.3218425), wk =   0.0123457
        k(   49) = (  -0.5000000  -0.5000000   0.4827638), wk =   0.0123457
        k(   50) = (  -0.5000000  -0.5000000   0.6436851), wk =   0.0123457

     Dense  grid:    26589 G-vectors     FFT dimensions: (  48,  48,  30)

     Estimated max dynamical RAM per process >       7.02 MB

     Estimated total dynamical RAM >     239.57 MB

     Initial potential from superposition of free atoms

     starting charge      55.8739, renormalised to      56.0000
     Starting wfcs are random

     total cpu time spent up to now is        0.1 secs

     per-process dynamical memory:   112.6 Mb

     Self-consistent Calculation

     iteration #  1     ecut=    60.00 Ry     beta= 0.70
     Davidson diagonalization with overlap
     ethr =  1.00E-02,  avg # of iterations = 10.2

     total cpu time spent up to now is        0.6 secs

     total energy              =    -504.24124750 Ry
     estimated scf accuracy    <       0.94602675 Ry

     iteration #  2     ecut=    60.00 Ry     beta= 0.70
     Davidson diagonalization with overlap
     ethr =  1.69E-03,  avg # of iterations =  6.5

     total cpu time spent up to now is        1.0 secs

     total energy              =    -504.19836669 Ry
     estimated scf accuracy    <       4.12068134 Ry

     iteration #  3     ecut=    60.00 Ry     beta= 0.70
     Davidson diagonalization with overlap
     ethr =  1.69E-03,  avg # of iterations =  5.9

     total cpu time spent up to now is        1.2 secs

     total energy              =    -504.87942030 Ry
     estimated scf accuracy    <       0.02440301 Ry

     iteration #  4     ecut=    60.00 Ry     beta= 0.70
     Davidson diagonalization with overlap
     ethr =  4.36E-05,  avg # of iterations =  5.4

     total cpu time spent up to now is        1.5 secs

     total energy              =    -504.89187366 Ry
     estimated scf accuracy    <       0.01461304 Ry

     iteration #  5     ecut=    60.00 Ry     beta= 0.70
     Davidson diagonalization with overlap
     ethr =  2.61E-05,  avg # of iterations =  5.0

     total cpu time spent up to now is        1.7 secs

     total energy              =    -504.89563868 Ry
     estimated scf accuracy    <       0.00033342 Ry

     iteration #  6     ecut=    60.00 Ry     beta= 0.70
     Davidson diagonalization with overlap
     ethr =  5.95E-07,  avg # of iterations =  7.6

     total cpu time spent up to now is        2.1 secs

     total energy              =    -504.89627448 Ry
     estimated scf accuracy    <       0.00006035 Ry

     iteration #  7     ecut=    60.00 Ry     beta= 0.70
     Davidson diagonalization with overlap
     c_bands:  1 eigenvalues not converged
     ethr =  1.08E-07,  avg # of iterations =  6.3

     total cpu time spent up to now is        2.4 secs

     total energy              =    -504.89629715 Ry
     estimated scf accuracy    <       0.00000596 Ry

     iteration #  8     ecut=    60.00 Ry     beta= 0.70
     Davidson diagonalization with overlap
     c_bands:  1 eigenvalues not converged
     ethr =  1.06E-08,  avg # of iterations =  6.4

     total cpu time spent up to now is        2.6 secs

     End of self-consistent calculation

          k = 0.0000 0.0000 0.0000 (  3363 PWs)   bands (ev):

   -60.3161 -60.3093 -30.5995 -30.5995 -30.1624 -30.1624 -30.1529 -30.1286
    -7.0455  -6.0120  -5.0461  -5.0461   4.7069   4.8478   5.9618   6.3769
     6.3769   8.9418   8.9584   8.9584  10.4146  10.8461  10.8461  11.3783
    11.6465  11.7528  11.8461  11.8461

          k = 0.0000 0.0000 0.1609 (  3359 PWs)   bands (ev):

   -60.3147 -60.3083 -30.5977 -30.5977 -30.1738 -30.1591 -30.1591 -30.1511
    -6.9383  -5.9526  -5.1105  -5.1105   4.8310   5.0155   6.0917   6.4152
     6.4152   8.5707   9.0955   9.0955   9.8053  10.3368  10.3368  11.2333
    11.7627  12.0652  12.3316  12.3402

          k = 0.0000 0.0000 0.3218 (  3315 PWs)   bands (ev):

   -60.3110 -60.3058 -30.5932 -30.5932 -30.2261 -30.2078 -30.1507 -30.1507
    -6.6463  -5.8134  -5.2694  -5.2694   5.1556   5.4615   6.4740   6.5527
     6.5527   7.8056   8.8491   9.3403   9.3403   9.6498   9.6498  10.6599
    11.9758  12.3629  12.5733  13.0592

          k = 0.0000 0.0000 0.4828 (  3330 PWs)   bands (ev):

   -60.3065 -60.3031 -30.5880 -30.5880 -30.2842 -30.2724 -30.1411 -30.1411
    -6.2639  -5.6965  -5.4465  -5.4465   5.5379   5.9413   6.7886   6.7886
     7.0855   7.2063   8.0487   8.8357   8.8357   9.7626   9.7626   9.7938
    12.3635  12.3710  12.8212  13.6584

          k = 0.0000 0.0000 0.6437 (  3334 PWs)   bands (ev):

   -60.3031 -60.3019 -30.5847 -30.5847 -30.3201 -30.3160 -30.1347 -30.1347
    -5.9158  -5.7123  -5.5578  -5.5578   5.8159   5.9941   7.0412   7.0412
     7.2358   7.5582   7.8917   8.3671   8.3671   8.8279   9.9062   9.9062
    12.4766  12.7265  12.8880  13.4625

          k = 0.0000 0.1667 0.0000 (  3327 PWs)   bands (ev):

   -60.3157 -60.3098 -30.5989 -30.5988 -30.1634 -30.1634 -30.1513 -30.1302
    -6.9416  -5.9854  -5.1752  -5.1074   4.9127   5.0847   6.1552   6.4010
     6.4139   8.5881   8.7065   8.8569  10.0149  10.1734  10.5258  11.2702
    11.9366  12.0720  12.1660  12.2342

          k = 0.0000 0.1667 0.1609 (  3335 PWs)   bands (ev):

   -60.3142 -60.3087 -30.5972 -30.5972 -30.1725 -30.1610 -30.1596 -30.1515
    -6.8391  -5.9227  -5.2346  -5.1679   5.0312   5.2298   6.2002   6.4276
     6.5493   8.4124   8.6793   8.8934   9.4500  10.1256  10.2357  11.1620
    11.8530  12.2996  12.3501  12.6609

          k = 0.0000 0.1667 0.3218 (  3333 PWs)   bands (ev):

   -60.3106 -60.3061 -30.5931 -30.5931 -30.2248 -30.2092 -30.1511 -30.1509
    -6.5639  -5.7839  -5.3727  -5.3131   5.3340   5.6005   6.3742   6.5449
     6.9281   7.6487   8.2951   9.1932   9.2701   9.6405   9.6470  10.8073
    11.7832  12.6294  12.7427  12.9464

          k = 0.0000 0.1667 0.4828 (  3322 PWs)   bands (ev):

   -60.3063 -60.3033 -30.5885 -30.5885 -30.2830 -30.2730 -30.1411 -30.1410
    -6.2189  -5.7218  -5.4612  -5.4572   5.6602   5.9904   6.4691   6.7440
     7.2693   7.5789   7.6615   8.8733   9.0482   9.5434   9.6016  10.0767
    12.1038  12.5442  12.8878  13.2926

          k = 0.0000 0.1667 0.6437 (  3334 PWs)   bands (ev):

   -60.3030 -60.3020 -30.5856 -30.5856 -30.3191 -30.3157 -30.1346 -30.1346
    -5.9503  -5.8109  -5.5045  -5.4674   5.8447   5.9937   6.5146   6.7346
     7.6110   7.6723   8.2810   8.4023   8.5323   9.1586   9.7440   9.7470
    12.5338  12.5802  12.7315  13.0683

          k = 0.0000 0.3333 0.0000 (  3319 PWs)   bands (ev):

   -60.3144 -60.3110 -30.5976 -30.5975 -30.1655 -30.1653 -30.1468 -30.1347
    -6.6545  -5.9841  -5.4291  -5.2661   5.4497   5.6326   6.4572   6.4828
     6.7476   7.8712   7.9704   8.7721   8.9793   9.3827  10.3870  10.9627
    12.3747  12.5485  12.7529  12.7957

          k = 0.0000 0.3333 0.1609 (  3320 PWs)   bands (ev):

   -60.3131 -60.3099 -30.5963 -30.5962 -30.1697 -30.1645 -30.1599 -30.1538
    -6.5627  -5.9051  -5.4875  -5.3153   5.5664   5.7464   6.3890   6.4358
     6.9857   7.9823   8.1417   8.3056   8.6575   9.3911  10.3924  10.9230
    12.3093  12.5108  12.7175  13.0123

          k = 0.0000 0.3333 0.3218 (  3323 PWs)   bands (ev):

   -60.3097 -60.3071 -30.5930 -30.5929 -30.2214 -30.2127 -30.1517 -30.1514
    -6.3314  -5.7102  -5.6313  -5.4240   5.8139   5.9512   6.4708   6.5269
     7.2553   7.5626   7.7074   8.5088   8.6621   9.4249  10.0993  10.7156
    11.9656  12.6946  13.0089  13.0741

          k = 0.0000 0.3333 0.4828 (  3340 PWs)   bands (ev):

   -60.3057 -60.3040 -30.5896 -30.5894 -30.2801 -30.2745 -30.1413 -30.1411
    -6.0988  -5.8051  -5.4896  -5.4811   5.9319   6.1256   6.2279   6.6231
     7.2314   7.5134   8.0144   8.7966   8.9602   9.2350   9.7278  10.4862
    11.7039  12.6417  12.8638  13.0051

          k = 0.0000 0.3333 0.6437 (  3329 PWs)   bands (ev):

   -60.3028 -60.3022 -30.5875 -30.5874 -30.3171 -30.3152 -30.1343 -30.1343
    -5.9962  -5.9298  -5.4101  -5.3742   5.8161   5.8448   6.3280   6.4608
     7.6766   8.0520   8.2055   8.7703   9.1423   9.2178   9.5920   9.9963
    11.8917  12.2871  12.6468  12.7346

          k = 0.0000-0.5000 0.0000 (  3312 PWs)   bands (ev):

   -60.3127 -60.3127 -30.5969 -30.5969 -30.1664 -30.1664 -30.1407 -30.1407
    -6.2617  -6.2617  -5.4352  -5.4352   5.9416   5.9416   6.5047   6.5047
     7.4317   7.4317   7.7458   7.7458   8.9274   8.9274  10.6031  10.6031
    12.6954  12.6954  12.8807  12.8807

          k = 0.0000-0.5000 0.1609 (  3322 PWs)   bands (ev):

   -60.3115 -60.3115 -30.5958 -30.5958 -30.1673 -30.1673 -30.1575 -30.1575
    -6.1808  -6.1808  -5.4810  -5.4810   6.1116   6.1116   6.3629   6.3629
     7.5147   7.5147   7.8822   7.8822   8.6113   8.6113  10.6622  10.6622
    12.5424  12.5424  13.1081  13.1081

          k = 0.0000-0.5000 0.3218 (  3340 PWs)   bands (ev):

   -60.3084 -60.3084 -30.5929 -30.5929 -30.2171 -30.2171 -30.1518 -30.1518
    -6.0014  -6.0014  -5.5640  -5.5640   6.2237   6.2237   6.5497   6.5497
     7.0817   7.0817   8.1739   8.1739   8.6767   8.6767  10.4689  10.4689
    12.3964  12.3964  13.1997  13.1997

          k = 0.0000-0.5000 0.4828 (  3334 PWs)   bands (ev):

   -60.3048 -60.3048 -30.5900 -30.5900 -30.2770 -30.2770 -30.1412 -30.1412
    -5.9426  -5.9426  -5.4976  -5.4976   6.1023   6.1023   6.3807   6.3807
     7.3431   7.3431   8.3997   8.3997   9.0424   9.0424  10.2250  10.2250
    11.9953  11.9953  13.0290  13.0290

          k = 0.0000-0.5000 0.6437 (  3322 PWs)   bands (ev):

   -60.3025 -60.3025 -30.5883 -30.5883 -30.3155 -30.3155 -30.1342 -30.1342
    -5.9947  -5.9947  -5.3545  -5.3545   5.7398   5.7398   6.3836   6.3836
     7.8903   7.8903   8.6449   8.6449   9.0012   9.0012  10.2941  10.2941
    11.5702  11.5702  12.7123  12.7123

          k = 0.1667 0.1667 0.0000 (  3329 PWs)   bands (ev):

   -60.3153 -60.3102 -30.6000 -30.5973 -30.1654 -30.1624 -30.1499 -30.1316
    -6.8586  -5.9674  -5.3372  -5.0832   4.7714   5.5779   6.3308   6.3543
     6.4839   7.9513   8.7923   8.8731   9.9501   9.9645  10.3543  11.1480
    11.8064  11.8553  12.5144  12.6678

          k = 0.1667 0.1667 0.1609 (  3331 PWs)   bands (ev):

   -60.3139 -60.3091 -30.5982 -30.5960 -30.1716 -30.1622 -30.1591 -30.1526
    -6.7590  -5.8998  -5.3899  -5.1464   4.9126   5.6841   6.2172   6.5150
     6.6278   8.0809   8.3482   8.9946   9.3036  10.1389  10.2072  10.9799
    11.8606  12.0144  12.6406  12.7753

          k = 0.1667 0.1667 0.3218 (  3337 PWs)   bands (ev):

   -60.3103 -60.3064 -30.5936 -30.5928 -30.2238 -30.2102 -30.1515 -30.1508
    -6.4950  -5.7526  -5.5013  -5.3032   5.2856   5.8965   6.2557   6.7312
     7.0718   7.3870   8.3975   8.5972   9.1899   9.6162   9.9821  10.8454
    11.7020  12.3941  12.8753  13.1647

          k = 0.1667 0.1667 0.4828 (  3337 PWs)   bands (ev):

   -60.3061 -60.3035 -30.5893 -30.5884 -30.2823 -30.2733 -30.1412 -30.1411
    -6.1773  -5.7407  -5.4761  -5.4696   5.7143   6.0805   6.4279   6.4639
     7.4307   7.6752   7.7140   8.7821   8.8645   9.5970   9.6636  10.2713
    11.9327  12.5494  12.9602  13.3838

          k = 0.1667 0.1667 0.6437 (  3329 PWs)   bands (ev):

   -60.3029 -60.3021 -30.5873 -30.5850 -30.3193 -30.3148 -30.1349 -30.1342
    -5.9902  -5.7667  -5.5860  -5.3817   5.8052   6.0946   6.3948   6.6188
     7.1347   8.2422   8.3197   8.4376   8.7843   9.3763   9.4086   9.8811
    12.3174  12.5684  12.7325  13.1400

          k = 0.1667 0.3333 0.0000 (  3320 PWs)   bands (ev):

   -60.3142 -60.3112 -30.5997 -30.5969 -30.1664 -30.1634 -30.1460 -30.1355
    -6.6283  -6.0282  -5.4743  -5.1870   4.9888   5.9871   6.3704   6.5044
     6.8761   7.4810   8.4404   8.8123   9.3697   9.5755  10.0450  10.7923
    12.1334  12.1463  12.7787  12.8974

          k = 0.1667 0.3333 0.1609 (  3325 PWs)   bands (ev):

   -60.3129 -60.3101 -30.5980 -30.5958 -30.1694 -30.1633 -30.1595 -30.1549
    -6.5370  -5.9479  -5.5277  -5.2442   5.1224   6.1563   6.2865   6.3664
     7.0950   7.7649   8.1440   8.5739   9.1285   9.5559  10.1352  10.6723
    12.1717  12.2654  12.7341  13.1346

          k = 0.1667 0.3333 0.3218 (  3324 PWs)   bands (ev):

   -60.3095 -60.3072 -30.5937 -30.5929 -30.2210 -30.2130 -30.1519 -30.1511
    -6.3040  -5.7573  -5.6450  -5.3805   5.4692   6.2116   6.2668   6.6126
     7.1513   7.6034   8.0605   8.3411   9.0860   9.4055  10.0026  10.5916
    11.9912  12.5132  12.8539  13.2843

          k = 0.1667 0.3333 0.4828 (  3331 PWs)   bands (ev):

   -60.3055 -60.3041 -30.5900 -30.5890 -30.2802 -30.2746 -30.1413 -30.1412
    -6.0654  -5.8052  -5.5042  -5.4938   5.8414   6.1317   6.3376   6.3914
     7.1689   7.6895   8.1218   8.6836   8.9400   9.3381   9.8341  10.5430
    11.7393  12.6487  12.8207  13.0676

          k = 0.1667 0.3333 0.6437 (  3322 PWs)   bands (ev):

   -60.3027 -60.3022 -30.5883 -30.5860 -30.3183 -30.3145 -30.1349 -30.1342
    -6.0048  -5.8451  -5.5100  -5.3481   5.7535   6.0378   6.3171   6.4143
     7.1916   8.1688   8.3828   8.7230   8.8416   9.5061   9.7372  10.1779
    11.8407  12.5275  12.6487  12.7301

          k = 0.1667-0.5000 0.0000 (  3326 PWs)   bands (ev):

   -60.3127 -60.3127 -30.5981 -30.5981 -30.1654 -30.1654 -30.1407 -30.1407
    -6.3094  -6.3094  -5.3681  -5.3681   5.5312   5.5312   6.4430   6.4430
     7.5687   7.5687   8.3180   8.3180   9.1016   9.1016  10.3310  10.3310
    12.5527  12.5527  12.6503  12.6503

          k = 0.1667-0.5000 0.1609 (  3326 PWs)   bands (ev):

   -60.3115 -60.3115 -30.5968 -30.5968 -30.1662 -30.1662 -30.1577 -30.1577
    -6.2276  -6.2276  -5.4164  -5.4164   5.6568   5.6568   6.3731   6.3731
     7.6878   7.6878   8.3889   8.3889   8.7581   8.7581  10.3844  10.3844
    12.4408  12.4408  12.9313  12.9313

          k = 0.1667-0.5000 0.3218 (  3316 PWs)   bands (ev):

   -60.3083 -60.3083 -30.5934 -30.5934 -30.2170 -30.2170 -30.1516 -30.1516
    -6.0361  -6.0361  -5.5159  -5.5159   5.9023   5.9023   6.4015   6.4015
     7.4163   7.4163   8.4380   8.4380   8.8437   8.8437  10.2502  10.2502
    12.4351  12.4351  13.0581  13.0581

          k = 0.1667-0.5000 0.4828 (  3320 PWs)   bands (ev):

   -60.3048 -60.3048 -30.5898 -30.5898 -30.2773 -30.2773 -30.1413 -30.1413
    -5.9235  -5.9235  -5.5114  -5.5114   5.9806   5.9806   6.4063   6.4063
     7.2754   7.2754   8.6170   8.6170   9.0294   9.0294  10.2294  10.2294
    12.1384  12.1384  12.9297  12.9297

          k = 0.1667-0.5000 0.6437 (  3334 PWs)   bands (ev):

   -60.3025 -60.3025 -30.5877 -30.5877 -30.3161 -30.3161 -30.1345 -30.1345
    -5.9526  -5.9526  -5.3981  -5.3981   5.8055   5.8055   6.3622   6.3622
     7.6475   7.6475   8.5354   8.5354   9.2027   9.2027  10.3646  10.3646
    11.7932  11.7932  12.7012  12.7012

          k = 0.3333 0.3333 0.0000 (  3331 PWs)   bands (ev):

   -60.3135 -60.3118 -30.6011 -30.5984 -30.1654 -30.1624 -30.1437 -30.1377
    -6.5426  -6.1911  -5.3979  -5.1561   4.7834   5.5416   6.3103   6.4299
     7.3185   8.0500   8.7083   9.0711   9.3942   9.7066   9.7505  10.5445
    11.8005  11.8746  12.5688  12.6601

          k = 0.3333 0.3333 0.1609 (  3330 PWs)   bands (ev):

   -60.3123 -60.3107 -30.5992 -30.5970 -30.1675 -30.1616 -30.1592 -30.1572
    -6.4529  -6.1119  -5.4471  -5.2172   4.9260   5.6687   6.2277   6.3642
     7.5318   8.2944   8.4037   8.8018   9.2132   9.7626   9.8364  10.1818
    11.9652  12.1248  12.6008  12.9052

          k = 0.3333 0.3333 0.3218 (  3311 PWs)   bands (ev):

   -60.3090 -60.3077 -30.5944 -30.5936 -30.2194 -30.2144 -30.1517 -30.1509
    -6.2225  -5.9260  -5.5490  -5.3672   5.3120   5.9118   6.1530   6.3901
     7.5288   7.9852   8.3081   8.8101   9.0085   9.5312   9.7446  10.2299
    12.2536  12.3164  12.8136  13.1032

          k = 0.3333 0.3333 0.4828 (  3321 PWs)   bands (ev):

   -60.3052 -60.3044 -30.5900 -30.5890 -30.2797 -30.2757 -30.1415 -30.1414
    -5.9793  -5.8212  -5.5345  -5.5221   5.8066   5.9807   6.1849   6.4164
     7.1388   7.6789   8.4259   8.7681   8.9128   9.4359   9.9176  10.5333
    12.0244  12.5791  12.8927  13.1695

          k = 0.3333 0.3333 0.6437 (  3329 PWs)   bands (ev):

   -60.3026 -60.3023 -30.5878 -30.5855 -30.3187 -30.3152 -30.1354 -30.1346
    -5.9540  -5.7158  -5.6411  -5.3951   5.7985   6.2299   6.2612   6.3582
     6.8479   7.8451   8.3532   8.5045   9.1258   9.6083  10.1313  10.5209
    11.8990  12.6474  12.7083  12.8658

          k = 0.3333-0.5000 0.0000 (  3340 PWs)   bands (ev):

   -60.3127 -60.3127 -30.6005 -30.6005 -30.1634 -30.1634 -30.1407 -30.1407
    -6.3892  -6.3892  -5.2477  -5.2477   4.9943   4.9943   6.3349   6.3349
     7.9924   7.9924   9.0295   9.0295   9.4897   9.4897   9.9610   9.9610
    12.1328  12.1328  12.1632  12.1632

          k = 0.3333-0.5000 0.1609 (  3318 PWs)   bands (ev):

   -60.3115 -60.3115 -30.5987 -30.5987 -30.1639 -30.1639 -30.1584 -30.1584
    -6.3042  -6.3042  -5.3027  -5.3027   5.1309   5.1309   6.2689   6.2689
     8.1479   8.1479   8.9856   8.9856   9.2247   9.2247   9.8633   9.8633
    12.1995  12.1995  12.4613  12.4613

          k = 0.3333-0.5000 0.3218 (  3308 PWs)   bands (ev):

   -60.3083 -60.3083 -30.5944 -30.5944 -30.2168 -30.2168 -30.1512 -30.1512
    -6.0923  -6.0923  -5.4349  -5.4349   5.4818   5.4818   6.2039   6.2039
     7.9910   7.9910   8.6844   8.6844   9.3135   9.3135   9.7791   9.7791
    12.5019  12.5019  12.7286  12.7286

          k = 0.3333-0.5000 0.4828 (  3310 PWs)   bands (ev):

   -60.3048 -60.3048 -30.5895 -30.5895 -30.2778 -30.2778 -30.1416 -30.1416
    -5.8821  -5.8821  -5.5432  -5.5432   5.8526   5.8526   6.2399   6.2399
     7.4085   7.4085   8.7051   8.7051   9.1657   9.1657  10.2493  10.2493
    12.5403  12.5403  12.7362  12.7362

          k = 0.3333-0.5000 0.6437 (  3326 PWs)   bands (ev):

   -60.3025 -60.3025 -30.5864 -30.5864 -30.3172 -30.3172 -30.1352 -30.1352
    -5.8360  -5.8360  -5.5160  -5.5160   5.9808   5.9808   6.3064   6.3064
     7.2321   7.2321   8.4148   8.4148   9.4171   9.4171  10.5329  10.5329
    12.3216  12.3216  12.6790  12.6790

          k =-0.5000-0.5000 0.0000 (  3308 PWs)   bands (ev):

   -60.3127 -60.3127 -30.6017 -30.6017 -30.1624 -30.1624 -30.1407 -30.1407
    -6.4228  -6.4228  -5.1911  -5.1911   4.7886   4.7886   6.2865   6.2865
     8.5944   8.5944   8.6323   8.6323   9.7219   9.7219  10.2603  10.2603
    11.7675  11.7675  11.8848  11.8848

          k =-0.5000-0.5000 0.1609 (  3288 PWs)   bands (ev):

   -60.3115 -60.3115 -30.5997 -30.5997 -30.1623 -30.1623 -30.1592 -30.1592
    -6.3360  -6.3360  -5.2504  -5.2504   4.9308   4.9308   6.2183   6.2183
     8.7150   8.7150   8.8341   8.8341   9.2519   9.2519   9.9898   9.9898
    12.0348  12.0348  12.1684  12.1684

          k =-0.5000-0.5000 0.3218 (  3300 PWs)   bands (ev):

   -60.3083 -60.3083 -30.5949 -30.5949 -30.2168 -30.2168 -30.1510 -30.1510
    -6.1157  -6.1157  -5.3989  -5.3989   5.3160   5.3160   6.1304   6.1304
     8.3534   8.3534   8.9390   8.9390   9.0471   9.0471   9.8134   9.8134
    12.4071  12.4071  12.6769  12.6769

          k =-0.5000-0.5000 0.4828 (  3296 PWs)   bands (ev):

   -60.3048 -60.3048 -30.5894 -30.5894 -30.2781 -30.2781 -30.1417 -30.1417
    -5.8576  -5.8576  -5.5623  -5.5623   5.8160   5.8160   6.1241   6.1241
     7.5316   7.5316   8.6676   8.6676   9.2441   9.2441  10.2899  10.2899
    12.6106  12.6106  13.0779  13.0779

          k =-0.5000-0.5000 0.6437 (  3308 PWs)   bands (ev):

   -60.3025 -60.3025 -30.5858 -30.5858 -30.3178 -30.3178 -30.1356 -30.1356
    -5.6846  -5.6846  -5.6671  -5.6671   6.1654   6.1654   6.2107   6.2107
     7.0236   7.0236   8.3705   8.3705   9.4845   9.4845  10.6297  10.6297
    12.6665  12.6665  12.7454  12.7454

     highest occupied level (ev):    13.6584

!    total energy              =    -504.89630205 Ry
     estimated scf accuracy    <       0.00000047 Ry

     The total energy is the sum of the following terms:
     one-electron contribution =    -163.53278425 Ry
     hartree contribution      =     112.46678417 Ry
     xc contribution           =     -67.47377276 Ry
     ewald contribution        =    -386.35652921 Ry

     convergence has been achieved in   8 iterations

     Forces acting on atoms (cartesian axes, Ry/au):

     atom    1 type  1   force =     0.00000000    0.00000000    0.00000000
     atom    2 type  1   force =     0.00000000    0.00000000    0.00000000
     atom    3 type  2   force =     0.00144414    0.00144414   -0.00000000
     atom    4 type  2   force =    -0.00144414   -0.00144414   -0.00000000
     atom    5 type  2   force =     0.00144414   -0.00144414    0.00000000
     atom    6 type  2   force =    -0.00144414    0.00144414    0.00000000

     Total force =     0.004085     Total SCF correction =     0.000292
 
     init_run     :      0.05s CPU      0.07s WALL (       1 calls)
     electrons    :      2.42s CPU      2.53s WALL (       1 calls)
     forces       :      0.02s CPU      0.02s WALL (       1 calls)

     Called by init_run:
     wfcinit      :      0.03s CPU      0.04s WALL (       1 calls)
     potinit      :      0.00s CPU      0.01s WALL (       1 calls)
     hinit0       :      0.00s CPU      0.01s WALL (       1 calls)

     Called by electrons:
     c_bands      :      2.26s CPU      2.36s WALL (       8 calls)
     sum_band     :      0.14s CPU      0.15s WALL (       8 calls)
     v_of_rho     :      0.01s CPU      0.02s WALL (       9 calls)
     mix_rho      :      0.00s CPU      0.00s WALL (       8 calls)

     Called by c_bands:
     init_us_2    :      0.02s CPU      0.02s WALL (     306 calls)
     init_us_2:cp :      0.02s CPU      0.02s WALL (     306 calls)
     cegterg      :      1.88s CPU      1.93s WALL (     136 calls)

     Called by *egterg:
     cdiaghg      :      0.65s CPU      0.67s WALL (    1067 calls)
     h_psi        :      1.00s CPU      1.04s WALL (    1084 calls)
     g_psi        :      0.01s CPU      0.01s WALL (     931 calls)

     Called by h_psi:
     h_psi:calbec :      0.06s CPU      0.07s WALL (    1084 calls)
     vloc_psi     :      0.89s CPU      0.92s WALL (    1084 calls)
     add_vuspsi   :      0.04s CPU      0.04s WALL (    1084 calls)

     General routines
     calbec       :      0.07s CPU      0.07s WALL (    1152 calls)
     fft          :      0.01s CPU      0.01s WALL (      91 calls)
     ffts         :      0.00s CPU      0.00s WALL (       8 calls)
     fftw         :      0.87s CPU      0.90s WALL (   33824 calls)
 
     Parallel routines
 
     PWSCF        :      2.52s CPU      2.68s WALL

 
   This run was terminated on:  22:42:17  23Jul2026            

=------------------------------------------------------------------------------=
   JOB DONE.
=------------------------------------------------------------------------------=
