
     Program PWSCF v.7.1 starts on 17Jul2026 at 15:41:53 

     This program is part of the open-source Quantum ESPRESSO suite
     for quantum simulation of materials; please cite
         "P. Giannozzi et al., J. Phys.:Condens. Matter 21 395502 (2009);
         "P. Giannozzi et al., J. Phys.:Condens. Matter 29 465901 (2017);
         "P. Giannozzi et al., J. Chem. Phys. 152 154105 (2020);
          URL http://www.quantum-espresso.org", 
     in publications or presentations arising from this work. More details at
     http://www.quantum-espresso.org/quote

     Parallel version (MPI), running on    36 processors

     MPI processes distributed on     1 nodes
     182294 MiB available memory on the printing compute node when the environment starts
 
     Waiting for input...
     Reading input from standard input
Warning: card &FCP ignored
Warning: card / ignored
Warning: card &RISM ignored
Warning: card / ignored

     Current dimensions of program PWSCF are:
     Max number of different atomic species (ntypx) = 10
     Max number of k-points (npk) =  40000
     Max angular momentum in pseudopotentials (lmaxx) =  4
     Message from routine setup:
     using ibrav=0 with symmetry is DISCOURAGED, use correct ibrav instead
 
     R & G space division:  proc/nbgrp/npool/nimage =      36
     Subspace diagonalization in iterative solution of the eigenvalue problem:
     one sub-group per band group will be used
     scalapack distributed-memory algorithm (size of sub-group:  2*  2 procs)

 
     Parallelization info
     --------------------
     sticks:   dense  smooth     PW     G-vecs:    dense   smooth      PW
     Min          73      73     20                22077    22077    3220
     Max          74      74     21                22099    22099    3253
     Sum        2639    2639    733               795275   795275  116303
 
     Using Slab Decomposition
 


     bravais-lattice index     =            0
     lattice parameter (alat)  =      12.3151  a.u.
     unit-cell volume          =    4478.1563 (a.u.)^3
     number of atoms/cell      =           36
     number of atomic types    =            2
     number of electrons       =       288.00
     number of Kohn-Sham states=          173
     kinetic-energy cutoff     =     120.0000  Ry
     charge density cutoff     =     480.0000  Ry
     scf convergence threshold =      1.0E-06
     mixing beta               =       0.4000
     number of iterations used =           20  plain     mixing
     energy convergence thresh.=      1.0E-04
     force convergence thresh. =      1.0E-03
     press convergence thresh. =      5.0E-01
     Exchange-correlation= PBE
                           (   1   4   3   4   0   0   0)
     nstep                     =          500


     celldm(1)=  12.315136  celldm(2)=   0.000000  celldm(3)=   0.000000
     celldm(4)=   0.000000  celldm(5)=   0.000000  celldm(6)=   0.000000

     crystal axes: (cart. coord. in units of alat)
               a(1) = (   1.000000   0.000000   0.000000 )  
               a(2) = (   0.000000   0.455076   0.000000 )  
               a(3) = (   0.000000   0.000000   5.268634 )  

     reciprocal axes: (cart. coord. in units 2 pi/alat)
               b(1) = (  1.000000  0.000000  0.000000 )  
               b(2) = (  0.000000  2.197437  0.000000 )  
               b(3) = (  0.000000  0.000000  0.189803 )  


     PseudoPot. # 1 for Ti read from file:
     /cm/shared/apps/KO/pseudo/sg15/Ti_ONCV_PBE-1.2.upf
     MD5 check sum: 1aea57736bd12dcfee93c97d0b9b5968
     Pseudo is Norm-conserving, Zval = 12.0
     Generated using ONCVPSP code by D. R. Hamann
     Using radial grid of  602 points,  6 beta functions with: 
                l(1) =   0
                l(2) =   0
                l(3) =   1
                l(4) =   1
                l(5) =   2
                l(6) =   2

     PseudoPot. # 2 for O  read from file:
     /cm/shared/apps/KO/pseudo/sg15/O_ONCV_PBE-1.2.upf
     MD5 check sum: e36c48deb68f4e355fffe4602be2c42c
     Pseudo is Norm-conserving, Zval =  6.0
     Generated using ONCVPSP code by D. R. Hamann
     Using radial grid of  602 points,  4 beta functions with: 
                l(1) =   0
                l(2) =   0
                l(3) =   1
                l(4) =   1

     atomic species   valence    mass     pseudopotential
        Ti            12.00    47.86700     Ti( 1.00)
        O              6.00    15.99900     O ( 1.00)

      4 Sym. Ops. (no inversion) found



   Cartesian axes

     site n.     atom                  positions (alat units)
         1           Ti  tau(   1) = (   0.5000000   0.0000000   1.3917863  )
         2           Ti  tau(   2) = (   0.0000000   0.2275378   1.3145184  )
         3           Ti  tau(   3) = (   0.0000000   0.0000000   1.8268828  )
         4           Ti  tau(   4) = (   0.5000000   0.2275378   1.8895275  )
         5           Ti  tau(   5) = (   0.5000000   0.0000000   2.4095944  )
         6           Ti  tau(   6) = (   0.0000000   0.2275378   2.3571855  )
         7           Ti  tau(   7) = (   0.0000000   0.0000000   2.8595142  )
         8           Ti  tau(   8) = (   0.5000000   0.2275378   2.9118821  )
         9           Ti  tau(   9) = (   0.5000000   0.0000000   3.4418883  )
        10           Ti  tau(  10) = (   0.0000000   0.2275378   3.3797168  )
        11           Ti  tau(  11) = (   0.0000000   0.0000000   3.8778022  )
        12           Ti  tau(  12) = (   0.5000000   0.2275378   3.9542999  )
        13           O   tau(  13) = (   0.0000000   0.0000000   1.1508558  )
        14           O   tau(  14) = (   0.5000000   0.0000000   1.6676640  )
        15           O   tau(  15) = (   0.0000000   0.0000000   1.5475287  )
        16           O   tau(  16) = (   0.3113446   0.2275378   1.3357502  )
        17           O   tau(  17) = (   0.6886554   0.2275378   1.3357502  )
        18           O   tau(  18) = (   0.0000000   0.0000000   2.1791527  )
        19           O   tau(  19) = (   0.5000000   0.0000000   2.0649610  )
        20           O   tau(  20) = (   0.8030227   0.2275378   1.8605041  )
        21           O   tau(  21) = (   0.1969773   0.2275378   1.8605041  )
        22           O   tau(  22) = (   0.5000000   0.0000000   2.6937333  )
        23           O   tau(  23) = (   0.0000000   0.0000000   2.5754277  )
        24           O   tau(  24) = (   0.3054121   0.2275378   2.3796493  )
        25           O   tau(  25) = (   0.6945879   0.2275378   2.3796493  )
        26           O   tau(  26) = (   0.0000000   0.0000000   3.2044748  )
        27           O   tau(  27) = (   0.5000000   0.0000000   3.0897593  )
        28           O   tau(  28) = (   0.8054408   0.2275378   2.8893416  )
        29           O   tau(  29) = (   0.1945592   0.2275378   2.8893416  )
        30           O   tau(  30) = (   0.5000000   0.0000000   3.7214091  )
        31           O   tau(  31) = (   0.0000000   0.0000000   3.6018608  )
        32           O   tau(  32) = (   0.3031442   0.2275378   3.4076611  )
        33           O   tau(  33) = (   0.6968557   0.2275378   3.4076611  )
        34           O   tau(  34) = (   0.5000000   0.0000000   4.1177784  )
        35           O   tau(  35) = (   0.8114425   0.2275378   3.9341377  )
        36           O   tau(  36) = (   0.1885575   0.2275378   3.9341377  )

     number of k points=     8  Gaussian smearing, width (Ry)=  0.0200
                       cart. coord. in units 2pi/alat
        k(    1) = (   0.0000000   0.0000000   0.0000000), wk =   0.1111111
        k(    2) = (   0.0000000   0.3662395   0.0000000), wk =   0.2222222
        k(    3) = (   0.0000000   0.7324791   0.0000000), wk =   0.2222222
        k(    4) = (   0.0000000  -1.0987186   0.0000000), wk =   0.1111111
        k(    5) = (   0.3333333   0.0000000   0.0000000), wk =   0.2222222
        k(    6) = (   0.3333333   0.3662395   0.0000000), wk =   0.4444444
        k(    7) = (   0.3333333   0.7324791   0.0000000), wk =   0.4444444
        k(    8) = (   0.3333333  -1.0987186   0.0000000), wk =   0.2222222

     Dense  grid:   795275 G-vectors     FFT dimensions: (  90,  40, 480)

     Estimated max dynamical RAM per process >     142.83 MB

     Estimated total dynamical RAM >       5.02 GB

     Initial potential from superposition of free atoms

     starting charge     286.6604, renormalised to     288.0000

     negative rho (up, down):  7.542E-04 0.000E+00
     Starting wfcs are random

     total cpu time spent up to now is        4.9 secs

     per-process dynamical memory:   223.3 Mb

     Self-consistent Calculation

     iteration #  1     ecut=   120.00 Ry     beta= 0.40
     Davidson diagonalization with overlap
     ethr =  1.00E-02,  avg # of iterations = 16.0

     negative rho (up, down):  5.874E-06 0.000E+00

     total cpu time spent up to now is       30.6 secs

     total energy              =   -2151.84953285 Ry
     estimated scf accuracy    <      14.06763958 Ry

     iteration #  2     ecut=   120.00 Ry     beta= 0.40
     Davidson diagonalization with overlap
     ethr =  4.88E-03,  avg # of iterations =  3.9

     negative rho (up, down):  1.126E-08 0.000E+00

     total cpu time spent up to now is       38.7 secs

     total energy              =   -2154.80632103 Ry
     estimated scf accuracy    <       2.95954855 Ry

     iteration #  3     ecut=   120.00 Ry     beta= 0.40
     Davidson diagonalization with overlap
     ethr =  1.03E-03,  avg # of iterations =  7.0

     total cpu time spent up to now is       47.2 secs

     total energy              =   -2155.12833329 Ry
     estimated scf accuracy    <       6.85126687 Ry

     iteration #  4     ecut=   120.00 Ry     beta= 0.40
     Davidson diagonalization with overlap
     ethr =  1.03E-03,  avg # of iterations = 13.0

     total cpu time spent up to now is       56.4 secs

     total energy              =   -2155.69582946 Ry
     estimated scf accuracy    <       1.49003992 Ry

     iteration #  5     ecut=   120.00 Ry     beta= 0.40
     Davidson diagonalization with overlap
     ethr =  5.17E-04,  avg # of iterations =  4.6

     total cpu time spent up to now is       63.2 secs

     total energy              =   -2155.84518360 Ry
     estimated scf accuracy    <       0.17064839 Ry

     iteration #  6     ecut=   120.00 Ry     beta= 0.40
     Davidson diagonalization with overlap
     c_bands:  2 eigenvalues not converged
     c_bands:  3 eigenvalues not converged
     c_bands:  5 eigenvalues not converged
     c_bands:  1 eigenvalues not converged
     ethr =  5.93E-05,  avg # of iterations = 17.1

     total cpu time spent up to now is       76.7 secs

     total energy              =   -2155.89351540 Ry
     estimated scf accuracy    <       0.07517047 Ry

     iteration #  7     ecut=   120.00 Ry     beta= 0.40
     Davidson diagonalization with overlap
     c_bands:  1 eigenvalues not converged
     c_bands:  1 eigenvalues not converged
     ethr =  2.61E-05,  avg # of iterations = 14.4

     total cpu time spent up to now is       86.6 secs

     total energy              =   -2155.89909759 Ry
     estimated scf accuracy    <       0.02304104 Ry

     iteration #  8     ecut=   120.00 Ry     beta= 0.40
     Davidson diagonalization with overlap
     c_bands:  1 eigenvalues not converged
     c_bands:  1 eigenvalues not converged
     ethr =  8.00E-06,  avg # of iterations =  9.6

     total cpu time spent up to now is       95.1 secs

     total energy              =   -2155.90117720 Ry
     estimated scf accuracy    <       0.00470474 Ry

     iteration #  9     ecut=   120.00 Ry     beta= 0.40
     Davidson diagonalization with overlap
     c_bands:  3 eigenvalues not converged
     c_bands:  2 eigenvalues not converged
     c_bands:  1 eigenvalues not converged
     ethr =  1.63E-06,  avg # of iterations = 17.9

     total cpu time spent up to now is      107.7 secs

     total energy              =   -2155.90195780 Ry
     estimated scf accuracy    <       0.00140435 Ry

     iteration # 10     ecut=   120.00 Ry     beta= 0.40
     Davidson diagonalization with overlap
     c_bands:  2 eigenvalues not converged
     ethr =  4.88E-07,  avg # of iterations =  8.6

     total cpu time spent up to now is      115.8 secs

     total energy              =   -2155.90209125 Ry
     estimated scf accuracy    <       0.00041095 Ry

     iteration # 11     ecut=   120.00 Ry     beta= 0.40
     Davidson diagonalization with overlap
     c_bands:  3 eigenvalues not converged
     ethr =  1.43E-07,  avg # of iterations =  7.2

     total cpu time spent up to now is      123.7 secs

     total energy              =   -2155.90211032 Ry
     estimated scf accuracy    <       0.00021553 Ry

     iteration # 12     ecut=   120.00 Ry     beta= 0.40
     Davidson diagonalization with overlap
     c_bands:  1 eigenvalues not converged
     ethr =  7.48E-08,  avg # of iterations =  7.2

     total cpu time spent up to now is      131.7 secs

     total energy              =   -2155.90211631 Ry
     estimated scf accuracy    <       0.00008737 Ry

     iteration # 13     ecut=   120.00 Ry     beta= 0.40
     Davidson diagonalization with overlap
     c_bands:  1 eigenvalues not converged
     c_bands:  1 eigenvalues not converged
     ethr =  3.03E-08,  avg # of iterations =  9.6

     total cpu time spent up to now is      140.5 secs

     total energy              =   -2155.90212185 Ry
     estimated scf accuracy    <       0.00003632 Ry

     iteration # 14     ecut=   120.00 Ry     beta= 0.40
     Davidson diagonalization with overlap
     ethr =  1.26E-08,  avg # of iterations =  3.5

     total cpu time spent up to now is      147.2 secs

     total energy              =   -2155.90212276 Ry
     estimated scf accuracy    <       0.00001240 Ry

     iteration # 15     ecut=   120.00 Ry     beta= 0.40
     Davidson diagonalization with overlap
     ethr =  4.31E-09,  avg # of iterations =  6.1

     total cpu time spent up to now is      155.1 secs

     total energy              =   -2155.90212406 Ry
     estimated scf accuracy    <       0.00000418 Ry

     iteration # 16     ecut=   120.00 Ry     beta= 0.40
     Davidson diagonalization with overlap
     ethr =  1.45E-09,  avg # of iterations =  4.5

     total cpu time spent up to now is      162.3 secs

     total energy              =   -2155.90212405 Ry
     estimated scf accuracy    <       0.00000224 Ry

     iteration # 17     ecut=   120.00 Ry     beta= 0.40
     Davidson diagonalization with overlap
     ethr =  7.79E-10,  avg # of iterations =  4.2

     total cpu time spent up to now is      169.3 secs

     End of self-consistent calculation

          k = 0.0000 0.0000 0.0000 ( 99471 PWs)   bands (ev):

   -54.9051 -54.9011 -54.7598 -54.7571 -54.6949 -54.6911 -54.6858 -54.6824
   -54.6037 -54.5954 -54.2987 -54.2974 -31.2224 -31.2188 -31.1107 -31.1060
   -31.0984 -31.0956 -31.0228 -31.0189 -31.0136 -31.0106 -31.0063 -30.9998
   -30.9978 -30.9897 -30.9071 -30.9018 -30.8484 -30.8453 -30.8436 -30.8432
   -30.8365 -30.8363 -30.8316 -30.8293 -30.7938 -30.7857 -30.7780 -30.7700
   -30.7125 -30.7044 -30.5810 -30.5809 -30.5524 -30.5514 -30.3609 -30.3601
   -15.8994 -15.8257 -15.6215 -15.4693 -15.3901 -15.3335 -15.2301 -15.1653
   -14.9280 -14.7908 -14.6373 -14.6303 -14.5751 -14.5693 -14.2482 -14.2092
   -14.1987 -14.1966 -14.1770 -14.1595 -14.1459 -14.1199 -13.8507 -13.8472
    -3.4574  -3.3708  -3.2840  -3.2711  -3.2459  -3.2445  -3.1699  -3.1062
    -2.8052  -2.7818  -2.5047  -2.3215  -2.0723  -2.0210  -2.0138  -1.8925
    -1.8881  -1.5720  -1.5593  -1.5372  -1.5349  -1.5148  -1.4898  -1.4885
    -1.4394  -1.4333  -1.2392  -1.2322  -1.1349  -1.0662  -0.9867  -0.6948
    -0.6149  -0.5222  -0.4814  -0.3704  -0.3519  -0.3512  -0.2852  -0.2806
    -0.1416  -0.0821   0.0022   0.0252   0.1163   0.1185   0.2556   0.3796
     0.4055   0.4128   0.4501   0.4843   0.5134   0.5253   0.7765   0.7957
     0.8046   0.8163   1.0567   1.0623   1.0826   1.0854   1.1082   1.1163
     1.1402   1.1430   1.5453   1.5862   1.6176   1.7703   1.9206   2.0518
     4.1183   4.1301   4.1656   4.2095   4.2378   4.2396   4.5303   4.5673
     4.5698   4.5742   4.7420   4.7577   4.7580   4.8129   4.8303   4.8871
     5.0599   5.0601   5.0673   5.0767   5.1924   5.3227   5.3764   5.4832
     5.5294   5.6724   5.7523   5.7567   5.8151

          k = 0.0000 0.3662 0.0000 ( 99433 PWs)   bands (ev):

   -54.8951 -54.8911 -54.7501 -54.7474 -54.6844 -54.6811 -54.6763 -54.6733
   -54.5942 -54.5859 -54.2883 -54.2870 -31.1988 -31.1949 -31.1493 -31.1459
   -31.0959 -31.0913 -31.0788 -31.0757 -30.9874 -30.9844 -30.9779 -30.9738
   -30.9721 -30.9662 -30.9424 -30.9401 -30.9262 -30.9244 -30.8961 -30.8885
   -30.8682 -30.8668 -30.8430 -30.8397 -30.8369 -30.8299 -30.8267 -30.8184
   -30.8175 -30.8097 -30.5728 -30.5728 -30.5462 -30.5451 -30.4716 -30.4711
   -15.6379 -15.5750 -15.3917 -15.2532 -15.1755 -15.1232 -15.0303 -14.9794
   -14.7821 -14.6782 -14.6310 -14.6228 -14.4528 -14.4447 -14.3373 -14.3116
   -14.2983 -14.2922 -14.2821 -14.2621 -14.2493 -14.2315 -13.9120 -13.9092
    -3.0966  -3.0406  -2.9854  -2.9689  -2.9271  -2.9252  -2.8903  -2.8238
    -2.5309  -2.5094  -2.2776  -2.2448  -2.2072  -2.1892  -2.0934  -2.0711
    -2.0699  -2.0270  -1.9906  -1.8856  -1.8829  -1.8058  -1.7729  -1.7125
    -1.4942  -1.3452  -1.2694  -0.9144  -0.9078  -0.8291  -0.7121  -0.5847
    -0.4486  -0.4044  -0.4010  -0.3014  -0.2940  -0.2285  -0.1472  -0.1307
    -0.1025  -0.0552   0.0459   0.0640   0.0859   0.1154   0.1366   0.1613
     0.1908   0.2008   0.2178   0.2273   0.3055   0.3197   0.4352   0.5258
     0.5503   0.6593   0.7212   0.7478   0.7785   0.8326   0.8658   0.9075
     1.0972   1.1162   1.1398   1.1577   1.1606   1.6932   1.7756   1.8852
     4.2312   4.2347   4.3657   4.4558   4.4676   4.4700   4.4918   4.4948
     4.5426   4.6104   4.6523   4.8706   4.8874   4.9233   4.9473   5.0093
     5.2248   5.2738   5.3056   5.3393   5.4458   5.4738   5.5003   5.5351
     5.6243   5.6517   5.6574   5.6957   5.9324

          k = 0.0000 0.7325 0.0000 ( 99452 PWs)   bands (ev):

   -54.8750 -54.8710 -54.7305 -54.7279 -54.6628 -54.6608 -54.6571 -54.6556
   -54.5750 -54.5667 -54.2674 -54.2661 -31.3729 -31.3687 -31.1656 -31.1632
   -31.1369 -31.1338 -31.1271 -31.1257 -31.1106 -31.1090 -31.0693 -31.0675
   -31.0666 -31.0631 -31.0325 -31.0244 -30.9337 -30.9307 -30.9232 -30.9179
   -30.9153 -30.9117 -30.8695 -30.8669 -30.8368 -30.8352 -30.8195 -30.8130
   -30.7895 -30.7810 -30.7340 -30.7336 -30.5342 -30.5331 -30.5027 -30.5026
   -15.0521 -15.0392 -15.0153 -14.9579 -14.7534 -14.7356 -14.7330 -14.6573
   -14.6417 -14.6367 -14.5231 -14.5083 -14.5031 -14.5000 -14.4902 -14.4732
   -14.4559 -14.4493 -14.3888 -14.3665 -14.2238 -14.2150 -13.8938 -13.8927
    -2.5519  -2.4958  -2.4864  -2.4676  -2.4581  -2.4477  -2.4054  -2.3680
    -2.3121  -2.3070  -2.2382  -2.2204  -2.2009  -2.1873  -2.1450  -2.1374
    -2.0650  -2.0550  -2.0446  -1.9725  -1.9337  -1.8945  -1.8666  -1.6857
    -1.5319  -1.3458  -1.3319  -1.2714  -1.2208  -1.1708  -1.1319  -1.0864
    -1.0795  -1.0568  -0.8808  -0.8368  -0.8212  -0.5057  -0.4536  -0.3236
    -0.2627  -0.2238  -0.1827  -0.0087   0.0236   0.0277   0.0863   0.1099
     0.1328   0.1827   0.2091   0.2544   0.3219   0.4448   0.4614   0.4650
     0.4707   0.6675   0.7225   0.7269   0.7270   0.7902   0.8058   0.8109
     1.0142   1.0278   1.0361   1.0600   1.1444   1.2011   1.2532   1.3249
     4.5382   4.5765   4.5896   4.5963   4.6672   4.7174   4.8328   4.8563
     4.8974   4.9253   5.0352   5.0435   5.0514   5.0743   5.1604   5.1728
     5.2163   5.2407   5.2478   5.3708   5.4323   5.5230   5.6565   5.6963
     5.7179   5.7497   5.7691   5.7736   5.7956

          k = 0.0000-1.0987 0.0000 ( 99368 PWs)   bands (ev):

   -54.8649 -54.8609 -54.7207 -54.7181 -54.6516 -54.6500 -54.6478 -54.6473
   -54.5654 -54.5570 -54.2570 -54.2556 -31.4810 -31.4768 -31.2694 -31.2671
   -31.2330 -31.2321 -31.2187 -31.2173 -31.1362 -31.1282 -31.0930 -31.0886
   -31.0786 -31.0764 -31.0538 -31.0495 -30.9062 -30.9031 -30.8982 -30.8954
   -30.8733 -30.8718 -30.8642 -30.8629 -30.8597 -30.8587 -30.8441 -30.8424
   -30.7946 -30.7884 -30.7701 -30.7615 -30.5287 -30.5275 -30.4839 -30.4837
   -15.0330 -15.0299 -14.7171 -14.7126 -14.6314 -14.6218 -14.6024 -14.5932
   -14.5818 -14.5594 -14.5546 -14.5440 -14.5345 -14.5312 -14.5072 -14.4885
   -14.4632 -14.4374 -14.3270 -14.3178 -14.2079 -14.1916 -13.7485 -13.7467
    -2.8989  -2.7965  -2.5526  -2.4933  -2.4758  -2.4301  -2.3795  -2.3522
    -2.2983  -2.2242  -2.2043  -2.1657  -2.0593  -2.0479  -2.0375  -2.0327
    -2.0271  -1.9368  -1.8890  -1.8717  -1.8661  -1.8384  -1.7501  -1.6707
    -1.6476  -1.5081  -1.4256  -1.3979  -1.2488  -1.2399  -1.2256  -1.2236
    -0.8708  -0.7817  -0.6388  -0.6339  -0.5927  -0.5916  -0.5578  -0.5394
    -0.5343  -0.4504  -0.3906  -0.2732  -0.2652  -0.1954  -0.1754  -0.1336
     0.0287   0.1242   0.1823   0.2156   0.2746   0.4008   0.4818   0.5449
     0.5688   0.6159   0.7381   0.8233   0.9164   0.9176   0.9253   0.9448
     0.9458   0.9471   0.9675   0.9825   1.0769   1.1157   1.1338   1.2770
     4.2926   4.5787   4.8117   4.8202   4.8427   5.0136   5.0774   5.0829
     5.0926   5.1368   5.1805   5.1855   5.2756   5.2823   5.2865   5.3784
     5.3960   5.4368   5.4388   5.4401   5.4663   5.5029   5.5123   5.5633
     5.5723   5.6308   5.6330   5.6574   5.7604

          k = 0.3333 0.0000 0.0000 ( 99387 PWs)   bands (ev):

   -54.9051 -54.9011 -54.7598 -54.7571 -54.6932 -54.6904 -54.6866 -54.6841
   -54.6038 -54.5954 -54.2987 -54.2974 -31.2226 -31.2190 -31.0987 -31.0959
   -31.0947 -31.0903 -31.0227 -31.0188 -31.0062 -31.0032 -30.9975 -30.9924
   -30.9707 -30.9633 -30.9063 -30.9058 -30.8823 -30.8793 -30.8619 -30.8535
   -30.8427 -30.8360 -30.8315 -30.8293 -30.7900 -30.7832 -30.7805 -30.7738
   -30.7126 -30.7045 -30.5809 -30.5808 -30.5606 -30.5595 -30.3610 -30.3602
   -15.7510 -15.6967 -15.4647 -15.3334 -15.2949 -15.2541 -15.1908 -15.1473
   -15.0293 -14.8742 -14.7665 -14.7600 -14.5678 -14.5620 -14.3241 -14.3158
   -14.2900 -14.2633 -14.2410 -14.2267 -14.2089 -14.1865 -13.8468 -13.8438
    -3.2883  -3.2440  -2.9701  -2.8931  -2.8500  -2.8432  -2.8359  -2.8254
    -2.7509  -2.7329  -2.1602  -2.0548  -2.0229  -1.9318  -1.8941  -1.8904
    -1.7394  -1.5615  -1.5519  -1.4863  -1.4703  -1.4308  -1.4300  -1.3705
    -1.3699  -1.3638  -1.3583  -1.2621  -1.2389  -1.2316  -1.1455  -0.9880
    -0.8924  -0.8135  -0.7069  -0.6785  -0.5702  -0.5584  -0.4830  -0.3462
    -0.3021  -0.2393  -0.1856  -0.0049   0.0541   0.0612   0.0704   0.2321
     0.3453   0.3499   0.4171   0.4671   0.4877   0.5291   0.5372   0.5657
     0.6353   0.6958   0.8413   0.8596   0.9297   0.9994   1.0058   1.0070
     1.0539   1.0808   1.1849   1.1889   1.2396   1.5834   1.6766   1.7947
     4.4750   4.4857   4.5521   4.5761   4.6077   4.6253   4.6553   4.6558
     4.8010   4.8224   4.8290   4.8362   4.9060   4.9125   5.0284   5.0359
     5.1056   5.1593   5.2964   5.3046   5.3634   5.5162   5.5226   5.6997
     5.7102   5.7208   5.7499   5.7839   5.8069

          k = 0.3333 0.3662 0.0000 ( 99355 PWs)   bands (ev):

   -54.8951 -54.8910 -54.7500 -54.7474 -54.6829 -54.6805 -54.6768 -54.6748
   -54.5942 -54.5859 -54.2883 -54.2870 -31.1988 -31.1949 -31.1496 -31.1462
   -31.0867 -31.0823 -31.0790 -31.0760 -30.9817 -30.9787 -30.9729 -30.9684
   -30.9520 -30.9489 -30.9435 -30.9413 -30.9265 -30.9201 -30.9036 -30.8994
   -30.8691 -30.8683 -30.8580 -30.8567 -30.8405 -30.8346 -30.8323 -30.8273
   -30.8156 -30.8078 -30.5728 -30.5728 -30.5510 -30.5499 -30.4714 -30.4709
   -15.5101 -15.4658 -15.2561 -15.1203 -15.1010 -15.0547 -14.9914 -14.9592
   -14.8598 -14.7358 -14.6340 -14.6242 -14.6027 -14.5980 -14.4166 -14.4066
   -14.3740 -14.3583 -14.3266 -14.2996 -14.2633 -14.2571 -13.9075 -13.9050
    -2.9684  -2.9434  -2.6601  -2.6091  -2.5598  -2.5460  -2.5223  -2.5149
    -2.4509  -2.4418  -2.2507  -2.2457  -2.1114  -2.0960  -2.0522  -2.0464
    -1.9673  -1.9630  -1.8783  -1.7840  -1.7426  -1.7330  -1.6007  -1.5691
    -1.4685  -1.3542  -1.1850  -0.9828  -0.9113  -0.8699  -0.7915  -0.7534
    -0.7234  -0.6823  -0.6406  -0.5553  -0.5453  -0.5307  -0.4860  -0.4317
    -0.3284  -0.2468  -0.2373  -0.1613  -0.1046  -0.1044  -0.0865  -0.0647
    -0.0362   0.0427   0.0732   0.0964   0.1329   0.1877   0.2426   0.2656
     0.3615   0.4887   0.5730   0.6807   0.9112   0.9169   1.0816   1.0838
     1.1790   1.1966   1.2192   1.2473   1.3070   1.5573   1.6208   1.7053
     4.3400   4.3433   4.5210   4.5262   4.5803   4.6225   4.6638   4.7676
     4.7985   4.8143   4.8716   4.8733   4.9411   4.9440   5.0337   5.0963
     5.2757   5.3014   5.4218   5.4655   5.5012   5.5031   5.6150   5.6866
     5.7676   5.7908   5.8438   5.8931   5.9258

          k = 0.3333 0.7325 0.0000 ( 99394 PWs)   bands (ev):

   -54.8750 -54.8710 -54.7305 -54.7279 -54.6621 -54.6604 -54.6574 -54.6564
   -54.5750 -54.5667 -54.2674 -54.2661 -31.3732 -31.3691 -31.1680 -31.1657
   -31.1376 -31.1348 -31.1277 -31.1263 -31.1180 -31.1163 -31.0942 -31.0887
   -31.0693 -31.0665 -31.0018 -30.9950 -30.9326 -30.9296 -30.9223 -30.9194
   -30.8910 -30.8875 -30.8688 -30.8678 -30.8515 -30.8496 -30.8193 -30.8127
   -30.7930 -30.7844 -30.7332 -30.7328 -30.5336 -30.5325 -30.5027 -30.5025
   -15.0182 -15.0152 -14.9808 -14.9344 -14.7875 -14.7836 -14.7314 -14.7293
   -14.6743 -14.6419 -14.5937 -14.5797 -14.5106 -14.5068 -14.4807 -14.4730
   -14.4121 -14.3980 -14.3446 -14.3295 -14.2196 -14.2106 -13.8938 -13.8927
    -2.5111  -2.4952  -2.4650  -2.4550  -2.3588  -2.3567  -2.3466  -2.3228
    -2.2727  -2.2174  -2.1570  -2.1541  -2.1125  -2.1083  -2.0647  -2.0363
    -2.0138  -1.9673  -1.9391  -1.9120  -1.9078  -1.8469  -1.7842  -1.7786
    -1.5668  -1.4881  -1.3445  -1.3072  -1.2657  -1.2604  -1.1550  -1.1327
    -0.9321  -0.9120  -0.8056  -0.7758  -0.7046  -0.5793  -0.4990  -0.4120
    -0.3427  -0.3248  -0.2308  -0.2220  -0.1314  -0.1040  -0.0722  -0.0559
    -0.0221   0.0094   0.1148   0.1631   0.1909   0.3107   0.4264   0.4337
     0.4777   0.5245   0.6894   0.7074   0.7461   0.7917   0.8621   0.8878
     0.9469   1.0151   1.1479   1.2131   1.2832   1.3302   1.3478   1.3628
     4.3067   4.3319   4.3682   4.4391   4.4571   4.5030   4.7544   4.8646
     4.8746   4.9367   5.0351   5.0755   5.1104   5.1504   5.2290   5.2577
     5.2818   5.3195   5.3329   5.3575   5.4837   5.5525   5.6307   5.6561
     5.7279   5.7312   5.8591   5.8987   5.9911

          k = 0.3333-1.0987 0.0000 ( 99524 PWs)   bands (ev):

   -54.8649 -54.8609 -54.7207 -54.7181 -54.6516 -54.6500 -54.6478 -54.6473
   -54.5654 -54.5570 -54.2570 -54.2556 -31.4814 -31.4772 -31.2720 -31.2697
   -31.2337 -31.2330 -31.2252 -31.2245 -31.1585 -31.1511 -31.0939 -31.0896
   -31.0785 -31.0764 -31.0300 -31.0250 -30.9116 -30.9088 -30.8975 -30.8961
   -30.8658 -30.8645 -30.8595 -30.8590 -30.8584 -30.8575 -30.8429 -30.8419
   -30.7943 -30.7882 -30.7696 -30.7610 -30.5253 -30.5242 -30.4840 -30.4838
   -15.0311 -15.0286 -14.8149 -14.8101 -14.8021 -14.7956 -14.7544 -14.7536
   -14.7109 -14.7085 -14.6028 -14.5639 -14.3506 -14.3481 -14.3298 -14.3234
   -14.2610 -14.2582 -14.2522 -14.2469 -14.2063 -14.1975 -13.7484 -13.7466
    -2.8324  -2.8220  -2.8143  -2.7507  -2.6848  -2.6388  -2.5169  -2.5151
    -2.5126  -2.4564  -2.2895  -2.0851  -2.0694  -2.0387  -1.9155  -1.9057
    -1.8707  -1.8676  -1.8651  -1.7904  -1.6618  -1.6618  -1.6571  -1.6552
    -1.5004  -1.4709  -1.2156  -1.1614  -1.1525  -1.0255  -0.9397  -0.8638
    -0.8529  -0.8502  -0.7866  -0.5988  -0.5820  -0.5733  -0.5706  -0.5398
    -0.4736  -0.4538  -0.4469  -0.3891  -0.2288  -0.2094   0.0064   0.1083
     0.1186   0.1656   0.2034   0.2888   0.3904   0.4405   0.5333   0.5641
     0.5857   0.6068   0.6300   0.6909   0.7144   0.7216   0.7288   0.8086
     0.8534   0.9074   0.9160   0.9627   0.9635   1.2030   1.2594   1.2943
     4.2825   4.2939   4.3547   4.4152   4.4940   4.6295   4.6359   4.7080
     4.8724   4.9511   5.1475   5.1527   5.1869   5.2842   5.3074   5.3621
     5.4001   5.4019   5.4119   5.4290   5.4977   5.5073   5.6523   5.6558
     5.6667   5.8243   5.9641   5.9734   6.0144

     the Fermi energy is     3.0715 ev

!    total energy              =   -2155.90212350 Ry
     estimated scf accuracy    <       0.00000081 Ry
     smearing contrib. (-TS)   =      -0.00000000 Ry
     internal energy E=F+TS    =   -2155.90212350 Ry

     The total energy is F=E-TS. E is the sum of the following terms:
     one-electron contribution =  -29201.72486104 Ry
     hartree contribution      =   14662.61729234 Ry
     xc contribution           =    -340.13255074 Ry
     ewald contribution        =   12723.33799595 Ry

     convergence has been achieved in  17 iterations

     Forces acting on atoms (cartesian axes, Ry/au):

     atom    1 type  1   force =     0.00000000    0.00000000    0.00019993
     atom    2 type  1   force =     0.00000000    0.00000000    0.00021760
     atom    3 type  1   force =     0.00000000    0.00000000   -0.00005396
     atom    4 type  1   force =     0.00000000    0.00000000   -0.00019211
     atom    5 type  1   force =     0.00000000    0.00000000    0.00013428
     atom    6 type  1   force =     0.00000000    0.00000000   -0.00036350
     atom    7 type  1   force =     0.00000000    0.00000000   -0.00034129
     atom    8 type  1   force =     0.00000000    0.00000000   -0.00002038
     atom    9 type  1   force =     0.00000000    0.00000000   -0.00041380
     atom   10 type  1   force =     0.00000000    0.00000000    0.00031939
     atom   11 type  1   force =     0.00000000    0.00000000    0.00016779
     atom   12 type  1   force =     0.00000000    0.00000000    0.00011943
     atom   13 type  2   force =     0.00000000    0.00000000    0.00060173
     atom   14 type  2   force =     0.00000000    0.00000000   -0.00010728
     atom   15 type  2   force =     0.00000000    0.00000000   -0.00023283
     atom   16 type  2   force =     0.00057228    0.00000000   -0.00145192
     atom   17 type  2   force =    -0.00057228    0.00000000   -0.00145192
     atom   18 type  2   force =     0.00000000    0.00000000    0.00013996
     atom   19 type  2   force =     0.00000000    0.00000000    0.00005264
     atom   20 type  2   force =    -0.00016682    0.00000000    0.00040765
     atom   21 type  2   force =     0.00016682    0.00000000    0.00040765
     atom   22 type  2   force =     0.00000000    0.00000000    0.00004620
     atom   23 type  2   force =     0.00000000    0.00000000   -0.00070437
     atom   24 type  2   force =    -0.00025635    0.00000000   -0.00004901
     atom   25 type  2   force =     0.00025635    0.00000000   -0.00004901
     atom   26 type  2   force =     0.00000000    0.00000000   -0.00047108
     atom   27 type  2   force =     0.00000000    0.00000000    0.00019959
     atom   28 type  2   force =    -0.00034436    0.00000000    0.00039328
     atom   29 type  2   force =     0.00034436    0.00000000    0.00039328
     atom   30 type  2   force =     0.00000000    0.00000000   -0.00092755
     atom   31 type  2   force =     0.00000000    0.00000000    0.00002378
     atom   32 type  2   force =    -0.00033579    0.00000000    0.00098460
     atom   33 type  2   force =     0.00033579    0.00000000    0.00098460
     atom   34 type  2   force =     0.00000000    0.00000000    0.00025500
     atom   35 type  2   force =     0.00041100    0.00000000    0.00039081
     atom   36 type  2   force =    -0.00041100    0.00000000    0.00039081

     Total force =     0.003405     Total SCF correction =     0.005443
     SCF correction compared to forces is large: reduce conv_thr to get better values


     Computing stress (Cartesian axis) and pressure

          total   stress  (Ry/bohr**3)                   (kbar)     P=        0.03
   0.00000047   0.00000000   0.00000000            0.07        0.00        0.00
   0.00000000  -0.00000134   0.00000000            0.00       -0.20        0.00
   0.00000000   0.00000000   0.00000157            0.00        0.00        0.23


     BFGS Geometry Optimization
     Energy error            =      0.0E+00 Ry
     Gradient error          =      1.5E-03 Ry/Bohr
     Cell gradient error     =      2.0E-01 kbar

     number of scf cycles    =   1
     number of bfgs steps    =   0

     enthalpy           new  =   -2155.9021234977 Ry

     new trust radius        =       0.0015606360 bohr
     new conv_thr            =       0.0000010000 Ry

     new unit-cell volume =   4478.05822 a.u.^3 (   663.57977 Ang^3 )
     density =      2.39825 g/cm^3

CELL_PARAMETERS (angstrom)
   6.516965688   0.000000000   0.000000000
   0.000000000   2.965577634   0.000000000
   0.000000000   0.000000000  34.335106809

ATOMIC_POSITIONS (angstrom)
Ti            3.2584826497        0.0000000000        9.0702231683
Ti            0.0000000000        1.4827887293        8.5666864025
Ti            0.0000000000        0.0000000000       11.9055648706
Ti            3.2584826497        1.4827887293       12.3137400003
Ti            3.2584826497        0.0000000000       15.7031313739
Ti            0.0000000000        1.4827887293       15.3613251343
Ti            0.0000000000        0.0000000000       18.6349572862
Ti            3.2584826497        1.4827887293       18.9764030720
Ti            3.2584826497        0.0000000000       22.4301868456
Ti            0.0000000000        1.4827887293       22.0254097169
Ti            0.0000000000        0.0000000000       25.2712970175
Ti            3.2584826497        1.4827887293       25.7697983643
O             0.0000000000        0.0000000000        7.5003184214
O             3.2584826497        0.0000000000       10.8679255105
O             0.0000000000        0.0000000000       10.0849502005
O             2.0293247199        1.4827887293        8.7041682016
O             4.4876407742        1.4827887293        8.7041682016
O             0.0000000000        0.0000000000       14.2013714501
O             3.2584826497        0.0000000000       13.4571503288
O             5.2331829410        1.4827888175       12.1249154268
O             1.2837827465        1.4827888175       12.1249154268
O             3.2584826497        0.0000000000       17.5547869141
O             0.0000000000        0.0000000000       16.7834050606
O             1.9902242276        1.4827887293       15.5078853242
O             4.5267412663        1.4827887293       15.5078853242
O             0.0000000000        0.0000000000       20.8829590212
O             3.2584826497        0.0000000000       20.1357258022
O             5.2488477368        1.4827888175       18.8297277037
O             1.2681179507        1.4827888175       18.8297277037
O             3.2584826497        0.0000000000       24.2515207378
O             0.0000000000        0.0000000000       23.4729416194
O             1.9754027996        1.4827887293       22.2078717105
O             4.5415626944        1.4827887293       22.2078717105
O             3.2584826497        0.0000000000       26.8352417509
O             5.2883605709        1.4827888175       25.6385476746
O             1.2286051168        1.4827888175       25.6385476746



     Writing config-only to output data dir ./Out/pwscf.save/
     NEW-OLD atomic charge density approx. for the potential

     negative rho (up, down):  1.029E-06 0.000E+00
     extrapolated charge  287.99372, renormalised to  288.00000

     total cpu time spent up to now is      189.1 secs

     per-process dynamical memory:   244.9 Mb

     Self-consistent Calculation

     iteration #  1     ecut=   120.00 Ry     beta= 0.40
     Davidson diagonalization with overlap
     ethr =  1.00E-06,  avg # of iterations =  2.6

     Threshold (ethr) on eigenvalues was too large:
     Diagonalizing with lowered threshold

     Davidson diagonalization with overlap
     ethr =  1.26E-08,  avg # of iterations =  5.0

     negative rho (up, down):  5.693E-07 0.000E+00

     total cpu time spent up to now is      205.1 secs

     total energy              =   -2155.90208742 Ry
     estimated scf accuracy    <       0.00005326 Ry

     iteration #  2     ecut=   120.00 Ry     beta= 0.40
     Davidson diagonalization with overlap
     c_bands:  2 eigenvalues not converged
     c_bands:  1 eigenvalues not converged
     ethr =  1.85E-08,  avg # of iterations = 10.5

     negative rho (up, down):  5.039E-07 0.000E+00

     total cpu time spent up to now is      216.2 secs

     total energy              =   -2155.90211621 Ry
     estimated scf accuracy    <       0.00046636 Ry

     iteration #  3     ecut=   120.00 Ry     beta= 0.40
     Davidson diagonalization with overlap
     ethr =  1.85E-08,  avg # of iterations =  7.5

     negative rho (up, down):  3.775E-07 0.000E+00

     total cpu time spent up to now is      224.6 secs

     total energy              =   -2155.90213256 Ry
     estimated scf accuracy    <       0.00005810 Ry

     iteration #  4     ecut=   120.00 Ry     beta= 0.40
     Davidson diagonalization with overlap
     ethr =  1.85E-08,  avg # of iterations =  2.5

     negative rho (up, down):  2.111E-07 0.000E+00

     total cpu time spent up to now is      231.1 secs

     total energy              =   -2155.90213094 Ry
     estimated scf accuracy    <       0.00001746 Ry

     iteration #  5     ecut=   120.00 Ry     beta= 0.40
     Davidson diagonalization with overlap
     ethr =  6.06E-09,  avg # of iterations =  5.2

     total cpu time spent up to now is      238.7 secs

     End of self-consistent calculation

          k = 0.0000 0.0000 0.0000 ( 99471 PWs)   bands (ev):

   -54.9035 -54.9015 -54.7597 -54.7578 -54.6930 -54.6891 -54.6844 -54.6807
   -54.6008 -54.5997 -54.3023 -54.2984 -31.2213 -31.2191 -31.1088 -31.1073
   -31.0982 -31.0959 -31.0211 -31.0191 -31.0133 -31.0118 -31.0045 -30.9981
   -30.9960 -30.9880 -30.9056 -30.9003 -30.8466 -30.8431 -30.8410 -30.8408
   -30.8405 -30.8402 -30.8319 -30.8297 -30.7921 -30.7840 -30.7762 -30.7682
   -30.7094 -30.7086 -30.5847 -30.5816 -30.5560 -30.5521 -30.3644 -30.3608
   -15.8986 -15.8256 -15.6208 -15.4688 -15.3902 -15.3326 -15.2293 -15.1652
   -14.9273 -14.7895 -14.6349 -14.6341 -14.5734 -14.5707 -14.2466 -14.2083
   -14.1989 -14.1951 -14.1763 -14.1591 -14.1459 -14.1186 -13.8503 -13.8490
    -3.4563  -3.3699  -3.2825  -3.2706  -3.2467  -3.2443  -3.1692  -3.1053
    -2.8045  -2.7812  -2.5040  -2.3219  -2.0722  -2.0200  -2.0169  -1.8910
    -1.8873  -1.5690  -1.5579  -1.5343  -1.5339  -1.5139  -1.4903  -1.4884
    -1.4365  -1.4361  -1.2371  -1.2360  -1.1348  -1.0652  -0.9867  -0.6938
    -0.6137  -0.5224  -0.4819  -0.3710  -0.3519  -0.3509  -0.2870  -0.2790
    -0.1408  -0.0813   0.0020   0.0250   0.1156   0.1170   0.2562   0.3807
     0.4052   0.4144   0.4504   0.4839   0.5140   0.5264   0.7769   0.7975
     0.8048   0.8161   1.0569   1.0626   1.0837   1.0855   1.1086   1.1160
     1.1402   1.1447   1.5463   1.5862   1.6183   1.7703   1.9202   2.0529
     4.1189   4.1284   4.1665   4.2104   4.2368   4.2401   4.5299   4.5671
     4.5716   4.5734   4.7441   4.7584   4.7601   4.8144   4.8319   4.8868
     5.0567   5.0602   5.0679   5.0781   5.1939   5.3229   5.3771   5.4829
     5.5295   5.6728   5.7500   5.7570   5.8135

          k = 0.0000 0.3663 0.0000 ( 99433 PWs)   bands (ev):

   -54.8935 -54.8915 -54.7499 -54.7481 -54.6825 -54.6791 -54.6748 -54.6717
   -54.5912 -54.5902 -54.2919 -54.2880 -31.1974 -31.1953 -31.1482 -31.1460
   -31.0941 -31.0925 -31.0782 -31.0760 -30.9871 -30.9856 -30.9761 -30.9720
   -30.9703 -30.9644 -30.9427 -30.9406 -30.9246 -30.9227 -30.8945 -30.8870
   -30.8664 -30.8649 -30.8411 -30.8378 -30.8343 -30.8339 -30.8237 -30.8226
   -30.8146 -30.8139 -30.5765 -30.5734 -30.5497 -30.5458 -30.4752 -30.4718
   -15.6372 -15.5750 -15.3910 -15.2526 -15.1755 -15.1224 -15.0295 -14.9794
   -14.7818 -14.6779 -14.6298 -14.6214 -14.4506 -14.4493 -14.3359 -14.3104
   -14.2984 -14.2908 -14.2815 -14.2616 -14.2493 -14.2303 -13.9117 -13.9104
    -3.0956  -3.0397  -2.9840  -2.9685  -2.9274  -2.9256  -2.8898  -2.8231
    -2.5303  -2.5089  -2.2763  -2.2437  -2.2061  -2.1885  -2.0913  -2.0747
    -2.0678  -2.0272  -1.9915  -1.8851  -1.8841  -1.8053  -1.7722  -1.7112
    -1.4934  -1.3459  -1.2703  -0.9148  -0.9085  -0.8282  -0.7111  -0.5839
    -0.4479  -0.4035  -0.4008  -0.3007  -0.2939  -0.2284  -0.1467  -0.1297
    -0.1024  -0.0540   0.0459   0.0648   0.0860   0.1168   0.1376   0.1628
     0.1904   0.2012   0.2167   0.2272   0.3059   0.3197   0.4353   0.5250
     0.5488   0.6592   0.7221   0.7482   0.7784   0.8335   0.8667   0.9084
     1.0979   1.1165   1.1406   1.1578   1.1615   1.6933   1.7750   1.8863
     4.2315   4.2336   4.3667   4.4561   4.4675   4.4707   4.4932   4.4941
     4.5430   4.6109   4.6523   4.8715   4.8887   4.9234   4.9487   5.0100
     5.2251   5.2728   5.3050   5.3390   5.4471   5.4737   5.5018   5.5353
     5.6245   5.6519   5.6581   5.6966   5.9336

          k = 0.0000 0.7325 0.0000 ( 99452 PWs)   bands (ev):

   -54.8734 -54.8714 -54.7304 -54.7285 -54.6608 -54.6587 -54.6557 -54.6540
   -54.5720 -54.5710 -54.2710 -54.2671 -31.3710 -31.3691 -31.1659 -31.1638
   -31.1359 -31.1338 -31.1255 -31.1238 -31.1092 -31.1074 -31.0690 -31.0668
   -31.0658 -31.0640 -31.0295 -31.0286 -30.9334 -30.9319 -30.9216 -30.9163
   -30.9135 -30.9098 -30.8677 -30.8651 -30.8350 -30.8334 -30.8172 -30.8171
   -30.7865 -30.7852 -30.7373 -30.7345 -30.5377 -30.5338 -30.5065 -30.5032
   -15.0518 -15.0398 -15.0149 -14.9569 -14.7523 -14.7356 -14.7336 -14.6555
   -14.6392 -14.6380 -14.5213 -14.5070 -14.5023 -14.4998 -14.4901 -14.4721
   -14.4555 -14.4493 -14.3875 -14.3652 -14.2220 -14.2197 -13.8939 -13.8923
    -2.5508  -2.4953  -2.4853  -2.4674  -2.4578  -2.4484  -2.4040  -2.3676
    -2.3120  -2.3083  -2.2363  -2.2200  -2.2008  -2.1867  -2.1441  -2.1366
    -2.0651  -2.0546  -2.0450  -1.9722  -1.9342  -1.8950  -1.8665  -1.6855
    -1.5311  -1.3455  -1.3316  -1.2710  -1.2202  -1.1698  -1.1322  -1.0858
    -1.0802  -1.0567  -0.8803  -0.8364  -0.8208  -0.5050  -0.4532  -0.3235
    -0.2629  -0.2235  -0.1828  -0.0076   0.0242   0.0286   0.0865   0.1102
     0.1334   0.1838   0.2089   0.2548   0.3223   0.4452   0.4633   0.4682
     0.4696   0.6670   0.7224   0.7267   0.7268   0.7916   0.8055   0.8096
     1.0152   1.0269   1.0371   1.0606   1.1457   1.2016   1.2525   1.3255
     4.5399   4.5774   4.5905   4.5948   4.6674   4.7180   4.8328   4.8574
     4.8977   4.9256   5.0358   5.0444   5.0513   5.0741   5.1614   5.1748
     5.2152   5.2425   5.2473   5.3699   5.4313   5.5239   5.6578   5.6964
     5.7189   5.7511   5.7695   5.7732   5.7957

          k = 0.0000-1.0988 0.0000 ( 99368 PWs)   bands (ev):

   -54.8633 -54.8613 -54.7206 -54.7187 -54.6495 -54.6479 -54.6465 -54.6459
   -54.5624 -54.5614 -54.2606 -54.2566 -31.4792 -31.4773 -31.2698 -31.2678
   -31.2313 -31.2301 -31.2172 -31.2158 -31.1332 -31.1324 -31.0911 -31.0894
   -31.0790 -31.0764 -31.0522 -31.0503 -30.9058 -30.9044 -30.8967 -30.8940
   -30.8712 -30.8696 -30.8668 -30.8643 -30.8578 -30.8565 -30.8426 -30.8409
   -30.7926 -30.7925 -30.7671 -30.7657 -30.5322 -30.5282 -30.4877 -30.4844
   -15.0340 -15.0293 -14.7164 -14.7112 -14.6294 -14.6212 -14.6019 -14.5933
   -14.5805 -14.5586 -14.5554 -14.5431 -14.5339 -14.5322 -14.5059 -14.4881
   -14.4630 -14.4360 -14.3265 -14.3190 -14.2074 -14.1912 -13.7485 -13.7469
    -2.8985  -2.7971  -2.5521  -2.4922  -2.4750  -2.4298  -2.3796  -2.3526
    -2.2979  -2.2223  -2.2033  -2.1652  -2.0597  -2.0482  -2.0376  -2.0322
    -2.0266  -1.9369  -1.8893  -1.8711  -1.8684  -1.8370  -1.7498  -1.6706
    -1.6472  -1.5081  -1.4244  -1.3978  -1.2494  -1.2395  -1.2265  -1.2223
    -0.8695  -0.7811  -0.6387  -0.6345  -0.5916  -0.5908  -0.5570  -0.5397
    -0.5339  -0.4493  -0.3908  -0.2733  -0.2652  -0.1949  -0.1749  -0.1344
     0.0297   0.1248   0.1825   0.2156   0.2753   0.4016   0.4832   0.5463
     0.5700   0.6171   0.7386   0.8241   0.9139   0.9179   0.9257   0.9438
     0.9470   0.9470   0.9663   0.9834   1.0782   1.1153   1.1351   1.2779
     4.2937   4.5788   4.8123   4.8219   4.8431   5.0154   5.0805   5.0818
     5.0946   5.1384   5.1799   5.1814   5.2772   5.2834   5.2840   5.3801
     5.3982   5.4360   5.4396   5.4409   5.4660   5.5065   5.5086   5.5636
     5.5736   5.6315   5.6330   5.6567   5.7605

          k = 0.3333 0.0000 0.0000 ( 99387 PWs)   bands (ev):

   -54.9035 -54.9015 -54.7597 -54.7578 -54.6912 -54.6883 -54.6852 -54.6825
   -54.6008 -54.5998 -54.3023 -54.2984 -31.2215 -31.2192 -31.0985 -31.0962
   -31.0930 -31.0912 -31.0210 -31.0190 -31.0058 -31.0044 -30.9957 -30.9907
   -30.9690 -30.9616 -30.9047 -30.9042 -30.8804 -30.8774 -30.8589 -30.8576
   -30.8402 -30.8400 -30.8318 -30.8297 -30.7883 -30.7817 -30.7785 -30.7720
   -30.7096 -30.7087 -30.5846 -30.5815 -30.5642 -30.5602 -30.3645 -30.3609
   -15.7503 -15.6966 -15.4638 -15.3326 -15.2946 -15.2542 -15.1907 -15.1462
   -15.0289 -14.8731 -14.7650 -14.7625 -14.5666 -14.5623 -14.3223 -14.3182
   -14.2884 -14.2617 -14.2400 -14.2266 -14.2086 -14.1852 -13.8466 -13.8453
    -3.2876  -3.2432  -2.9692  -2.8926  -2.8489  -2.8436  -2.8360  -2.8241
    -2.7499  -2.7328  -2.1596  -2.0556  -2.0240  -1.9322  -1.8929  -1.8894
    -1.7393  -1.5598  -1.5509  -1.4835  -1.4675  -1.4318  -1.4296  -1.3696
    -1.3672  -1.3667  -1.3581  -1.2626  -1.2368  -1.2355  -1.1450  -0.9879
    -0.8918  -0.8130  -0.7058  -0.6782  -0.5700  -0.5584  -0.4818  -0.3458
    -0.3013  -0.2387  -0.1853  -0.0050   0.0539   0.0609   0.0699   0.2313
     0.3467   0.3488   0.4176   0.4673   0.4888   0.5310   0.5373   0.5665
     0.6348   0.6954   0.8429   0.8608   0.9304   0.9994   1.0032   1.0080
     1.0548   1.0809   1.1846   1.1906   1.2402   1.5832   1.6759   1.7960
     4.4745   4.4858   4.5516   4.5764   4.6083   4.6255   4.6535   4.6579
     4.8025   4.8241   4.8325   4.8343   4.9074   4.9137   5.0277   5.0356
     5.1062   5.1586   5.2968   5.3064   5.3652   5.5155   5.5223   5.6991
     5.7105   5.7207   5.7479   5.7836   5.8072

          k = 0.3333 0.3663 0.0000 ( 99355 PWs)   bands (ev):

   -54.8935 -54.8915 -54.7499 -54.7481 -54.6810 -54.6784 -54.6755 -54.6732
   -54.5913 -54.5902 -54.2919 -54.2880 -31.1974 -31.1953 -31.1485 -31.1463
   -31.0850 -31.0833 -31.0784 -31.0763 -30.9814 -30.9800 -30.9712 -30.9666
   -30.9502 -30.9471 -30.9439 -30.9417 -30.9248 -30.9185 -30.9019 -30.8978
   -30.8673 -30.8665 -30.8562 -30.8548 -30.8375 -30.8364 -30.8319 -30.8314
   -30.8127 -30.8120 -30.5766 -30.5735 -30.5545 -30.5506 -30.4750 -30.4716
   -15.5095 -15.4657 -15.2553 -15.1194 -15.1005 -15.0547 -14.9912 -14.9584
   -14.8596 -14.7353 -14.6331 -14.6234 -14.6012 -14.5997 -14.4154 -14.4081
   -14.3724 -14.3565 -14.3254 -14.2987 -14.2628 -14.2582 -13.9073 -13.9059
    -2.9679  -2.9427  -2.6590  -2.6083  -2.5585  -2.5461  -2.5227  -2.5144
    -2.4498  -2.4421  -2.2498  -2.2446  -2.1101  -2.0954  -2.0520  -2.0482
    -1.9661  -1.9634  -1.8771  -1.7834  -1.7427  -1.7332  -1.6008  -1.5696
    -1.4678  -1.3542  -1.1851  -0.9832  -0.9117  -0.8686  -0.7913  -0.7526
    -0.7220  -0.6815  -0.6405  -0.5552  -0.5453  -0.5303  -0.4859  -0.4312
    -0.3273  -0.2460  -0.2373  -0.1608  -0.1036  -0.1032  -0.0864  -0.0648
    -0.0357   0.0434   0.0743   0.0962   0.1330   0.1881   0.2424   0.2657
     0.3617   0.4891   0.5729   0.6811   0.9119   0.9150   1.0830   1.0836
     1.1795   1.1978   1.2197   1.2472   1.3077   1.5573   1.6202   1.7065
     4.3404   4.3422   4.5212   4.5263   4.5819   4.6236   4.6646   4.7679
     4.7975   4.8145   4.8716   4.8746   4.9391   4.9447   5.0352   5.0978
     5.2760   5.3015   5.4217   5.4650   5.5028   5.5035   5.6164   5.6873
     5.7679   5.7915   5.8436   5.8946   5.9253

          k = 0.3333 0.7325 0.0000 ( 99394 PWs)   bands (ev):

   -54.8734 -54.8714 -54.7304 -54.7285 -54.6601 -54.6583 -54.6560 -54.6549
   -54.5721 -54.5710 -54.2710 -54.2671 -31.3714 -31.3695 -31.1684 -31.1663
   -31.1365 -31.1346 -31.1261 -31.1246 -31.1166 -31.1148 -31.0918 -31.0909
   -31.0690 -31.0667 -30.9987 -30.9987 -30.9323 -30.9308 -30.9207 -30.9178
   -30.8892 -30.8856 -30.8670 -30.8659 -30.8497 -30.8478 -30.8169 -30.8169
   -30.7900 -30.7887 -30.7365 -30.7337 -30.5371 -30.5332 -30.5064 -30.5032
   -15.0200 -15.0148 -14.9797 -14.9333 -14.7857 -14.7823 -14.7318 -14.7289
   -14.6736 -14.6421 -14.5928 -14.5795 -14.5109 -14.5070 -14.4795 -14.4718
   -14.4101 -14.3965 -14.3436 -14.3286 -14.2170 -14.2162 -13.8940 -13.8923
    -2.5104  -2.4947  -2.4641  -2.4553  -2.3610  -2.3556  -2.3454  -2.3223
    -2.2722  -2.2166  -2.1564  -2.1526  -2.1109  -2.1094  -2.0646  -2.0366
    -2.0140  -1.9667  -1.9380  -1.9123  -1.9082  -1.8465  -1.7848  -1.7787
    -1.5656  -1.4874  -1.3446  -1.3069  -1.2657  -1.2605  -1.1542  -1.1314
    -0.9317  -0.9123  -0.8055  -0.7752  -0.7038  -0.5789  -0.4990  -0.4120
    -0.3426  -0.3250  -0.2298  -0.2211  -0.1312  -0.1034  -0.0723  -0.0558
    -0.0218   0.0089   0.1159   0.1638   0.1917   0.3120   0.4272   0.4333
     0.4770   0.5262   0.6894   0.7074   0.7465   0.7923   0.8623   0.8877
     0.9476   1.0163   1.1482   1.2125   1.2838   1.3304   1.3467   1.3645
     4.3080   4.3321   4.3689   4.4390   4.4561   4.5044   4.7551   4.8645
     4.8739   4.9367   5.0361   5.0759   5.1102   5.1507   5.2304   5.2579
     5.2823   5.3210   5.3340   5.3586   5.4836   5.5526   5.6311   5.6554
     5.7282   5.7303   5.8601   5.8998   5.9926

          k = 0.3333-1.0988 0.0000 ( 99524 PWs)   bands (ev):

   -54.8633 -54.8613 -54.7206 -54.7187 -54.6495 -54.6479 -54.6465 -54.6459
   -54.5624 -54.5614 -54.2606 -54.2566 -31.4796 -31.4777 -31.2725 -31.2704
   -31.2320 -31.2310 -31.2237 -31.2229 -31.1555 -31.1550 -31.0921 -31.0902
   -31.0789 -31.0763 -31.0280 -31.0266 -30.9116 -30.9100 -30.8961 -30.8947
   -30.8638 -30.8624 -30.8612 -30.8589 -30.8575 -30.8563 -30.8413 -30.8403
   -30.7924 -30.7923 -30.7666 -30.7652 -30.5288 -30.5249 -30.4877 -30.4844
   -15.0322 -15.0278 -14.8129 -14.8080 -14.7993 -14.7991 -14.7552 -14.7526
   -14.7103 -14.7072 -14.6022 -14.5631 -14.3507 -14.3490 -14.3289 -14.3250
   -14.2587 -14.2567 -14.2514 -14.2474 -14.2055 -14.1974 -13.7484 -13.7468
    -2.8321  -2.8210  -2.8148  -2.7510  -2.6837  -2.6375  -2.5160  -2.5148
    -2.5131  -2.4557  -2.2898  -2.0857  -2.0698  -2.0392  -1.9160  -1.9047
    -1.8698  -1.8680  -1.8636  -1.7894  -1.6621  -1.6620  -1.6588  -1.6548
    -1.5001  -1.4700  -1.2151  -1.1605  -1.1521  -1.0244  -0.9395  -0.8643
    -0.8541  -0.8493  -0.7868  -0.5986  -0.5811  -0.5721  -0.5703  -0.5386
    -0.4726  -0.4535  -0.4459  -0.3885  -0.2283  -0.2093   0.0067   0.1083
     0.1181   0.1653   0.2041   0.2902   0.3911   0.4415   0.5345   0.5644
     0.5862   0.6056   0.6302   0.6915   0.7154   0.7211   0.7289   0.8086
     0.8541   0.9081   0.9167   0.9616   0.9647   1.2036   1.2590   1.2949
     4.2835   4.2942   4.3557   4.4163   4.4954   4.6287   4.6352   4.7082
     4.8736   4.9518   5.1503   5.1516   5.1863   5.2837   5.3067   5.3621
     5.4021   5.4040   5.4140   5.4310   5.5008   5.5041   5.6518   5.6529
     5.6678   5.8247   5.9659   5.9744   6.0047

     the Fermi energy is     3.0720 ev

!    total energy              =   -2155.90213376 Ry
     estimated scf accuracy    <       0.00000062 Ry
     smearing contrib. (-TS)   =      -0.00000000 Ry
     internal energy E=F+TS    =   -2155.90213376 Ry

     The total energy is F=E-TS. E is the sum of the following terms:
     one-electron contribution =  -29201.50795834 Ry
     hartree contribution      =   14662.47145808 Ry
     xc contribution           =    -340.13251543 Ry
     ewald contribution        =   12723.26688193 Ry

     convergence has been achieved in   5 iterations

     Forces acting on atoms (cartesian axes, Ry/au):

     atom    1 type  1   force =     0.00000000    0.00000000   -0.00034939
     atom    2 type  1   force =     0.00000000    0.00000000    0.00008342
     atom    3 type  1   force =     0.00000000    0.00000000    0.00014683
     atom    4 type  1   force =     0.00000000    0.00000000    0.00001020
     atom    5 type  1   force =     0.00000000    0.00000000    0.00013774
     atom    6 type  1   force =     0.00000000    0.00000000   -0.00021737
     atom    7 type  1   force =     0.00000000    0.00000000   -0.00020781
     atom    8 type  1   force =     0.00000000    0.00000000    0.00013031
     atom    9 type  1   force =     0.00000000    0.00000000   -0.00039532
     atom   10 type  1   force =     0.00000000    0.00000000    0.00022711
     atom   11 type  1   force =     0.00000000    0.00000000    0.00015837
     atom   12 type  1   force =     0.00000000    0.00000000    0.00001982
     atom   13 type  2   force =     0.00000000    0.00000000    0.00047016
     atom   14 type  2   force =     0.00000000    0.00000000   -0.00015926
     atom   15 type  2   force =     0.00000000    0.00000000   -0.00020143
     atom   16 type  2   force =     0.00034073    0.00000000   -0.00128004
     atom   17 type  2   force =    -0.00034073    0.00000000   -0.00128004
     atom   18 type  2   force =     0.00000000    0.00000000   -0.00026955
     atom   19 type  2   force =     0.00000000    0.00000000   -0.00013783
     atom   20 type  2   force =    -0.00000746    0.00000000    0.00022409
     atom   21 type  2   force =     0.00000746    0.00000000    0.00022409
     atom   22 type  2   force =     0.00000000    0.00000000   -0.00000300
     atom   23 type  2   force =     0.00000000    0.00000000   -0.00044927
     atom   24 type  2   force =    -0.00008553    0.00000000   -0.00008528
     atom   25 type  2   force =     0.00008553    0.00000000   -0.00008528
     atom   26 type  2   force =     0.00000000    0.00000000   -0.00026032
     atom   27 type  2   force =     0.00000000    0.00000000    0.00023592
     atom   28 type  2   force =    -0.00013755    0.00000000    0.00027859
     atom   29 type  2   force =     0.00013755    0.00000000    0.00027859
     atom   30 type  2   force =     0.00000000    0.00000000   -0.00028940
     atom   31 type  2   force =     0.00000000    0.00000000    0.00027185
     atom   32 type  2   force =    -0.00024649    0.00000000    0.00086599
     atom   33 type  2   force =     0.00024649    0.00000000    0.00086599
     atom   34 type  2   force =     0.00000000    0.00000000    0.00019053
     atom   35 type  2   force =     0.00011935    0.00000000    0.00042550
     atom   36 type  2   force =    -0.00011935    0.00000000    0.00042550

     Total force =     0.002693     Total SCF correction =     0.002455
     SCF correction compared to forces is large: reduce conv_thr to get better values


     Computing stress (Cartesian axis) and pressure

          total   stress  (Ry/bohr**3)                   (kbar)     P=        0.04
   0.00000027   0.00000000   0.00000000            0.04        0.00        0.00
   0.00000000  -0.00000096   0.00000000            0.00       -0.14        0.00
   0.00000000   0.00000000   0.00000153            0.00        0.00        0.22

     Energy error            =      1.0E-05 Ry
     Gradient error          =      1.3E-03 Ry/Bohr
     Cell gradient error     =      1.4E-01 kbar

     number of scf cycles    =   2
     number of bfgs steps    =   1

     enthalpy           old  =   -2155.9021234977 Ry
     enthalpy           new  =   -2155.9021337580 Ry

     CASE: enthalpy          _new < enthalpy          _old

     new trust radius        =       0.0017167023 bohr
     new conv_thr            =       0.0000000100 Ry

     new unit-cell volume =   4477.95571 a.u.^3 (   663.56457 Ang^3 )
     density =      2.39830 g/cm^3

CELL_PARAMETERS (angstrom)
   6.517030821   0.000000000   0.000000000
   0.000000000   2.965480107   0.000000000
   0.000000000   0.000000000  34.335106809

ATOMIC_POSITIONS (angstrom)
Ti            3.2585152161        0.0000000000        9.0700860503
Ti            0.0000000000        1.4827399656        8.5667637529
Ti            0.0000000000        0.0000000000       11.9056275484
Ti            3.2585152161        1.4827399656       12.3137126828
Ti            3.2585152161        0.0000000000       15.7032212586
Ti            0.0000000000        1.4827399656       15.3611577995
Ti            0.0000000000        0.0000000000       18.6347983532
Ti            3.2585152161        1.4827399656       18.9764633198
Ti            3.2585152161        0.0000000000       22.4299240947
Ti            0.0000000000        1.4827399656       22.0255743943
Ti            0.0000000000        0.0000000000       25.2714026148
Ti            3.2585152161        1.4827399656       25.7698281284
O             0.0000000000        0.0000000000        7.5006493403
O             3.2585152161        0.0000000000       10.8678296525
O             0.0000000000        0.0000000000       10.0848126255
O             2.0296077307        1.4827399656        8.7032985824
O             4.4874228962        1.4827399656        8.7032985824
O             0.0000000000        0.0000000000       14.2012632676
O             3.2585152161        0.0000000000       13.4570918256
O             5.2332035492        1.4827400538       12.1250934713
O             1.2838272712        1.4827400538       12.1250934713
O             3.2585152161        0.0000000000       17.5547932150
O             0.0000000000        0.0000000000       16.7830670941
O             1.9901592199        1.4827399656       15.5078354131
O             4.5268714069        1.4827399656       15.5078354131
O             0.0000000000        0.0000000000       20.8827526100
O             3.2585152161        0.0000000000       20.1358746464
O             5.2487750789        1.4827400538       18.8299299624
O             1.2682557415        1.4827400538       18.8299299624
O             3.2585152161        0.0000000000       24.2512233679
O             0.0000000000        0.0000000000       23.4730784601
O             1.9752456299        1.4827399656       22.2084604275
O             4.5417849970        1.4827399656       22.2084604275
O             3.2585152161        0.0000000000       26.8353777289
O             5.2885408534        1.4827400538       25.6388213039
O             1.2284899671        1.4827400538       25.6388213039



     Writing config-only to output data dir ./Out/pwscf.save/
     NEW-OLD atomic charge density approx. for the potential

     negative rho (up, down):  1.085E-06 0.000E+00
     extrapolated charge  287.99344, renormalised to  288.00000

     total cpu time spent up to now is      258.6 secs

     per-process dynamical memory:   244.9 Mb

     Self-consistent Calculation

     iteration #  1     ecut=   120.00 Ry     beta= 0.40
     Davidson diagonalization with overlap
     ethr =  1.00E-06,  avg # of iterations =  2.9

     Threshold (ethr) on eigenvalues was too large:
     Diagonalizing with lowered threshold

     Davidson diagonalization with overlap
     ethr =  2.69E-08,  avg # of iterations =  3.6

     negative rho (up, down):  6.006E-07 0.000E+00

     total cpu time spent up to now is      273.7 secs

     total energy              =   -2155.90207142 Ry
     estimated scf accuracy    <       0.00008873 Ry

     iteration #  2     ecut=   120.00 Ry     beta= 0.40
     Davidson diagonalization with overlap
     ethr =  3.08E-08,  avg # of iterations =  8.6

     negative rho (up, down):  5.278E-07 0.000E+00

     total cpu time spent up to now is      284.0 secs

     total energy              =   -2155.90210437 Ry
     estimated scf accuracy    <       0.00069004 Ry

     iteration #  3     ecut=   120.00 Ry     beta= 0.40
     Davidson diagonalization with overlap
     ethr =  3.08E-08,  avg # of iterations =  5.1

     negative rho (up, down):  3.941E-07 0.000E+00

     total cpu time spent up to now is      291.9 secs

     total energy              =   -2155.90213951 Ry
     estimated scf accuracy    <       0.00005763 Ry

     iteration #  4     ecut=   120.00 Ry     beta= 0.40
     Davidson diagonalization with overlap
     ethr =  2.00E-08,  avg # of iterations =  3.1

     negative rho (up, down):  2.620E-07 0.000E+00

     total cpu time spent up to now is      298.4 secs

     total energy              =   -2155.90214030 Ry
     estimated scf accuracy    <       0.00001441 Ry

     iteration #  5     ecut=   120.00 Ry     beta= 0.40
     Davidson diagonalization with overlap
     ethr =  5.00E-09,  avg # of iterations =  5.8

     negative rho (up, down):  1.964E-07 0.000E+00

     total cpu time spent up to now is      306.0 secs

     total energy              =   -2155.90214246 Ry
     estimated scf accuracy    <       0.00000090 Ry

     iteration #  6     ecut=   120.00 Ry     beta= 0.40
     Davidson diagonalization with overlap
     ethr =  3.14E-10,  avg # of iterations =  8.0

     negative rho (up, down):  1.046E-07 0.000E+00

     total cpu time spent up to now is      315.3 secs

     total energy              =   -2155.90214266 Ry
     estimated scf accuracy    <       0.00000069 Ry

     iteration #  7     ecut=   120.00 Ry     beta= 0.40
     Davidson diagonalization with overlap
     ethr =  2.41E-10,  avg # of iterations =  1.8

     negative rho (up, down):  5.253E-08 0.000E+00

     total cpu time spent up to now is      321.4 secs

     total energy              =   -2155.90214255 Ry
     estimated scf accuracy    <       0.00000037 Ry

     iteration #  8     ecut=   120.00 Ry     beta= 0.40
     Davidson diagonalization with overlap
     ethr =  1.29E-10,  avg # of iterations =  5.0

     negative rho (up, down):  2.301E-08 0.000E+00

     total cpu time spent up to now is      328.9 secs

     total energy              =   -2155.90214264 Ry
     estimated scf accuracy    <       0.00000004 Ry

     iteration #  9     ecut=   120.00 Ry     beta= 0.40
     Davidson diagonalization with overlap
     ethr =  1.31E-11,  avg # of iterations =  6.4

     total cpu time spent up to now is      337.5 secs

     total energy              =   -2155.90214264 Ry
     estimated scf accuracy    <       0.00000008 Ry

     iteration # 10     ecut=   120.00 Ry     beta= 0.40
     Davidson diagonalization with overlap
     ethr =  1.31E-11,  avg # of iterations =  2.0

     total cpu time spent up to now is      343.9 secs

     total energy              =   -2155.90214264 Ry
     estimated scf accuracy    <       0.00000002 Ry

     iteration # 11     ecut=   120.00 Ry     beta= 0.40
     Davidson diagonalization with overlap
     ethr =  5.64E-12,  avg # of iterations =  5.1

     total cpu time spent up to now is      351.6 secs

     End of self-consistent calculation

          k = 0.0000 0.0000 0.0000 ( 99471 PWs)   bands (ev):

   -54.9040 -54.9017 -54.7584 -54.7566 -54.6946 -54.6908 -54.6864 -54.6826
   -54.6010 -54.6002 -54.3004 -54.2978 -31.2215 -31.2189 -31.1094 -31.1074
   -31.0973 -31.0951 -31.0216 -31.0192 -31.0121 -31.0107 -31.0064 -30.9999
   -30.9977 -30.9896 -30.9074 -30.9021 -30.8482 -30.8446 -30.8415 -30.8414
   -30.8407 -30.8403 -30.8305 -30.8285 -30.7939 -30.7860 -30.7778 -30.7700
   -30.7098 -30.7089 -30.5833 -30.5812 -30.5540 -30.5514 -30.3628 -30.3604
   -15.8993 -15.8257 -15.6216 -15.4692 -15.3901 -15.3336 -15.2301 -15.1656
   -14.9285 -14.7912 -14.6357 -14.6341 -14.5735 -14.5704 -14.2487 -14.2093
   -14.1992 -14.1971 -14.1768 -14.1591 -14.1463 -14.1203 -13.8513 -13.8499
    -3.4572  -3.3708  -3.2837  -3.2716  -3.2458  -3.2441  -3.1696  -3.1056
    -2.8061  -2.7829  -2.5051  -2.3222  -2.0727  -2.0206  -2.0173  -1.8911
    -1.8857  -1.5701  -1.5599  -1.5360  -1.5354  -1.5143  -1.4892  -1.4882
    -1.4369  -1.4364  -1.2379  -1.2369  -1.1353  -1.0659  -0.9870  -0.6949
    -0.6147  -0.5232  -0.4827  -0.3714  -0.3523  -0.3523  -0.2873  -0.2797
    -0.1414  -0.0821   0.0019   0.0251   0.1148   0.1156   0.2552   0.3797
     0.4049   0.4134   0.4502   0.4834   0.5131   0.5253   0.7759   0.7970
     0.8040   0.8159   1.0565   1.0618   1.0825   1.0849   1.1080   1.1154
     1.1395   1.1437   1.5445   1.5865   1.6183   1.7695   1.9197   2.0517
     4.1182   4.1278   4.1642   4.2080   4.2382   4.2412   4.5289   4.5661
     4.5711   4.5735   4.7426   4.7575   4.7586   4.8129   4.8301   4.8870
     5.0583   5.0608   5.0672   5.0768   5.1927   5.3236   5.3777   5.4830
     5.5295   5.6722   5.7519   5.7570   5.8114

          k = 0.0000 0.3663 0.0000 ( 99433 PWs)   bands (ev):

   -54.8940 -54.8917 -54.7487 -54.7469 -54.6841 -54.6807 -54.6768 -54.6736
   -54.5914 -54.5906 -54.2900 -54.2874 -31.1976 -31.1952 -31.1483 -31.1458
   -31.0947 -31.0927 -31.0776 -31.0754 -30.9859 -30.9845 -30.9779 -30.9737
   -30.9722 -30.9661 -30.9414 -30.9394 -30.9263 -30.9244 -30.8966 -30.8890
   -30.8679 -30.8667 -30.8428 -30.8396 -30.8349 -30.8338 -30.8237 -30.8231
   -30.8151 -30.8141 -30.5751 -30.5730 -30.5477 -30.5451 -30.4737 -30.4713
   -15.6379 -15.5751 -15.3919 -15.2530 -15.1754 -15.1233 -15.0303 -14.9797
   -14.7827 -14.6779 -14.6302 -14.6229 -14.4509 -14.4496 -14.3379 -14.3117
   -14.2987 -14.2928 -14.2819 -14.2618 -14.2496 -14.2318 -13.9130 -13.9115
    -3.0964  -3.0406  -2.9851  -2.9694  -2.9266  -2.9254  -2.8900  -2.8233
    -2.5318  -2.5103  -2.2773  -2.2448  -2.2065  -2.1884  -2.0929  -2.0748
    -2.0682  -2.0280  -1.9921  -1.8845  -1.8839  -1.8064  -1.7738  -1.7121
    -1.4942  -1.3462  -1.2706  -0.9158  -0.9091  -0.8288  -0.7117  -0.5846
    -0.4480  -0.4040  -0.4013  -0.3013  -0.2942  -0.2284  -0.1473  -0.1307
    -0.1028  -0.0551   0.0457   0.0640   0.0856   0.1161   0.1363   0.1612
     0.1901   0.2005   0.2165   0.2269   0.3050   0.3188   0.4343   0.5243
     0.5480   0.6587   0.7209   0.7475   0.7781   0.8321   0.8653   0.9077
     1.0965   1.1167   1.1398   1.1571   1.1609   1.6926   1.7748   1.8851
     4.2319   4.2343   4.3645   4.4552   4.4673   4.4706   4.4921   4.4940
     4.5417   4.6101   4.6521   4.8706   4.8875   4.9231   4.9473   5.0095
     5.2247   5.2723   5.3044   5.3390   5.4455   5.4738   5.5001   5.5356
     5.6248   5.6531   5.6588   5.6959   5.9322

          k = 0.0000 0.7325 0.0000 ( 99452 PWs)   bands (ev):

   -54.8739 -54.8716 -54.7291 -54.7273 -54.6622 -54.6604 -54.6577 -54.6560
   -54.5722 -54.5714 -54.2691 -54.2665 -31.3715 -31.3691 -31.1647 -31.1628
   -31.1361 -31.1339 -31.1268 -31.1255 -31.1111 -31.1094 -31.0683 -31.0664
   -31.0660 -31.0642 -31.0299 -31.0291 -30.9322 -30.9308 -30.9234 -30.9181
   -30.9151 -30.9116 -30.8692 -30.8667 -30.8367 -30.8354 -30.8180 -30.8166
   -30.7864 -30.7859 -30.7362 -30.7341 -30.5358 -30.5332 -30.5049 -30.5027
   -15.0522 -15.0397 -15.0152 -14.9571 -14.7533 -14.7351 -14.7333 -14.6570
   -14.6398 -14.6385 -14.5229 -14.5089 -14.5038 -14.5002 -14.4902 -14.4728
   -14.4557 -14.4501 -14.3891 -14.3670 -14.2220 -14.2196 -13.8956 -13.8938
    -2.5515  -2.4955  -2.4863  -2.4682  -2.4583  -2.4487  -2.4054  -2.3679
    -2.3121  -2.3083  -2.2380  -2.2205  -2.2008  -2.1868  -2.1453  -2.1377
    -2.0650  -2.0555  -2.0449  -1.9735  -1.9344  -1.8953  -1.8674  -1.6865
    -1.5319  -1.3464  -1.3324  -1.2717  -1.2208  -1.1712  -1.1323  -1.0861
    -1.0808  -1.0572  -0.8815  -0.8372  -0.8220  -0.5054  -0.4531  -0.3245
    -0.2638  -0.2248  -0.1834  -0.0091   0.0227   0.0271   0.0862   0.1107
     0.1320   0.1837   0.2089   0.2544   0.3228   0.4446   0.4620   0.4678
     0.4685   0.6663   0.7214   0.7257   0.7258   0.7906   0.8050   0.8091
     1.0140   1.0263   1.0361   1.0594   1.1444   1.2008   1.2526   1.3245
     4.5389   4.5762   4.5907   4.5951   4.6675   4.7177   4.8325   4.8559
     4.8978   4.9251   5.0356   5.0426   5.0507   5.0743   5.1607   5.1738
     5.2157   5.2410   5.2477   5.3696   5.4311   5.5237   5.6567   5.6959
     5.7170   5.7496   5.7701   5.7741   5.7943

          k = 0.0000-1.0988 0.0000 ( 99368 PWs)   bands (ev):

   -54.8638 -54.8615 -54.7193 -54.7175 -54.6503 -54.6499 -54.6486 -54.6481
   -54.5626 -54.5618 -54.2586 -54.2561 -31.4797 -31.4773 -31.2686 -31.2667
   -31.2327 -31.2320 -31.2193 -31.2179 -31.1336 -31.1328 -31.0916 -31.0894
   -31.0778 -31.0753 -31.0528 -31.0506 -30.9046 -30.9032 -30.8988 -30.8960
   -30.8722 -30.8716 -30.8659 -30.8639 -30.8587 -30.8585 -30.8446 -30.8430
   -30.7933 -30.7920 -30.7669 -30.7664 -30.5302 -30.5276 -30.4861 -30.4839
   -15.0340 -15.0286 -14.7176 -14.7130 -14.6310 -14.6212 -14.6025 -14.5933
   -14.5813 -14.5589 -14.5558 -14.5436 -14.5336 -14.5319 -14.5071 -14.4887
   -14.4639 -14.4376 -14.3272 -14.3197 -14.2086 -14.1926 -13.7499 -13.7481
    -2.8990  -2.7970  -2.5529  -2.4933  -2.4760  -2.4304  -2.3800  -2.3527
    -2.2987  -2.2240  -2.2045  -2.1662  -2.0600  -2.0476  -2.0372  -2.0331
    -2.0275  -1.9370  -1.8896  -1.8711  -1.8683  -1.8384  -1.7514  -1.6711
    -1.6481  -1.5086  -1.4256  -1.3984  -1.2498  -1.2402  -1.2270  -1.2230
    -0.8700  -0.7827  -0.6400  -0.6354  -0.5927  -0.5921  -0.5584  -0.5392
    -0.5343  -0.4502  -0.3919  -0.2737  -0.2663  -0.1965  -0.1764  -0.1343
     0.0284   0.1247   0.1818   0.2158   0.2740   0.4013   0.4821   0.5459
     0.5693   0.6173   0.7392   0.8233   0.9132   0.9174   0.9249   0.9427
     0.9454   0.9460   0.9658   0.9822   1.0771   1.1149   1.1338   1.2768
     4.2926   4.5791   4.8120   4.8214   4.8428   5.0145   5.0805   5.0824
     5.0934   5.1370   5.1800   5.1815   5.2754   5.2843   5.2851   5.3789
     5.3966   5.4361   5.4392   5.4396   5.4655   5.5076   5.5078   5.5635
     5.5721   5.6307   5.6332   5.6570   5.7585

          k = 0.3333 0.0000 0.0000 ( 99387 PWs)   bands (ev):

   -54.9040 -54.9017 -54.7584 -54.7566 -54.6928 -54.6898 -54.6873 -54.6845
   -54.6010 -54.6002 -54.3004 -54.2979 -31.2217 -31.2191 -31.0976 -31.0954
   -31.0935 -31.0914 -31.0215 -31.0191 -31.0047 -31.0033 -30.9974 -30.9924
   -30.9708 -30.9635 -30.9065 -30.9060 -30.8820 -30.8791 -30.8588 -30.8583
   -30.8409 -30.8397 -30.8305 -30.8285 -30.7901 -30.7839 -30.7800 -30.7738
   -30.7099 -30.7090 -30.5832 -30.5811 -30.5622 -30.5596 -30.3629 -30.3604
   -15.7508 -15.6965 -15.4649 -15.3339 -15.2949 -15.2542 -15.1912 -15.1472
   -15.0300 -14.8745 -14.7654 -14.7627 -14.5666 -14.5620 -14.3230 -14.3188
   -14.2903 -14.2636 -14.2412 -14.2266 -14.2090 -14.1868 -13.8477 -13.8462
    -3.2878  -3.2432  -2.9707  -2.8937  -2.8499  -2.8435  -2.8359  -2.8251
    -2.7511  -2.7337  -2.1606  -2.0560  -2.0246  -1.9325  -1.8930  -1.8877
    -1.7399  -1.5617  -1.5528  -1.4847  -1.4686  -1.4306  -1.4293  -1.3705
    -1.3675  -1.3672  -1.3587  -1.2628  -1.2374  -1.2366  -1.1457  -0.9882
    -0.8929  -0.8138  -0.7075  -0.6792  -0.5704  -0.5582  -0.4830  -0.3465
    -0.3020  -0.2396  -0.1853  -0.0054   0.0537   0.0599   0.0699   0.2304
     0.3463   0.3486   0.4167   0.4663   0.4885   0.5302   0.5364   0.5660
     0.6344   0.6951   0.8415   0.8594   0.9294   0.9993   1.0034   1.0074
     1.0534   1.0804   1.1842   1.1892   1.2390   1.5826   1.6755   1.7947
     4.4737   4.4849   4.5504   4.5749   4.6062   4.6237   4.6552   4.6592
     4.8010   4.8223   4.8325   4.8341   4.9063   4.9126   5.0284   5.0360
     5.1055   5.1587   5.2959   5.3051   5.3638   5.5148   5.5216   5.7009
     5.7116   5.7194   5.7457   5.7780   5.7936

          k = 0.3333 0.3663 0.0000 ( 99355 PWs)   bands (ev):

   -54.8939 -54.8917 -54.7487 -54.7469 -54.6824 -54.6799 -54.6776 -54.6752
   -54.5914 -54.5906 -54.2900 -54.2875 -31.1976 -31.1952 -31.1486 -31.1461
   -31.0856 -31.0835 -31.0779 -31.0757 -30.9802 -30.9788 -30.9729 -30.9683
   -30.9520 -30.9490 -30.9425 -30.9406 -30.9265 -30.9203 -30.9038 -30.8999
   -30.8687 -30.8684 -30.8576 -30.8569 -30.8376 -30.8370 -30.8325 -30.8314
   -30.8132 -30.8122 -30.5751 -30.5730 -30.5526 -30.5500 -30.4735 -30.4711
   -15.5099 -15.4656 -15.2564 -15.1205 -15.1009 -15.0547 -14.9917 -14.9592
   -14.8605 -14.7360 -14.6332 -14.6240 -14.6014 -14.5994 -14.4162 -14.4088
   -14.3743 -14.3585 -14.3271 -14.3001 -14.2628 -14.2585 -13.9087 -13.9070
    -2.9681  -2.9426  -2.6605  -2.6094  -2.5597  -2.5464  -2.5224  -2.5148
    -2.4508  -2.4427  -2.2504  -2.2448  -2.1113  -2.0965  -2.0525  -2.0481
    -1.9670  -1.9644  -1.8782  -1.7842  -1.7423  -1.7332  -1.6011  -1.5698
    -1.4692  -1.3548  -1.1856  -0.9840  -0.9126  -0.8695  -0.7922  -0.7531
    -0.7234  -0.6827  -0.6411  -0.5553  -0.5450  -0.5306  -0.4862  -0.4315
    -0.3281  -0.2469  -0.2383  -0.1619  -0.1047  -0.1044  -0.0863  -0.0646
    -0.0364   0.0429   0.0733   0.0958   0.1324   0.1875   0.2425   0.2647
     0.3610   0.4879   0.5720   0.6801   0.9116   0.9148   1.0817   1.0827
     1.1783   1.1966   1.2188   1.2469   1.3068   1.5566   1.6198   1.7052
     4.3404   4.3422   4.5210   4.5263   4.5804   4.6219   4.6636   4.7679
     4.7972   4.8138   4.8706   4.8731   4.9404   4.9454   5.0335   5.0962
     5.2754   5.3009   5.4210   5.4648   5.5024   5.5027   5.6146   5.6867
     5.7681   5.7897   5.8429   5.8924   5.9256

          k = 0.3333 0.7325 0.0000 ( 99394 PWs)   bands (ev):

   -54.8739 -54.8716 -54.7291 -54.7273 -54.6614 -54.6601 -54.6581 -54.6569
   -54.5722 -54.5714 -54.2691 -54.2666 -31.3719 -31.3695 -31.1672 -31.1653
   -31.1369 -31.1349 -31.1273 -31.1262 -31.1184 -31.1166 -31.0926 -31.0909
   -31.0682 -31.0660 -30.9997 -30.9984 -30.9311 -30.9297 -30.9226 -30.9197
   -30.8909 -30.8875 -30.8685 -30.8677 -30.8514 -30.8497 -30.8177 -30.8164
   -30.7899 -30.7894 -30.7354 -30.7333 -30.5352 -30.5326 -30.5049 -30.5027
   -15.0200 -15.0147 -14.9802 -14.9333 -14.7875 -14.7834 -14.7311 -14.7285
   -14.6746 -14.6426 -14.5942 -14.5804 -14.5105 -14.5067 -14.4807 -14.4730
   -14.4119 -14.3980 -14.3449 -14.3301 -14.2171 -14.2159 -13.8957 -13.8938
    -2.5108  -2.4949  -2.4647  -2.4559  -2.3611  -2.3558  -2.3467  -2.3231
    -2.2733  -2.2176  -2.1576  -2.1541  -2.1115  -2.1095  -2.0648  -2.0364
    -2.0139  -1.9675  -1.9393  -1.9130  -1.9088  -1.8475  -1.7846  -1.7790
    -1.5667  -1.4886  -1.3452  -1.3078  -1.2656  -1.2609  -1.1549  -1.1326
    -0.9324  -0.9131  -0.8061  -0.7761  -0.7046  -0.5792  -0.4996  -0.4125
    -0.3428  -0.3252  -0.2312  -0.2222  -0.1320  -0.1044  -0.0722  -0.0562
    -0.0225   0.0086   0.1149   0.1627   0.1902   0.3111   0.4266   0.4328
     0.4763   0.5249   0.6886   0.7067   0.7456   0.7914   0.8617   0.8869
     0.9465   1.0152   1.1473   1.2122   1.2829   1.3302   1.3462   1.3626
     4.3072   4.3321   4.3682   4.4391   4.4563   4.5030   4.7540   4.8645
     4.8739   4.9365   5.0348   5.0752   5.1107   5.1509   5.2287   5.2579
     5.2818   5.3193   5.3336   5.3575   5.4832   5.5523   5.6311   5.6554
     5.7285   5.7301   5.8592   5.8984   5.9913

          k = 0.3333-1.0988 0.0000 ( 99524 PWs)   bands (ev):

   -54.8638 -54.8615 -54.7193 -54.7175 -54.6503 -54.6499 -54.6486 -54.6481
   -54.5626 -54.5618 -54.2586 -54.2561 -31.4801 -31.4777 -31.2713 -31.2694
   -31.2333 -31.2330 -31.2258 -31.2250 -31.1561 -31.1551 -31.0925 -31.0902
   -31.0777 -31.0753 -31.0287 -31.0267 -30.9104 -30.9090 -30.8981 -30.8967
   -30.8647 -30.8643 -30.8603 -30.8586 -30.8584 -30.8581 -30.8434 -30.8425
   -30.7930 -30.7917 -30.7664 -30.7660 -30.5269 -30.5243 -30.4861 -30.4839
   -15.0323 -15.0272 -14.8147 -14.8099 -14.8004 -14.7995 -14.7541 -14.7522
   -14.7117 -14.7087 -14.6023 -14.5634 -14.3502 -14.3487 -14.3297 -14.3257
   -14.2602 -14.2577 -14.2521 -14.2486 -14.2067 -14.1987 -13.7498 -13.7480
    -2.8325  -2.8219  -2.8155  -2.7508  -2.6852  -2.6392  -2.5173  -2.5141
    -2.5126  -2.4567  -2.2903  -2.0857  -2.0695  -2.0398  -1.9169  -1.9062
    -1.8713  -1.8687  -1.8652  -1.7913  -1.6622  -1.6614  -1.6588  -1.6541
    -1.5010  -1.4709  -1.2161  -1.1613  -1.1533  -1.0257  -0.9401  -0.8649
    -0.8534  -0.8490  -0.7875  -0.5996  -0.5821  -0.5732  -0.5713  -0.5399
    -0.4734  -0.4546  -0.4468  -0.3895  -0.2292  -0.2101   0.0061   0.1081
     0.1177   0.1653   0.2035   0.2898   0.3903   0.4406   0.5331   0.5635
     0.5853   0.6053   0.6293   0.6906   0.7146   0.7200   0.7279   0.8083
     0.8533   0.9069   0.9159   0.9605   0.9632   1.2028   1.2587   1.2938
     4.2830   4.2933   4.3547   4.4152   4.4942   4.6297   4.6360   4.7085
     4.8721   4.9517   5.1501   5.1522   5.1857   5.2844   5.3077   5.3620
     5.4008   5.4027   5.4124   5.4294   5.5013   5.5039   5.6521   5.6534
     5.6675   5.8251   5.9632   5.9737   6.0048

     the Fermi energy is     3.0710 ev

!    total energy              =   -2155.90214264 Ry
     estimated scf accuracy    <          1.2E-09 Ry
     smearing contrib. (-TS)   =      -0.00000000 Ry
     internal energy E=F+TS    =   -2155.90214264 Ry

     The total energy is F=E-TS. E is the sum of the following terms:
     one-electron contribution =  -29200.89242372 Ry
     hartree contribution      =   14662.15758543 Ry
     xc contribution           =    -340.13333713 Ry
     ewald contribution        =   12722.96603278 Ry

     convergence has been achieved in  11 iterations

     Forces acting on atoms (cartesian axes, Ry/au):

     atom    1 type  1   force =     0.00000000    0.00000000   -0.00046523
     atom    2 type  1   force =     0.00000000    0.00000000    0.00015049
     atom    3 type  1   force =     0.00000000    0.00000000    0.00011798
     atom    4 type  1   force =     0.00000000    0.00000000    0.00002795
     atom    5 type  1   force =     0.00000000    0.00000000    0.00004112
     atom    6 type  1   force =     0.00000000    0.00000000   -0.00017916
     atom    7 type  1   force =     0.00000000    0.00000000   -0.00017733
     atom    8 type  1   force =     0.00000000    0.00000000    0.00009539
     atom    9 type  1   force =     0.00000000    0.00000000   -0.00022341
     atom   10 type  1   force =     0.00000000    0.00000000    0.00005904
     atom   11 type  1   force =     0.00000000    0.00000000    0.00012263
     atom   12 type  1   force =     0.00000000    0.00000000   -0.00008469
     atom   13 type  2   force =     0.00000000    0.00000000    0.00026645
     atom   14 type  2   force =     0.00000000    0.00000000    0.00002486
     atom   15 type  2   force =     0.00000000    0.00000000    0.00010252
     atom   16 type  2   force =     0.00021677    0.00000000   -0.00109053
     atom   17 type  2   force =    -0.00021677    0.00000000   -0.00109053
     atom   18 type  2   force =     0.00000000    0.00000000   -0.00031287
     atom   19 type  2   force =     0.00000000    0.00000000   -0.00007690
     atom   20 type  2   force =     0.00006424    0.00000000    0.00020659
     atom   21 type  2   force =    -0.00006424    0.00000000    0.00020659
     atom   22 type  2   force =     0.00000000    0.00000000    0.00005285
     atom   23 type  2   force =     0.00000000    0.00000000   -0.00017664
     atom   24 type  2   force =     0.00002534    0.00000000   -0.00006055
     atom   25 type  2   force =    -0.00002534    0.00000000   -0.00006055
     atom   26 type  2   force =     0.00000000    0.00000000   -0.00011158
     atom   27 type  2   force =     0.00000000    0.00000000    0.00019802
     atom   28 type  2   force =     0.00001328    0.00000000    0.00017248
     atom   29 type  2   force =    -0.00001328    0.00000000    0.00017248
     atom   30 type  2   force =     0.00000000    0.00000000   -0.00012111
     atom   31 type  2   force =     0.00000000    0.00000000    0.00007961
     atom   32 type  2   force =    -0.00017533    0.00000000    0.00064518
     atom   33 type  2   force =     0.00017533    0.00000000    0.00064518
     atom   34 type  2   force =     0.00000000    0.00000000    0.00008302
     atom   35 type  2   force =     0.00000254    0.00000000    0.00038032
     atom   36 type  2   force =    -0.00000254    0.00000000    0.00038032

     Total force =     0.002126     Total SCF correction =     0.000179


     Computing stress (Cartesian axis) and pressure

          total   stress  (Ry/bohr**3)                   (kbar)     P=        0.09
   0.00000056   0.00000000   0.00000000            0.08        0.00        0.00
   0.00000000  -0.00000043   0.00000000            0.00       -0.06        0.00
   0.00000000   0.00000000   0.00000163            0.00        0.00        0.24

     Energy error            =      8.9E-06 Ry
     Gradient error          =      1.1E-03 Ry/Bohr
     Cell gradient error     =      8.2E-02 kbar

     number of scf cycles    =   3
     number of bfgs steps    =   2

     enthalpy           old  =   -2155.9021337580 Ry
     enthalpy           new  =   -2155.9021426388 Ry

     CASE: enthalpy          _new < enthalpy          _old

     new trust radius        =       0.0025750557 bohr
     new conv_thr            =       0.0000000100 Ry

     new unit-cell volume =   4477.92663 a.u.^3 (   663.56027 Ang^3 )
     density =      2.39832 g/cm^3

CELL_PARAMETERS (angstrom)
   6.517215198   0.000000000   0.000000000
   0.000000000   2.965376954   0.000000000
   0.000000000   0.000000000  34.335106809

ATOMIC_POSITIONS (angstrom)
Ti            3.2586074050        0.0000000000        9.0697587390
Ti            0.0000000000        1.4826883894        8.5669512974
Ti            0.0000000000        0.0000000000       11.9057092373
Ti            3.2586074050        1.4826883894       12.3136804337
Ti            3.2586074050        0.0000000000       15.7032933630
Ti            0.0000000000        1.4826883894       15.3609051296
Ti            0.0000000000        0.0000000000       18.6345535554
Ti            3.2586074050        1.4826883894       18.9765360042
Ti            3.2586074050        0.0000000000       22.4296212133
Ti            0.0000000000        1.4826883894       22.0257142767
Ti            0.0000000000        0.0000000000       25.2715521118
Ti            3.2586074050        1.4826883894       25.7697919808
O             0.0000000000        0.0000000000        7.5010418131
O             3.2586074050        0.0000000000       10.8678203992
O             0.0000000000        0.0000000000       10.0848320460
O             2.0300086218        1.4826883894        8.7019799166
O             4.4872063829        1.4826883894        8.7019799166
O             0.0000000000        0.0000000000       14.2010449606
O             3.2586074050        0.0000000000       13.4570438923
O             5.2333569761        1.4826884776       12.1253816730
O             1.2838582221        1.4826884776       12.1253816730
O             3.2586074050        0.0000000000       17.5548505609
O             0.0000000000        0.0000000000       16.7827196200
O             1.9901631690        1.4826883894       15.5077714120
O             4.5270518355        1.4826883894       15.5077714120
O             0.0000000000        0.0000000000       20.8825254154
O             3.2586074050        0.0000000000       20.1360955796
O             5.2488361064        1.4826884776       18.8301852773
O             1.2683790918        1.4826884776       18.8301852773
O             3.2586074050        0.0000000000       24.2508566660
O             0.0000000000        0.0000000000       23.4731498559
O             1.9750601998        1.4826883894       22.2092761414
O             4.5421548049        1.4826883894       22.2092761414
O             3.2586074050        0.0000000000       26.8355192208
O             5.2888104715        1.4826884776       25.6392479700
O             1.2284047268        1.4826884776       25.6392479700



     Writing config-only to output data dir ./Out/pwscf.save/
     NEW-OLD atomic charge density approx. for the potential

     negative rho (up, down):  1.761E-06 0.000E+00
     extrapolated charge  287.99814, renormalised to  288.00000

     total cpu time spent up to now is      371.2 secs

     per-process dynamical memory:   244.9 Mb

     Self-consistent Calculation

     iteration #  1     ecut=   120.00 Ry     beta= 0.40
     Davidson diagonalization with overlap
     ethr =  1.00E-06,  avg # of iterations =  3.0

     Threshold (ethr) on eigenvalues was too large:
     Diagonalizing with lowered threshold

     Davidson diagonalization with overlap
     ethr =  2.39E-09,  avg # of iterations =  5.0

     negative rho (up, down):  9.786E-07 0.000E+00

     total cpu time spent up to now is      388.4 secs

     total energy              =   -2155.90214521 Ry
     estimated scf accuracy    <       0.00000932 Ry

     iteration #  2     ecut=   120.00 Ry     beta= 0.40
     Davidson diagonalization with overlap
     ethr =  3.24E-09,  avg # of iterations =  5.9

     negative rho (up, down):  8.604E-07 0.000E+00

     total cpu time spent up to now is      397.8 secs

     total energy              =   -2155.90214782 Ry
     estimated scf accuracy    <       0.00006177 Ry

     iteration #  3     ecut=   120.00 Ry     beta= 0.40
     Davidson diagonalization with overlap
     ethr =  3.24E-09,  avg # of iterations =  5.0

     negative rho (up, down):  4.651E-07 0.000E+00

     total cpu time spent up to now is      405.6 secs

     total energy              =   -2155.90215011 Ry
     estimated scf accuracy    <       0.00000569 Ry

     iteration #  4     ecut=   120.00 Ry     beta= 0.40
     Davidson diagonalization with overlap
     ethr =  1.98E-09,  avg # of iterations =  4.9

     negative rho (up, down):  2.714E-07 0.000E+00

     total cpu time spent up to now is      413.1 secs

     total energy              =   -2155.90215110 Ry
     estimated scf accuracy    <       0.00000047 Ry

     iteration #  5     ecut=   120.00 Ry     beta= 0.40
     Davidson diagonalization with overlap
     ethr =  1.63E-10,  avg # of iterations =  5.6

     negative rho (up, down):  1.528E-07 0.000E+00

     total cpu time spent up to now is      421.8 secs

     total energy              =   -2155.90215117 Ry
     estimated scf accuracy    <       0.00000069 Ry

     iteration #  6     ecut=   120.00 Ry     beta= 0.40
     Davidson diagonalization with overlap
     ethr =  1.63E-10,  avg # of iterations =  2.0

     negative rho (up, down):  8.199E-08 0.000E+00

     total cpu time spent up to now is      428.1 secs

     total energy              =   -2155.90215118 Ry
     estimated scf accuracy    <       0.00000013 Ry

     iteration #  7     ecut=   120.00 Ry     beta= 0.40
     Davidson diagonalization with overlap
     ethr =  4.62E-11,  avg # of iterations =  5.4

     total cpu time spent up to now is      435.8 secs

     End of self-consistent calculation

          k = 0.0000 0.0000 0.0000 ( 99471 PWs)   bands (ev):

   -54.9056 -54.9008 -54.7596 -54.7548 -54.6974 -54.6935 -54.6892 -54.6855
   -54.6035 -54.5991 -54.3015 -54.2969 -31.2229 -31.2176 -31.1112 -31.1066
   -31.0983 -31.0933 -31.0231 -31.0182 -31.0135 -31.0091 -31.0089 -31.0027
   -31.0004 -30.9924 -30.9101 -30.9048 -30.8509 -30.8473 -30.8440 -30.8438
   -30.8397 -30.8395 -30.8317 -30.8267 -30.7967 -30.7888 -30.7805 -30.7728
   -30.7122 -30.7078 -30.5846 -30.5801 -30.5550 -30.5504 -30.3639 -30.3593
   -15.9006 -15.8261 -15.6228 -15.4699 -15.3902 -15.3349 -15.2315 -15.1662
   -14.9303 -14.7937 -14.6383 -14.6324 -14.5748 -14.5694 -14.2516 -14.2109
   -14.1999 -14.1997 -14.1777 -14.1595 -14.1468 -14.1225 -13.8532 -13.8486
    -3.4586  -3.3720  -3.2852  -3.2727  -3.2464  -3.2426  -3.1705  -3.1063
    -2.8084  -2.7855  -2.5068  -2.3227  -2.0734  -2.0229  -2.0162  -1.8926
    -1.8834  -1.5718  -1.5627  -1.5389  -1.5371  -1.5150  -1.4896  -1.4864
    -1.4384  -1.4357  -1.2406  -1.2345  -1.1361  -1.0669  -0.9874  -0.6966
    -0.6163  -0.5237  -0.4831  -0.3723  -0.3544  -0.3530  -0.2888  -0.2800
    -0.1424  -0.0832   0.0014   0.0254   0.1129   0.1156   0.2537   0.3780
     0.4041   0.4119   0.4498   0.4824   0.5118   0.5235   0.7745   0.7962
     0.8027   0.8155   1.0558   1.0603   1.0807   1.0837   1.1066   1.1147
     1.1380   1.1430   1.5418   1.5870   1.6194   1.7684   1.9188   2.0499
     4.1168   4.1272   4.1611   4.2048   4.2373   4.2429   4.5273   4.5650
     4.5695   4.5745   4.7399   4.7559   4.7560   4.8104   4.8272   4.8868
     5.0573   5.0621   5.0658   5.0749   5.1908   5.3237   5.3777   5.4825
     5.5291   5.6708   5.7516   5.7579   5.8112

          k = 0.0000 0.3663 0.0000 ( 99433 PWs)   bands (ev):

   -54.8955 -54.8907 -54.7499 -54.7450 -54.6868 -54.6835 -54.6797 -54.6764
   -54.5939 -54.5896 -54.2911 -54.2865 -31.1991 -31.1940 -31.1497 -31.1445
   -31.0964 -31.0918 -31.0788 -31.0738 -30.9873 -30.9827 -30.9806 -30.9764
   -30.9750 -30.9689 -30.9425 -30.9376 -30.9290 -30.9271 -30.8994 -30.8918
   -30.8706 -30.8695 -30.8455 -30.8424 -30.8374 -30.8330 -30.8262 -30.8220
   -30.8175 -30.8131 -30.5764 -30.5719 -30.5487 -30.5441 -30.4749 -30.4703
   -15.6391 -15.5754 -15.3930 -15.2537 -15.1755 -15.1246 -15.0316 -14.9803
   -14.7841 -14.6784 -14.6311 -14.6249 -14.4535 -14.4482 -14.3407 -14.3135
   -14.2993 -14.2956 -14.2825 -14.2623 -14.2500 -14.2337 -13.9149 -13.9101
    -3.0978  -3.0418  -2.9866  -2.9705  -2.9274  -2.9238  -2.8908  -2.8238
    -2.5340  -2.5123  -2.2788  -2.2463  -2.2076  -2.1885  -2.0951  -2.0760
    -2.0678  -2.0294  -1.9927  -1.8854  -1.8821  -1.8080  -1.7760  -1.7133
    -1.4953  -1.3467  -1.2709  -0.9169  -0.9082  -0.8297  -0.7129  -0.5857
    -0.4484  -0.4053  -0.4019  -0.3027  -0.2948  -0.2286  -0.1481  -0.1320
    -0.1031  -0.0567   0.0455   0.0627   0.0848   0.1148   0.1343   0.1587
     0.1896   0.1996   0.2155   0.2272   0.3035   0.3176   0.4330   0.5232
     0.5472   0.6577   0.7192   0.7463   0.7777   0.8304   0.8634   0.9064
     1.0945   1.1175   1.1385   1.1561   1.1606   1.6914   1.7743   1.8832
     4.2302   4.2356   4.3614   4.4538   4.4658   4.4710   4.4903   4.4934
     4.5398   4.6087   4.6517   4.8690   4.8854   4.9223   4.9450   5.0082
     5.2235   5.2712   5.3032   5.3384   5.4431   5.4732   5.4976   5.5350
     5.6245   5.6529   5.6595   5.6946   5.9301

          k = 0.0000 0.7326 0.0000 ( 99452 PWs)   bands (ev):

   -54.8754 -54.8706 -54.7303 -54.7255 -54.6650 -54.6631 -54.6606 -54.6588
   -54.5747 -54.5704 -54.2702 -54.2656 -31.3732 -31.3680 -31.1660 -31.1611
   -31.1376 -31.1336 -31.1289 -31.1281 -31.1137 -31.1121 -31.0693 -31.0680
   -31.0643 -31.0634 -31.0323 -31.0281 -30.9336 -30.9290 -30.9262 -30.9209
   -30.9179 -30.9143 -30.8719 -30.8694 -30.8395 -30.8381 -30.8204 -30.8158
   -30.7889 -30.7848 -30.7376 -30.7331 -30.5367 -30.5321 -30.5062 -30.5017
   -15.0533 -15.0396 -15.0157 -14.9577 -14.7548 -14.7362 -14.7316 -14.6592
   -14.6417 -14.6386 -14.5250 -14.5117 -14.5059 -14.5011 -14.4903 -14.4739
   -14.4564 -14.4506 -14.3914 -14.3695 -14.2247 -14.2186 -13.8972 -13.8924
    -2.5527  -2.4959  -2.4877  -2.4693  -2.4592  -2.4488  -2.4074  -2.3683
    -2.3133  -2.3078  -2.2404  -2.2215  -2.2009  -2.1868  -2.1471  -2.1392
    -2.0652  -2.0570  -2.0447  -1.9753  -1.9351  -1.8959  -1.8689  -1.6880
    -1.5333  -1.3478  -1.3335  -1.2728  -1.2218  -1.1731  -1.1326  -1.0871
    -1.0814  -1.0581  -0.8832  -0.8385  -0.8233  -0.5061  -0.4534  -0.3261
    -0.2643  -0.2266  -0.1837  -0.0114   0.0204   0.0254   0.0854   0.1112
     0.1302   0.1838   0.2088   0.2536   0.3236   0.4439   0.4600   0.4656
     0.4680   0.6657   0.7203   0.7245   0.7260   0.7888   0.8035   0.8097
     1.0123   1.0258   1.0345   1.0580   1.1426   1.1995   1.2525   1.3229
     4.5372   4.5744   4.5894   4.5957   4.6672   4.7170   4.8316   4.8536
     4.8975   4.9242   5.0347   5.0400   5.0492   5.0741   5.1593   5.1717
     5.2154   5.2385   5.2475   5.3687   5.4302   5.5226   5.6548   5.6954
     5.7144   5.7472   5.7693   5.7750   5.7930

          k = 0.0000-1.0988 0.0000 ( 99368 PWs)   bands (ev):

   -54.8653 -54.8605 -54.7205 -54.7156 -54.6528 -54.6528 -54.6516 -54.6509
   -54.5651 -54.5607 -54.2597 -54.2551 -31.4814 -31.4762 -31.2699 -31.2650
   -31.2355 -31.2348 -31.2221 -31.2208 -31.1361 -31.1318 -31.0932 -31.0882
   -31.0786 -31.0734 -31.0544 -31.0497 -30.9060 -30.9015 -30.9014 -30.8988
   -30.8748 -30.8743 -30.8675 -30.8628 -30.8615 -30.8612 -30.8475 -30.8458
   -30.7956 -30.7911 -30.7694 -30.7653 -30.5311 -30.5266 -30.4873 -30.4829
   -15.0355 -15.0272 -14.7197 -14.7155 -14.6333 -14.6217 -14.6036 -14.5933
   -14.5823 -14.5599 -14.5556 -14.5446 -14.5347 -14.5306 -14.5087 -14.4896
   -14.4650 -14.4397 -14.3291 -14.3208 -14.2104 -14.1945 -13.7515 -13.7467
    -2.8999  -2.7968  -2.5541  -2.4951  -2.4773  -2.4313  -2.3808  -2.3528
    -2.3002  -2.2264  -2.2063  -2.1677  -2.0606  -2.0477  -2.0367  -2.0341
    -2.0288  -1.9371  -1.8897  -1.8723  -1.8681  -1.8401  -1.7534  -1.6719
    -1.6495  -1.5093  -1.4275  -1.3993  -1.2512  -1.2411  -1.2283  -1.2243
    -0.8710  -0.7843  -0.6423  -0.6361  -0.5951  -0.5933  -0.5605  -0.5398
    -0.5342  -0.4518  -0.3924  -0.2744  -0.2672  -0.1989  -0.1786  -0.1343
     0.0267   0.1244   0.1811   0.2159   0.2721   0.4009   0.4805   0.5448
     0.5681   0.6174   0.7399   0.8223   0.9115   0.9187   0.9235   0.9416
     0.9442   0.9464   0.9654   0.9805   1.0754   1.1144   1.1319   1.2752
     4.2909   4.5789   4.8111   4.8204   4.8422   5.0126   5.0793   5.0841
     5.0912   5.1348   5.1784   5.1809   5.2726   5.2826   5.2870   5.3767
     5.3942   5.4347   5.4369   5.4399   5.4645   5.5057   5.5093   5.5627
     5.5696   5.6292   5.6325   5.6565   5.7560

          k = 0.3333 0.0000 0.0000 ( 99387 PWs)   bands (ev):

   -54.9055 -54.9007 -54.7596 -54.7548 -54.6955 -54.6926 -54.6903 -54.6873
   -54.6035 -54.5992 -54.3015 -54.2970 -31.2231 -31.2178 -31.0986 -31.0952
   -31.0936 -31.0906 -31.0230 -31.0180 -31.0061 -31.0015 -31.0001 -30.9951
   -30.9736 -30.9663 -30.9092 -30.9087 -30.8847 -30.8819 -30.8613 -30.8572
   -30.8434 -30.8390 -30.8316 -30.8266 -30.7929 -30.7867 -30.7827 -30.7765
   -30.7123 -30.7080 -30.5845 -30.5800 -30.5631 -30.5586 -30.3640 -30.3594
   -15.7518 -15.6966 -15.4664 -15.3359 -15.2955 -15.2545 -15.1919 -15.1485
   -15.0314 -14.8766 -14.7672 -14.7614 -14.5677 -14.5612 -14.3244 -14.3190
   -14.2930 -14.2662 -14.2432 -14.2271 -14.2097 -14.1890 -13.8495 -13.8448
    -3.2887  -3.2435  -2.9728  -2.8954  -2.8515  -2.8437  -2.8358  -2.8265
    -2.7527  -2.7350  -2.1622  -2.0567  -2.0250  -1.9330  -1.8946  -1.8854
    -1.7407  -1.5644  -1.5557  -1.4866  -1.4704  -1.4309  -1.4274  -1.3719
    -1.3692  -1.3664  -1.3596  -1.2632  -1.2402  -1.2342  -1.1466  -0.9888
    -0.8944  -0.8148  -0.7097  -0.6806  -0.5712  -0.5580  -0.4847  -0.3475
    -0.3032  -0.2408  -0.1853  -0.0063   0.0530   0.0590   0.0701   0.2296
     0.3449   0.3487   0.4152   0.4649   0.4877   0.5290   0.5352   0.5653
     0.6337   0.6947   0.8395   0.8573   0.9284   0.9974   1.0044   1.0067
     1.0519   1.0796   1.1835   1.1875   1.2377   1.5814   1.6747   1.7926
     4.4722   4.4840   4.5486   4.5728   4.6033   4.6216   4.6547   4.6611
     4.7985   4.8194   4.8309   4.8351   4.9041   4.9107   5.0278   5.0358
     5.1042   5.1582   5.2941   5.3030   5.3617   5.5132   5.5209   5.7014
     5.7127   5.7179   5.7449   5.7777   5.7937

          k = 0.3333 0.3663 0.0000 ( 99355 PWs)   bands (ev):

   -54.8955 -54.8907 -54.7499 -54.7450 -54.6852 -54.6826 -54.6805 -54.6780
   -54.5939 -54.5896 -54.2911 -54.2866 -31.1991 -31.1940 -31.1500 -31.1448
   -31.0873 -31.0826 -31.0791 -31.0741 -30.9816 -30.9771 -30.9756 -30.9711
   -30.9548 -30.9517 -30.9437 -30.9388 -30.9292 -30.9231 -30.9066 -30.9027
   -30.8714 -30.8712 -30.8604 -30.8596 -30.8401 -30.8359 -30.8349 -30.8306
   -30.8156 -30.8112 -30.5764 -30.5720 -30.5535 -30.5490 -30.4747 -30.4701
   -15.5109 -15.4657 -15.2579 -15.1224 -15.1017 -15.0549 -14.9925 -14.9603
   -14.8618 -14.7372 -14.6339 -14.6247 -14.6030 -14.5981 -14.4174 -14.4093
   -14.3769 -14.3611 -14.3297 -14.3023 -14.2638 -14.2584 -13.9105 -13.9056
    -2.9690  -2.9427  -2.6626  -2.6112  -2.5615  -2.5469  -2.5226  -2.5153
    -2.4524  -2.4436  -2.2520  -2.2450  -2.1130  -2.0981  -2.0542  -2.0470
    -1.9687  -1.9651  -1.8798  -1.7855  -1.7422  -1.7329  -1.6018  -1.5701
    -1.4712  -1.3557  -1.1862  -0.9845  -0.9129  -0.8711  -0.7932  -0.7540
    -0.7253  -0.6843  -0.6421  -0.5559  -0.5443  -0.5306  -0.4869  -0.4321
    -0.3294  -0.2481  -0.2397  -0.1635  -0.1065  -0.1060  -0.0866  -0.0644
    -0.0374   0.0420   0.0719   0.0948   0.1316   0.1868   0.2425   0.2632
     0.3601   0.4865   0.5710   0.6790   0.9103   0.9154   1.0795   1.0822
     1.1773   1.1949   1.2175   1.2464   1.3055   1.5554   1.6190   1.7031
     4.3385   4.3428   4.5196   4.5267   4.5779   4.6192   4.6618   4.7674
     4.7966   4.8124   4.8686   4.8712   4.9398   4.9467   5.0309   5.0936
     5.2740   5.3001   5.4195   5.4637   5.5002   5.5017   5.6121   5.6855
     5.7676   5.7879   5.8422   5.8917   5.9265

          k = 0.3333 0.7326 0.0000 ( 99394 PWs)   bands (ev):

   -54.8754 -54.8706 -54.7303 -54.7255 -54.6641 -54.6628 -54.6611 -54.6597
   -54.5747 -54.5704 -54.2702 -54.2656 -31.3735 -31.3684 -31.1684 -31.1635
   -31.1386 -31.1351 -31.1295 -31.1285 -31.1207 -31.1192 -31.0945 -31.0900
   -31.0692 -31.0642 -31.0019 -30.9975 -30.9325 -30.9279 -30.9253 -30.9224
   -30.8936 -30.8902 -30.8712 -30.8704 -30.8542 -30.8525 -30.8201 -30.8155
   -30.7923 -30.7882 -30.7368 -30.7323 -30.5361 -30.5315 -30.5061 -30.5016
   -15.0213 -15.0135 -14.9814 -14.9338 -14.7900 -14.7850 -14.7317 -14.7271
   -14.6762 -14.6433 -14.5962 -14.5816 -14.5113 -14.5058 -14.4825 -14.4749
   -14.4144 -14.4001 -14.3467 -14.3321 -14.2201 -14.2143 -13.8972 -13.8924
    -2.5118  -2.4952  -2.4659  -2.4564  -2.3623  -2.3553  -2.3486  -2.3242
    -2.2748  -2.2189  -2.1593  -2.1564  -2.1128  -2.1093  -2.0652  -2.0363
    -2.0139  -1.9685  -1.9412  -1.9148  -1.9092  -1.8489  -1.7853  -1.7791
    -1.5684  -1.4904  -1.3462  -1.3091  -1.2661  -1.2612  -1.1560  -1.1344
    -0.9336  -0.9139  -0.8072  -0.7773  -0.7057  -0.5797  -0.5001  -0.4132
    -0.3432  -0.3253  -0.2331  -0.2237  -0.1331  -0.1058  -0.0722  -0.0567
    -0.0236   0.0080   0.1132   0.1610   0.1880   0.3098   0.4255   0.4320
     0.4752   0.5230   0.6882   0.7065   0.7445   0.7903   0.8611   0.8870
     0.9456   1.0136   1.1460   1.2118   1.2815   1.3295   1.3456   1.3601
     4.3057   4.3317   4.3669   4.4381   4.4558   4.5007   4.7522   4.8638
     4.8738   4.9358   5.0326   5.0738   5.1105   5.1506   5.2263   5.2575
     5.2807   5.3168   5.3324   5.3557   5.4823   5.5513   5.6303   5.6549
     5.7281   5.7297   5.8576   5.8966   5.9920

          k = 0.3333-1.0988 0.0000 ( 99524 PWs)   bands (ev):

   -54.8653 -54.8605 -54.7205 -54.7156 -54.6528 -54.6528 -54.6516 -54.6509
   -54.5651 -54.5607 -54.2597 -54.2551 -31.4818 -31.4766 -31.2725 -31.2677
   -31.2362 -31.2357 -31.2287 -31.2279 -31.1585 -31.1542 -31.0941 -31.0891
   -31.0785 -31.0733 -31.0305 -31.0258 -30.9118 -30.9072 -30.9009 -30.8995
   -30.8673 -30.8672 -30.8620 -30.8613 -30.8608 -30.8572 -30.8462 -30.8453
   -30.7954 -30.7908 -30.7689 -30.7648 -30.5278 -30.5232 -30.4873 -30.4829
   -15.0338 -15.0257 -14.8171 -14.8123 -14.8025 -14.7990 -14.7544 -14.7504
   -14.7141 -14.7109 -14.6029 -14.5642 -14.3515 -14.3471 -14.3318 -14.3267
   -14.2625 -14.2594 -14.2533 -14.2496 -14.2086 -14.2005 -13.7514 -13.7466
    -2.8333  -2.8235  -2.8159  -2.7506  -2.6872  -2.6414  -2.5193  -2.5147
    -2.5105  -2.4582  -2.2914  -2.0861  -2.0688  -2.0410  -1.9181  -1.9083
    -1.8736  -1.8696  -1.8676  -1.7937  -1.6641  -1.6616  -1.6584  -1.6532
    -1.5023  -1.4722  -1.2175  -1.1625  -1.1549  -1.0277  -0.9409  -0.8660
    -0.8541  -0.8479  -0.7888  -0.6010  -0.5834  -0.5749  -0.5719  -0.5414
    -0.4747  -0.4552  -0.4482  -0.3903  -0.2308  -0.2114   0.0050   0.1075
     0.1169   0.1650   0.2023   0.2888   0.3891   0.4392   0.5310   0.5622
     0.5837   0.6046   0.6282   0.6894   0.7135   0.7188   0.7280   0.8079
     0.8520   0.9051   0.9149   0.9593   0.9643   1.2015   1.2582   1.2923
     4.2820   4.2920   4.3530   4.4134   4.4920   4.6294   4.6365   4.7083
     4.8697   4.9510   5.1487   5.1539   5.1846   5.2841   5.3079   5.3613
     5.3983   5.4003   5.4100   5.4270   5.5002   5.5047   5.6506   5.6549
     5.6664   5.8249   5.9612   5.9722   6.0046

     the Fermi energy is     3.0697 ev

!    total energy              =   -2155.90215120 Ry
     estimated scf accuracy    <          6.2E-09 Ry
     smearing contrib. (-TS)   =      -0.00000000 Ry
     internal energy E=F+TS    =   -2155.90215120 Ry

     The total energy is F=E-TS. E is the sum of the following terms:
     one-electron contribution =  -29199.36951969 Ry
     hartree contribution      =   14661.38973178 Ry
     xc contribution           =    -340.13294547 Ry
     ewald contribution        =   12722.21058218 Ry

     convergence has been achieved in   7 iterations

     Forces acting on atoms (cartesian axes, Ry/au):

     atom    1 type  1   force =     0.00000000    0.00000000   -0.00056507
     atom    2 type  1   force =     0.00000000    0.00000000    0.00007770
     atom    3 type  1   force =     0.00000000    0.00000000    0.00021114
     atom    4 type  1   force =     0.00000000    0.00000000   -0.00001845
     atom    5 type  1   force =     0.00000000    0.00000000   -0.00004639
     atom    6 type  1   force =     0.00000000    0.00000000   -0.00015031
     atom    7 type  1   force =     0.00000000    0.00000000    0.00001771
     atom    8 type  1   force =     0.00000000    0.00000000    0.00014446
     atom    9 type  1   force =     0.00000000    0.00000000    0.00005086
     atom   10 type  1   force =     0.00000000    0.00000000    0.00003364
     atom   11 type  1   force =     0.00000000    0.00000000    0.00013644
     atom   12 type  1   force =     0.00000000    0.00000000   -0.00007280
     atom   13 type  2   force =     0.00000000    0.00000000    0.00014086
     atom   14 type  2   force =     0.00000000    0.00000000   -0.00015499
     atom   15 type  2   force =     0.00000000    0.00000000    0.00014198
     atom   16 type  2   force =     0.00004524    0.00000000   -0.00080988
     atom   17 type  2   force =    -0.00004524    0.00000000   -0.00080988
     atom   18 type  2   force =     0.00000000    0.00000000   -0.00031211
     atom   19 type  2   force =     0.00000000    0.00000000   -0.00001037
     atom   20 type  2   force =     0.00011765    0.00000000    0.00012231
     atom   21 type  2   force =    -0.00011765    0.00000000    0.00012231
     atom   22 type  2   force =     0.00000000    0.00000000    0.00007617
     atom   23 type  2   force =     0.00000000    0.00000000   -0.00001055
     atom   24 type  2   force =     0.00009442    0.00000000   -0.00004313
     atom   25 type  2   force =    -0.00009442    0.00000000   -0.00004313
     atom   26 type  2   force =     0.00000000    0.00000000    0.00000957
     atom   27 type  2   force =     0.00000000    0.00000000    0.00014532
     atom   28 type  2   force =     0.00011787    0.00000000    0.00004251
     atom   29 type  2   force =    -0.00011787    0.00000000    0.00004251
     atom   30 type  2   force =     0.00000000    0.00000000    0.00016249
     atom   31 type  2   force =     0.00000000    0.00000000    0.00010164
     atom   32 type  2   force =    -0.00005254    0.00000000    0.00037737
     atom   33 type  2   force =     0.00005254    0.00000000    0.00037737
     atom   34 type  2   force =     0.00000000    0.00000000   -0.00007585
     atom   35 type  2   force =    -0.00009856    0.00000000    0.00029427
     atom   36 type  2   force =     0.00009856    0.00000000    0.00029427

     Total force =     0.001608     Total SCF correction =     0.000308
     SCF correction compared to forces is large: reduce conv_thr to get better values


     Computing stress (Cartesian axis) and pressure

          total   stress  (Ry/bohr**3)                   (kbar)     P=        0.07
   0.00000030   0.00000000   0.00000000            0.04        0.00        0.00
   0.00000000  -0.00000023   0.00000000            0.00       -0.03        0.00
   0.00000000   0.00000000   0.00000133            0.00        0.00        0.20

     Energy error            =      8.6E-06 Ry
     Gradient error          =      8.1E-04 Ry/Bohr
     Cell gradient error     =      4.4E-02 kbar

     bfgs converged in   4 scf cycles and   3 bfgs steps
     (criteria: energy <  1.0E-04 Ry, force <  1.0E-03 Ry/Bohr, cell <  5.0E-01 kbar)

     End of BFGS Geometry Optimization

     Final enthalpy           =   -2155.9021511965 Ry

     File ./Out/pwscf.bfgs deleted, as requested
Begin final coordinates
     new unit-cell volume =   4477.92663 a.u.^3 (   663.56027 Ang^3 )
     density =      2.39832 g/cm^3

CELL_PARAMETERS (angstrom)
   6.517215198   0.000000000   0.000000000
   0.000000000   2.965376954   0.000000000
   0.000000000   0.000000000  34.335106809

ATOMIC_POSITIONS (angstrom)
Ti            3.2586074050        0.0000000000        9.0697587390
Ti            0.0000000000        1.4826883894        8.5669512974
Ti            0.0000000000        0.0000000000       11.9057092373
Ti            3.2586074050        1.4826883894       12.3136804337
Ti            3.2586074050        0.0000000000       15.7032933630
Ti            0.0000000000        1.4826883894       15.3609051296
Ti            0.0000000000        0.0000000000       18.6345535554
Ti            3.2586074050        1.4826883894       18.9765360042
Ti            3.2586074050        0.0000000000       22.4296212133
Ti            0.0000000000        1.4826883894       22.0257142767
Ti            0.0000000000        0.0000000000       25.2715521118
Ti            3.2586074050        1.4826883894       25.7697919808
O             0.0000000000        0.0000000000        7.5010418131
O             3.2586074050        0.0000000000       10.8678203992
O             0.0000000000        0.0000000000       10.0848320460
O             2.0300086218        1.4826883894        8.7019799166
O             4.4872063829        1.4826883894        8.7019799166
O             0.0000000000        0.0000000000       14.2010449606
O             3.2586074050        0.0000000000       13.4570438923
O             5.2333569761        1.4826884776       12.1253816730
O             1.2838582221        1.4826884776       12.1253816730
O             3.2586074050        0.0000000000       17.5548505609
O             0.0000000000        0.0000000000       16.7827196200
O             1.9901631690        1.4826883894       15.5077714120
O             4.5270518355        1.4826883894       15.5077714120
O             0.0000000000        0.0000000000       20.8825254154
O             3.2586074050        0.0000000000       20.1360955796
O             5.2488361064        1.4826884776       18.8301852773
O             1.2683790918        1.4826884776       18.8301852773
O             3.2586074050        0.0000000000       24.2508566660
O             0.0000000000        0.0000000000       23.4731498559
O             1.9750601998        1.4826883894       22.2092761414
O             4.5421548049        1.4826883894       22.2092761414
O             3.2586074050        0.0000000000       26.8355192208
O             5.2888104715        1.4826884776       25.6392479700
O             1.2284047268        1.4826884776       25.6392479700
End final coordinates



     Writing config-only to output data dir ./Out/pwscf.save/

     Final scf calculation at the relaxed structure.
     The G-vectors are recalculated for the final unit cell
     Results may differ from those at the preceding step.
 
     Parallelization info
     --------------------
     sticks:   dense  smooth     PW     G-vecs:    dense   smooth      PW
     Min          73      73     20                22077    22077    3220
     Max          74      74     21                22099    22099    3253
     Sum        2639    2639    733               795239   795239  116295
 
     Using Slab Decomposition
 


     bravais-lattice index     =            0
     lattice parameter (alat)  =      12.3151  a.u.
     unit-cell volume          =    4477.9266 (a.u.)^3
     number of atoms/cell      =           36
     number of atomic types    =            2
     number of electrons       =       288.00
     number of Kohn-Sham states=          173
     kinetic-energy cutoff     =     120.0000  Ry
     charge density cutoff     =     480.0000  Ry
     scf convergence threshold =      1.0E-08
     mixing beta               =       0.4000
     number of iterations used =           20  plain     mixing
     press convergence thresh. =      5.0E-01
     Exchange-correlation= PBE
                           (   1   4   3   4   0   0   0)

     celldm(1)=  12.315136  celldm(2)=   0.000000  celldm(3)=   0.000000
     celldm(4)=   0.000000  celldm(5)=   0.000000  celldm(6)=   0.000000

     crystal axes: (cart. coord. in units of alat)
               a(1) = (   1.000050   0.000000   0.000000 )  
               a(2) = (   0.000000   0.455029   0.000000 )  
               a(3) = (   0.000000   0.000000   5.268634 )  

     reciprocal axes: (cart. coord. in units 2 pi/alat)
               b(1) = (  0.999950  0.000000  0.000000 )  
               b(2) = (  0.000000  2.197660  0.000000 )  
               b(3) = (  0.000000  0.000000  0.189803 )  


     PseudoPot. # 1 for Ti read from file:
     /cm/shared/apps/KO/pseudo/sg15/Ti_ONCV_PBE-1.2.upf
     MD5 check sum: 1aea57736bd12dcfee93c97d0b9b5968
     Pseudo is Norm-conserving, Zval = 12.0
     Generated using ONCVPSP code by D. R. Hamann
     Using radial grid of  602 points,  6 beta functions with: 
                l(1) =   0
                l(2) =   0
                l(3) =   1
                l(4) =   1
                l(5) =   2
                l(6) =   2

     PseudoPot. # 2 for O  read from file:
     /cm/shared/apps/KO/pseudo/sg15/O_ONCV_PBE-1.2.upf
     MD5 check sum: e36c48deb68f4e355fffe4602be2c42c
     Pseudo is Norm-conserving, Zval =  6.0
     Generated using ONCVPSP code by D. R. Hamann
     Using radial grid of  602 points,  4 beta functions with: 
                l(1) =   0
                l(2) =   0
                l(3) =   1
                l(4) =   1

     atomic species   valence    mass     pseudopotential
        Ti            12.00    47.86700     Ti( 1.00)
        O              6.00    15.99900     O ( 1.00)

      4 Sym. Ops. (no inversion) found



   Cartesian axes

     site n.     atom                  positions (alat units)
         1           Ti  tau(   1) = (   0.5000250   0.0000000   1.3917312  )
         2           Ti  tau(   2) = (   0.0000000   0.2275147   1.3145767  )
         3           Ti  tau(   3) = (   0.0000000   0.0000000   1.8269006  )
         4           Ti  tau(   4) = (   0.5000250   0.2275147   1.8895027  )
         5           Ti  tau(   5) = (   0.5000250   0.0000000   2.4096301  )
         6           Ti  tau(   6) = (   0.0000000   0.2275147   2.3570915  )
         7           Ti  tau(   7) = (   0.0000000   0.0000000   2.8594245  )
         8           Ti  tau(   8) = (   0.5000250   0.2275147   2.9119008  )
         9           Ti  tau(   9) = (   0.5000250   0.0000000   3.4417679  )
        10           Ti  tau(  10) = (   0.0000000   0.2275147   3.3797894  )
        11           Ti  tau(  11) = (   0.0000000   0.0000000   3.8778549  )
        12           Ti  tau(  12) = (   0.5000250   0.2275147   3.9543086  )
        13           O   tau(  13) = (   0.0000000   0.0000000   1.1510157  )
        14           O   tau(  14) = (   0.5000250   0.0000000   1.6676392  )
        15           O   tau(  15) = (   0.0000000   0.0000000   1.5474916  )
        16           O   tau(  16) = (   0.3114996   0.2275147   1.3352965  )
        17           O   tau(  17) = (   0.6885503   0.2275147   1.3352965  )
        18           O   tau(  18) = (   0.0000000   0.0000000   2.1791140  )
        19           O   tau(  19) = (   0.5000250   0.0000000   2.0649489  )
        20           O   tau(  20) = (   0.8030452   0.2275147   1.8606088  )
        21           O   tau(  21) = (   0.1970048   0.2275147   1.8606088  )
        22           O   tau(  22) = (   0.5000250   0.0000000   2.6937469  )
        23           O   tau(  23) = (   0.0000000   0.0000000   2.5752653  )
        24           O   tau(  24) = (   0.3053854   0.2275147   2.3796278  )
        25           O   tau(  25) = (   0.6946645   0.2275147   2.3796278  )
        26           O   tau(  26) = (   0.0000000   0.0000000   3.2043700  )
        27           O   tau(  27) = (   0.5000250   0.0000000   3.0898323  )
        28           O   tau(  28) = (   0.8054205   0.2275147   2.8894437  )
        29           O   tau(  29) = (   0.1946295   0.2275147   2.8894437  )
        30           O   tau(  30) = (   0.5000250   0.0000000   3.7212318  )
        31           O   tau(  31) = (   0.0000000   0.0000000   3.6018947  )
        32           O   tau(  32) = (   0.3030679   0.2275147   3.4079565  )
        33           O   tau(  33) = (   0.6969820   0.2275147   3.4079565  )
        34           O   tau(  34) = (   0.5000250   0.0000000   4.1178417  )
        35           O   tau(  35) = (   0.8115544   0.2275147   3.9342769  )
        36           O   tau(  36) = (   0.1884956   0.2275147   3.9342769  )

     number of k points=     8  Gaussian smearing, width (Ry)=  0.0200
                       cart. coord. in units 2pi/alat
        k(    1) = (   0.0000000   0.0000000   0.0000000), wk =   0.1111111
        k(    2) = (   0.0000000   0.3662766   0.0000000), wk =   0.2222222
        k(    3) = (   0.0000000   0.7325532   0.0000000), wk =   0.2222222
        k(    4) = (   0.0000000  -1.0988299   0.0000000), wk =   0.1111111
        k(    5) = (   0.3333167   0.0000000   0.0000000), wk =   0.2222222
        k(    6) = (   0.3333167   0.3662766   0.0000000), wk =   0.4444444
        k(    7) = (   0.3333167   0.7325532   0.0000000), wk =   0.4444444
        k(    8) = (   0.3333167  -1.0988299   0.0000000), wk =   0.2222222

     Dense  grid:   795239 G-vectors     FFT dimensions: (  90,  40, 480)

     Estimated max dynamical RAM per process >     143.17 MB

     Estimated total dynamical RAM >       5.03 GB

     Initial potential from superposition of free atoms

     starting charge     286.6604, renormalised to     288.0000

     negative rho (up, down):  7.504E-04 0.000E+00
     Starting wfcs are random

     total cpu time spent up to now is      457.0 secs

     per-process dynamical memory:   239.6 Mb

     Self-consistent Calculation

     iteration #  1     ecut=   120.00 Ry     beta= 0.40
     Davidson diagonalization with overlap
     c_bands:  3 eigenvalues not converged
     c_bands:  2 eigenvalues not converged
     c_bands:  2 eigenvalues not converged
     c_bands:  2 eigenvalues not converged
     c_bands:  2 eigenvalues not converged
     c_bands:  1 eigenvalues not converged
     c_bands:  1 eigenvalues not converged
     ethr =  1.00E-06,  avg # of iterations = 59.9

     negative rho (up, down):  4.065E-04 0.000E+00

     total cpu time spent up to now is      539.7 secs

     total energy              =   -2151.07366422 Ry
     estimated scf accuracy    <      16.10326942 Ry

     iteration #  2     ecut=   120.00 Ry     beta= 0.40
     Davidson diagonalization with overlap
     ethr =  5.59E-03,  avg # of iterations =  4.5

     negative rho (up, down):  2.681E-04 0.000E+00

     total cpu time spent up to now is      548.0 secs

     total energy              =   -2153.65151256 Ry
     estimated scf accuracy    <       8.19066153 Ry

     iteration #  3     ecut=   120.00 Ry     beta= 0.40
     Davidson diagonalization with overlap
     ethr =  2.84E-03,  avg # of iterations =  7.6

     negative rho (up, down):  2.520E-04 0.000E+00

     total cpu time spent up to now is      556.7 secs

     total energy              =   -2151.19389958 Ry
     estimated scf accuracy    <     168.99466920 Ry

     iteration #  4     ecut=   120.00 Ry     beta= 0.40
     Davidson diagonalization with overlap
     ethr =  2.84E-03,  avg # of iterations =  1.6

     negative rho (up, down):  1.779E-04 0.000E+00

     total cpu time spent up to now is      562.7 secs

     total energy              =   -2155.80083854 Ry
     estimated scf accuracy    <       0.88934546 Ry

     iteration #  5     ecut=   120.00 Ry     beta= 0.40
     Davidson diagonalization with overlap
     c_bands:  4 eigenvalues not converged
     c_bands:  4 eigenvalues not converged
     ethr =  3.09E-04,  avg # of iterations = 10.9

     negative rho (up, down):  7.615E-05 0.000E+00

     total cpu time spent up to now is      572.1 secs

     total energy              =   -2155.85481658 Ry
     estimated scf accuracy    <       0.20395436 Ry

     iteration #  6     ecut=   120.00 Ry     beta= 0.40
     Davidson diagonalization with overlap
     c_bands:  1 eigenvalues not converged
     c_bands:  2 eigenvalues not converged
     ethr =  7.08E-05,  avg # of iterations = 14.0

     negative rho (up, down):  1.058E-05 0.000E+00

     total cpu time spent up to now is      583.2 secs

     total energy              =   -2155.90023328 Ry
     estimated scf accuracy    <       0.03437977 Ry

     iteration #  7     ecut=   120.00 Ry     beta= 0.40
     Davidson diagonalization with overlap
     c_bands:  1 eigenvalues not converged
     c_bands:  1 eigenvalues not converged
     ethr =  1.19E-05,  avg # of iterations = 11.6

     negative rho (up, down):  1.286E-06 0.000E+00

     total cpu time spent up to now is      592.8 secs

     total energy              =   -2155.90123345 Ry
     estimated scf accuracy    <       0.02163326 Ry

     iteration #  8     ecut=   120.00 Ry     beta= 0.40
     Davidson diagonalization with overlap
     c_bands:  2 eigenvalues not converged
     ethr =  7.51E-06,  avg # of iterations =  5.9

     negative rho (up, down):  2.507E-07 0.000E+00

     total cpu time spent up to now is      599.8 secs

     total energy              =   -2155.90197166 Ry
     estimated scf accuracy    <       0.00764222 Ry

     iteration #  9     ecut=   120.00 Ry     beta= 0.40
     Davidson diagonalization with overlap
     c_bands:  1 eigenvalues not converged
     ethr =  2.65E-06,  avg # of iterations = 11.6

     negative rho (up, down):  1.471E-08 0.000E+00

     total cpu time spent up to now is      608.9 secs

     total energy              =   -2155.90258030 Ry
     estimated scf accuracy    <       0.00436482 Ry

     iteration # 10     ecut=   120.00 Ry     beta= 0.40
     Davidson diagonalization with overlap
     ethr =  1.52E-06,  avg # of iterations =  2.9

     total cpu time spent up to now is      615.3 secs

     total energy              =   -2155.90257852 Ry
     estimated scf accuracy    <       0.00329374 Ry

     iteration # 11     ecut=   120.00 Ry     beta= 0.40
     Davidson diagonalization with overlap
     ethr =  1.14E-06,  avg # of iterations =  1.4

     total cpu time spent up to now is      621.1 secs

     total energy              =   -2155.90253493 Ry
     estimated scf accuracy    <       0.00284067 Ry

     iteration # 12     ecut=   120.00 Ry     beta= 0.40
     Davidson diagonalization with overlap
     ethr =  9.86E-07,  avg # of iterations =  1.0

     total cpu time spent up to now is      626.8 secs

     total energy              =   -2155.90243765 Ry
     estimated scf accuracy    <       0.00247859 Ry

     iteration # 13     ecut=   120.00 Ry     beta= 0.40
     Davidson diagonalization with overlap
     ethr =  8.61E-07,  avg # of iterations =  2.8

     total cpu time spent up to now is      633.0 secs

     total energy              =   -2155.90236490 Ry
     estimated scf accuracy    <       0.00193928 Ry

     iteration # 14     ecut=   120.00 Ry     beta= 0.40
     Davidson diagonalization with overlap
     ethr =  6.73E-07,  avg # of iterations =  6.2

     total cpu time spent up to now is      639.8 secs

     total energy              =   -2155.90231028 Ry
     estimated scf accuracy    <       0.00148645 Ry

     iteration # 15     ecut=   120.00 Ry     beta= 0.40
     Davidson diagonalization with overlap
     ethr =  5.16E-07,  avg # of iterations =  1.4

     total cpu time spent up to now is      645.7 secs

     total energy              =   -2155.90217955 Ry
     estimated scf accuracy    <       0.00114196 Ry

     iteration # 16     ecut=   120.00 Ry     beta= 0.40
     Davidson diagonalization with overlap
     c_bands:  1 eigenvalues not converged
     ethr =  3.97E-07,  avg # of iterations = 10.1

     total cpu time spent up to now is      653.6 secs

     total energy              =   -2155.90213437 Ry
     estimated scf accuracy    <       0.00051711 Ry

     iteration # 17     ecut=   120.00 Ry     beta= 0.40
     Davidson diagonalization with overlap
     ethr =  1.80E-07,  avg # of iterations =  7.9

     total cpu time spent up to now is      660.9 secs

     total energy              =   -2155.90213556 Ry
     estimated scf accuracy    <       0.00018534 Ry

     iteration # 18     ecut=   120.00 Ry     beta= 0.40
     Davidson diagonalization with overlap
     ethr =  6.44E-08,  avg # of iterations =  6.4

     total cpu time spent up to now is      668.4 secs

     total energy              =   -2155.90214777 Ry
     estimated scf accuracy    <       0.00005870 Ry

     iteration # 19     ecut=   120.00 Ry     beta= 0.40
     Davidson diagonalization with overlap
     c_bands:  2 eigenvalues not converged
     c_bands:  1 eigenvalues not converged
     ethr =  2.04E-08,  avg # of iterations = 10.9

     total cpu time spent up to now is      677.1 secs

     total energy              =   -2155.90215418 Ry
     estimated scf accuracy    <       0.00002668 Ry

     iteration # 20     ecut=   120.00 Ry     beta= 0.40
     Davidson diagonalization with overlap
     ethr =  9.26E-09,  avg # of iterations =  3.2

     total cpu time spent up to now is      683.5 secs

     total energy              =   -2155.90215390 Ry
     estimated scf accuracy    <       0.00002635 Ry

     iteration # 21     ecut=   120.00 Ry     beta= 0.40
     Davidson diagonalization with overlap
     ethr =  9.15E-09,  avg # of iterations =  1.1

     total cpu time spent up to now is      689.3 secs

     total energy              =   -2155.90215228 Ry
     estimated scf accuracy    <       0.00002199 Ry

     iteration # 22     ecut=   120.00 Ry     beta= 0.40
     Davidson diagonalization with overlap
     ethr =  7.64E-09,  avg # of iterations =  1.8

     total cpu time spent up to now is      695.4 secs

     total energy              =   -2155.90214961 Ry
     estimated scf accuracy    <       0.00001367 Ry

     iteration # 23     ecut=   120.00 Ry     beta= 0.40
     Davidson diagonalization with overlap
     ethr =  4.75E-09,  avg # of iterations =  6.2

     total cpu time spent up to now is      702.8 secs

     total energy              =   -2155.90215014 Ry
     estimated scf accuracy    <       0.00000283 Ry

     iteration # 24     ecut=   120.00 Ry     beta= 0.40
     Davidson diagonalization with overlap
     c_bands:  1 eigenvalues not converged
     ethr =  9.84E-10,  avg # of iterations =  9.6

     total cpu time spent up to now is      712.3 secs

     total energy              =   -2155.90215067 Ry
     estimated scf accuracy    <       0.00000071 Ry

     iteration # 25     ecut=   120.00 Ry     beta= 0.40
     Davidson diagonalization with overlap
     ethr =  2.47E-10,  avg # of iterations =  5.5

     total cpu time spent up to now is      720.3 secs

     total energy              =   -2155.90215082 Ry
     estimated scf accuracy    <       0.00000003 Ry

     iteration # 26     ecut=   120.00 Ry     beta= 0.40
     Davidson diagonalization with overlap
     c_bands:  1 eigenvalues not converged
     ethr =  9.98E-12,  avg # of iterations =  7.4

     total cpu time spent up to now is      730.4 secs

     total energy              =   -2155.90215083 Ry
     estimated scf accuracy    <       0.00000002 Ry

     iteration # 27     ecut=   120.00 Ry     beta= 0.40
     Davidson diagonalization with overlap
     ethr =  7.47E-12,  avg # of iterations =  2.9

     total cpu time spent up to now is      737.1 secs

     total energy              =   -2155.90215083 Ry
     estimated scf accuracy    <       0.00000002 Ry

     iteration # 28     ecut=   120.00 Ry     beta= 0.40
     Davidson diagonalization with overlap
     ethr =  6.34E-12,  avg # of iterations =  5.1

     total cpu time spent up to now is      744.6 secs

     End of self-consistent calculation

          k = 0.0000 0.0000 0.0000 ( 99471 PWs)   bands (ev):

   -54.9055 -54.9007 -54.7597 -54.7549 -54.6973 -54.6934 -54.6891 -54.6853
   -54.6033 -54.5991 -54.3016 -54.2970 -31.2229 -31.2176 -31.1111 -31.1065
   -31.0983 -31.0934 -31.0231 -31.0181 -31.0135 -31.0091 -31.0089 -31.0025
   -31.0002 -30.9922 -30.9100 -30.9046 -30.8507 -30.8471 -30.8439 -30.8437
   -30.8397 -30.8394 -30.8317 -30.8268 -30.7966 -30.7886 -30.7804 -30.7726
   -30.7121 -30.7078 -30.5847 -30.5802 -30.5551 -30.5505 -30.3641 -30.3594
   -15.9005 -15.8261 -15.6227 -15.4698 -15.3902 -15.3348 -15.2314 -15.1662
   -14.9302 -14.7935 -14.6382 -14.6324 -14.5748 -14.5693 -14.2514 -14.2108
   -14.1998 -14.1996 -14.1776 -14.1594 -14.1467 -14.1223 -13.8532 -13.8486
    -3.4584  -3.3719  -3.2851  -3.2726  -3.2464  -3.2426  -3.1704  -3.1062
    -2.8082  -2.7854  -2.5067  -2.3226  -2.0734  -2.0228  -2.0162  -1.8925
    -1.8834  -1.5716  -1.5625  -1.5387  -1.5369  -1.5149  -1.4896  -1.4864
    -1.4384  -1.4356  -1.2406  -1.2346  -1.1360  -1.0668  -0.9874  -0.6965
    -0.6162  -0.5237  -0.4831  -0.3723  -0.3543  -0.3530  -0.2887  -0.2799
    -0.1424  -0.0832   0.0015   0.0254   0.1129   0.1156   0.2538   0.3781
     0.4042   0.4120   0.4499   0.4825   0.5119   0.5237   0.7746   0.7964
     0.8028   0.8156   1.0559   1.0604   1.0809   1.0838   1.1067   1.1147
     1.1381   1.1430   1.5419   1.5871   1.6194   1.7684   1.9188   2.0500
     4.1169   4.1272   4.1613   4.2049   4.2372   4.2428   4.5273   4.5651
     4.5696   4.5746   4.7401   4.7560   4.7562   4.8105   4.8273   4.8868
     5.0572   5.0620   5.0659   5.0750   5.1909   5.3237   5.3778   5.4825
     5.5292   5.6709   5.7515   5.7578   5.8112

          k = 0.0000 0.3663 0.0000 ( 99425 PWs)   bands (ev):

   -54.8955 -54.8907 -54.7499 -54.7451 -54.6867 -54.6833 -54.6795 -54.6763
   -54.5938 -54.5895 -54.2912 -54.2866 -31.1991 -31.1939 -31.1496 -31.1445
   -31.0964 -31.0918 -31.0788 -31.0739 -30.9873 -30.9828 -30.9805 -30.9763
   -30.9748 -30.9687 -30.9426 -30.9377 -30.9289 -30.9270 -30.8993 -30.8916
   -30.8705 -30.8693 -30.8454 -30.8422 -30.8373 -30.8329 -30.8261 -30.8220
   -30.8174 -30.8131 -30.5765 -30.5720 -30.5488 -30.5442 -30.4750 -30.4703
   -15.6390 -15.5754 -15.3929 -15.2536 -15.1755 -15.1244 -15.0315 -14.9802
   -14.7840 -14.6784 -14.6310 -14.6247 -14.4534 -14.4482 -14.3405 -14.3133
   -14.2992 -14.2954 -14.2824 -14.2623 -14.2499 -14.2335 -13.9149 -13.9101
    -3.0976  -3.0417  -2.9865  -2.9704  -2.9274  -2.9238  -2.8907  -2.8237
    -2.5339  -2.5122  -2.2787  -2.2461  -2.2076  -2.1884  -2.0949  -2.0759
    -2.0678  -2.0293  -1.9927  -1.8854  -1.8821  -1.8079  -1.7758  -1.7132
    -1.4952  -1.3467  -1.2709  -0.9169  -0.9082  -0.8296  -0.7128  -0.5856
    -0.4483  -0.4052  -0.4018  -0.3026  -0.2948  -0.2286  -0.1480  -0.1319
    -0.1031  -0.0566   0.0455   0.0628   0.0849   0.1149   0.1345   0.1589
     0.1897   0.1997   0.2156   0.2272   0.3036   0.3177   0.4331   0.5233
     0.5472   0.6578   0.7194   0.7464   0.7778   0.8305   0.8636   0.9065
     1.0946   1.1175   1.1386   1.1562   1.1607   1.6915   1.7743   1.8833
     4.2302   4.2356   4.3616   4.4539   4.4659   4.4710   4.4904   4.4935
     4.5400   4.6088   4.6517   4.8691   4.8856   4.9223   4.9451   5.0083
     5.2235   5.2712   5.3032   5.3384   5.4433   5.4732   5.4978   5.5350
     5.6245   5.6529   5.6594   5.6947   5.9302

          k = 0.0000 0.7326 0.0000 ( 99432 PWs)   bands (ev):

   -54.8754 -54.8706 -54.7304 -54.7256 -54.6649 -54.6630 -54.6605 -54.6587
   -54.5746 -54.5703 -54.2703 -54.2657 -31.3731 -31.3680 -31.1660 -31.1612
   -31.1376 -31.1335 -31.1288 -31.1279 -31.1135 -31.1120 -31.0693 -31.0680
   -31.0644 -31.0633 -31.0322 -31.0281 -30.9336 -30.9291 -30.9260 -30.9207
   -30.9177 -30.9142 -30.8718 -30.8693 -30.8393 -30.8380 -30.8203 -30.8157
   -30.7888 -30.7847 -30.7378 -30.7332 -30.5368 -30.5322 -30.5063 -30.5018
   -15.0532 -15.0396 -15.0157 -14.9577 -14.7547 -14.7362 -14.7316 -14.6590
   -14.6416 -14.6385 -14.5249 -14.5115 -14.5057 -14.5010 -14.4902 -14.4738
   -14.4564 -14.4505 -14.3912 -14.3694 -14.2246 -14.2186 -13.8971 -13.8924
    -2.5526  -2.4958  -2.4876  -2.4692  -2.4591  -2.4487  -2.4072  -2.3682
    -2.3132  -2.3078  -2.2402  -2.2214  -2.2009  -2.1867  -2.1469  -2.1391
    -2.0651  -2.0569  -2.0447  -1.9752  -1.9351  -1.8959  -1.8688  -1.6880
    -1.5332  -1.3477  -1.3334  -1.2728  -1.2217  -1.1730  -1.1325  -1.0870
    -1.0813  -1.0580  -0.8831  -0.8384  -0.8232  -0.5060  -0.4533  -0.3260
    -0.2643  -0.2265  -0.1837  -0.0112   0.0206   0.0256   0.0854   0.1112
     0.1303   0.1839   0.2089   0.2537   0.3236   0.4439   0.4602   0.4657
     0.4681   0.6657   0.7203   0.7246   0.7260   0.7889   0.8035   0.8097
     1.0124   1.0258   1.0347   1.0581   1.1427   1.1996   1.2526   1.3231
     4.5374   4.5745   4.5894   4.5957   4.6672   4.7171   4.8316   4.8537
     4.8975   4.9242   5.0347   5.0401   5.0493   5.0741   5.1594   5.1718
     5.2154   5.2387   5.2475   5.3687   5.4303   5.5227   5.6549   5.6954
     5.7146   5.7486   5.7727   5.7930   5.8860

          k = 0.0000-1.0988 0.0000 ( 99352 PWs)   bands (ev):

   -54.8653 -54.8605 -54.7206 -54.7158 -54.6527 -54.6526 -54.6514 -54.6507
   -54.5650 -54.5607 -54.2598 -54.2552 -31.4814 -31.4761 -31.2699 -31.2651
   -31.2354 -31.2346 -31.2220 -31.2206 -31.1360 -31.1318 -31.0931 -31.0882
   -31.0786 -31.0735 -31.0544 -31.0497 -30.9061 -30.9015 -30.9014 -30.8986
   -30.8746 -30.8741 -30.8676 -30.8629 -30.8613 -30.8610 -30.8473 -30.8456
   -30.7955 -30.7910 -30.7693 -30.7653 -30.5312 -30.5266 -30.4874 -30.4830
   -15.0354 -15.0272 -14.7195 -14.7154 -14.6331 -14.6216 -14.6035 -14.5933
   -14.5822 -14.5598 -14.5555 -14.5445 -14.5347 -14.5305 -14.5086 -14.4895
   -14.4649 -14.4395 -14.3290 -14.3208 -14.2103 -14.1944 -13.7515 -13.7467
    -2.8999  -2.7968  -2.5541  -2.4949  -2.4772  -2.4312  -2.3807  -2.3527
    -2.3001  -2.2262  -2.2061  -2.1676  -2.0605  -2.0477  -2.0367  -2.0340
    -2.0287  -1.9371  -1.8897  -1.8723  -1.8681  -1.8400  -1.7533  -1.6718
    -1.6494  -1.5092  -1.4274  -1.3992  -1.2511  -1.2410  -1.2282  -1.2241
    -0.8709  -0.7842  -0.6422  -0.6360  -0.5950  -0.5932  -0.5604  -0.5398
    -0.5342  -0.4517  -0.3924  -0.2744  -0.2671  -0.1988  -0.1785  -0.1343
     0.0268   0.1245   0.1812   0.2159   0.2723   0.4010   0.4806   0.5449
     0.5682   0.6175   0.7399   0.8224   0.9115   0.9187   0.9236   0.9416
     0.9442   0.9464   0.9654   0.9806   1.0755   1.1144   1.1320   1.2753
     4.2911   4.5789   4.8112   4.8205   4.8423   5.0127   5.0793   5.0842
     5.0913   5.1350   5.1784   5.1809   5.2728   5.2826   5.2869   5.3768
     5.3944   5.4347   5.4371   5.4400   5.4646   5.5058   5.5094   5.5627
     5.5698   5.6293   5.6324   5.6565   5.7561

          k = 0.3333 0.0000 0.0000 ( 99379 PWs)   bands (ev):

   -54.9055 -54.9007 -54.7597 -54.7549 -54.6954 -54.6924 -54.6901 -54.6871
   -54.6034 -54.5991 -54.3016 -54.2971 -31.2231 -31.2178 -31.0987 -31.0952
   -31.0937 -31.0905 -31.0229 -31.0180 -31.0061 -31.0016 -30.9999 -30.9949
   -30.9735 -30.9661 -30.9091 -30.9085 -30.8845 -30.8817 -30.8612 -30.8572
   -30.8433 -30.8389 -30.8316 -30.8267 -30.7928 -30.7865 -30.7825 -30.7764
   -30.7122 -30.7079 -30.5846 -30.5801 -30.5633 -30.5587 -30.3641 -30.3595
   -15.7517 -15.6965 -15.4662 -15.3357 -15.2955 -15.2544 -15.1918 -15.1484
   -15.0313 -14.8764 -14.7671 -14.7614 -14.5676 -14.5612 -14.3243 -14.3189
   -14.2928 -14.2660 -14.2430 -14.2271 -14.2097 -14.1889 -13.8495 -13.8448
    -3.2886  -3.2434  -2.9727  -2.8953  -2.8514  -2.8437  -2.8358  -2.8264
    -2.7526  -2.7349  -2.1620  -2.0567  -2.0250  -1.9330  -1.8945  -1.8854
    -1.7406  -1.5642  -1.5555  -1.4864  -1.4702  -1.4309  -1.4275  -1.3718
    -1.3691  -1.3664  -1.3595  -1.2631  -1.2402  -1.2343  -1.1465  -0.9887
    -0.8943  -0.8148  -0.7096  -0.6805  -0.5712  -0.5580  -0.4845  -0.3474
    -0.3031  -0.2407  -0.1853  -0.0063   0.0531   0.0590   0.0701   0.2296
     0.3450   0.3488   0.4153   0.4650   0.4878   0.5291   0.5353   0.5654
     0.6337   0.6947   0.8397   0.8575   0.9284   0.9975   1.0044   1.0068
     1.0520   1.0797   1.1836   1.1876   1.2378   1.5815   1.6747   1.7927
     4.4723   4.4841   4.5487   4.5729   4.6035   4.6217   4.6547   4.6610
     4.7987   4.8195   4.8310   4.8352   4.9043   4.9108   5.0277   5.0358
     5.1043   5.1582   5.2942   5.3031   5.3618   5.5132   5.5209   5.7014
     5.7126   5.7181   5.7449   5.7782   5.7939

          k = 0.3333 0.3663 0.0000 ( 99351 PWs)   bands (ev):

   -54.8955 -54.8907 -54.7499 -54.7451 -54.6850 -54.6825 -54.6804 -54.6778
   -54.5938 -54.5895 -54.2912 -54.2866 -31.1991 -31.1939 -31.1499 -31.1448
   -31.0872 -31.0826 -31.0791 -31.0742 -30.9817 -30.9772 -30.9754 -30.9709
   -30.9546 -30.9515 -30.9437 -30.9389 -30.9290 -30.9229 -30.9064 -30.9025
   -30.8713 -30.8710 -30.8602 -30.8594 -30.8400 -30.8359 -30.8348 -30.8305
   -30.8155 -30.8112 -30.5766 -30.5721 -30.5536 -30.5490 -30.4748 -30.4701
   -15.5108 -15.4657 -15.2577 -15.1223 -15.1016 -15.0549 -14.9924 -14.9602
   -14.8617 -14.7371 -14.6339 -14.6246 -14.6029 -14.5980 -14.4173 -14.4092
   -14.3767 -14.3609 -14.3295 -14.3021 -14.2638 -14.2584 -13.9104 -13.9056
    -2.9689  -2.9426  -2.6624  -2.6110  -2.5613  -2.5468  -2.5226  -2.5153
    -2.4523  -2.4435  -2.2519  -2.2449  -2.1129  -2.0980  -2.0541  -2.0470
    -1.9686  -1.9650  -1.8796  -1.7854  -1.7422  -1.7329  -1.6018  -1.5701
    -1.4711  -1.3556  -1.1862  -0.9845  -0.9129  -0.8710  -0.7931  -0.7539
    -0.7251  -0.6842  -0.6420  -0.5558  -0.5443  -0.5306  -0.4869  -0.4320
    -0.3293  -0.2480  -0.2396  -0.1634  -0.1063  -0.1059  -0.0866  -0.0643
    -0.0373   0.0420   0.0721   0.0948   0.1316   0.1869   0.2426   0.2633
     0.3601   0.4866   0.5710   0.6791   0.9103   0.9154   1.0796   1.0823
     1.1774   1.1950   1.2176   1.2465   1.3056   1.5555   1.6191   1.7033
     4.3385   4.3428   4.5197   4.5267   4.5780   4.6194   4.6619   4.7675
     4.7967   4.8125   4.8687   4.8713   4.9398   4.9467   5.0310   5.0937
     5.2741   5.3001   5.4195   5.4637   5.5003   5.5017   5.6123   5.6855
     5.7678   5.7880   5.8429   5.8928   5.9299

          k = 0.3333 0.7326 0.0000 ( 99390 PWs)   bands (ev):

   -54.8754 -54.8706 -54.7304 -54.7256 -54.6639 -54.6626 -54.6609 -54.6595
   -54.5746 -54.5703 -54.2703 -54.2657 -31.3735 -31.3683 -31.1685 -31.1636
   -31.1385 -31.1351 -31.1294 -31.1283 -31.1206 -31.1190 -31.0945 -31.0900
   -31.0693 -31.0643 -31.0019 -30.9974 -30.9325 -30.9280 -30.9252 -30.9223
   -30.8935 -30.8901 -30.8710 -30.8702 -30.8540 -30.8523 -30.8200 -30.8155
   -30.7922 -30.7882 -30.7369 -30.7323 -30.5362 -30.5316 -30.5062 -30.5017
   -15.0213 -15.0135 -14.9813 -14.9338 -14.7898 -14.7849 -14.7317 -14.7271
   -14.6761 -14.6432 -14.5961 -14.5815 -14.5113 -14.5058 -14.4824 -14.4748
   -14.4142 -14.4000 -14.3466 -14.3320 -14.2200 -14.2143 -13.8972 -13.8924
    -2.5117  -2.4952  -2.4658  -2.4563  -2.3623  -2.3553  -2.3485  -2.3241
    -2.2747  -2.2188  -2.1592  -2.1562  -2.1127  -2.1093  -2.0651  -2.0363
    -2.0138  -1.9684  -1.9411  -1.9147  -1.9091  -1.8488  -1.7852  -1.7790
    -1.5682  -1.4903  -1.3461  -1.3090  -1.2661  -1.2612  -1.1559  -1.1343
    -0.9336  -0.9139  -0.8071  -0.7772  -0.7056  -0.5797  -0.5000  -0.4132
    -0.3432  -0.3253  -0.2330  -0.2236  -0.1331  -0.1057  -0.0722  -0.0567
    -0.0235   0.0080   0.1133   0.1611   0.1881   0.3099   0.4257   0.4321
     0.4753   0.5231   0.6882   0.7065   0.7446   0.7904   0.8612   0.8870
     0.9457   1.0138   1.1461   1.2118   1.2816   1.3296   1.3456   1.3603
     4.3058   4.3318   4.3670   4.4381   4.4557   4.5008   4.7523   4.8638
     4.8738   4.9358   5.0328   5.0739   5.1105   5.1506   5.2264   5.2575
     5.2808   5.3169   5.3324   5.3558   5.4823   5.5513   5.6304   5.6549
     5.7281   5.7298   5.8577   5.8967   5.9886

          k = 0.3333-1.0988 0.0000 ( 99520 PWs)   bands (ev):

   -54.8653 -54.8605 -54.7206 -54.7158 -54.6526 -54.6526 -54.6514 -54.6507
   -54.5650 -54.5607 -54.2598 -54.2552 -31.4818 -31.4766 -31.2726 -31.2678
   -31.2360 -31.2356 -31.2285 -31.2277 -31.1584 -31.1542 -31.0940 -31.0891
   -31.0786 -31.0734 -31.0304 -31.0258 -30.9119 -30.9073 -30.9007 -30.8993
   -30.8671 -30.8670 -30.8620 -30.8611 -30.8607 -30.8573 -30.8461 -30.8451
   -30.7953 -30.7908 -30.7688 -30.7648 -30.5279 -30.5233 -30.4875 -30.4830
   -15.0337 -15.0257 -14.8169 -14.8121 -14.8024 -14.7990 -14.7544 -14.7504
   -14.7140 -14.7107 -14.6029 -14.5642 -14.3515 -14.3471 -14.3317 -14.3266
   -14.2623 -14.2592 -14.2531 -14.2495 -14.2085 -14.2004 -13.7514 -13.7466
    -2.8332  -2.8233  -2.8159  -2.7506  -2.6871  -2.6412  -2.5191  -2.5148
    -2.5105  -2.4580  -2.2913  -2.0861  -2.0688  -2.0409  -1.9180  -1.9081
    -1.8734  -1.8695  -1.8674  -1.7935  -1.6640  -1.6615  -1.6584  -1.6532
    -1.5022  -1.4721  -1.2174  -1.1624  -1.1548  -1.0275  -0.9409  -0.8660
    -0.8541  -0.8479  -0.7887  -0.6008  -0.5833  -0.5747  -0.5719  -0.5413
    -0.4746  -0.4552  -0.4482  -0.3902  -0.2307  -0.2113   0.0050   0.1075
     0.1170   0.1650   0.2024   0.2889   0.3893   0.4394   0.5311   0.5623
     0.5838   0.6046   0.6283   0.6895   0.7136   0.7189   0.7280   0.8079
     0.8521   0.9052   0.9150   0.9593   0.9642   1.2016   1.2583   1.2924
     4.2820   4.2921   4.3531   4.4136   4.4922   4.6293   4.6365   4.7084
     4.8699   4.9510   5.1488   5.1539   5.1846   5.2841   5.3078   5.3614
     5.3985   5.4005   5.4102   5.4272   5.5003   5.5047   5.6505   5.6549
     5.6665   5.8250   5.9613   5.9723   5.9903

     the Fermi energy is     3.0697 ev

!    total energy              =   -2155.90215083 Ry
     estimated scf accuracy    <          1.1E-09 Ry
     smearing contrib. (-TS)   =      -0.00000000 Ry
     internal energy E=F+TS    =   -2155.90215083 Ry

     The total energy is F=E-TS. E is the sum of the following terms:
     one-electron contribution =  -29199.36145245 Ry
     hartree contribution      =   14661.38160005 Ry
     xc contribution           =    -340.13288061 Ry
     ewald contribution        =   12722.21058218 Ry

     convergence has been achieved in  28 iterations

     Forces acting on atoms (cartesian axes, Ry/au):

     atom    1 type  1   force =     0.00000000    0.00000000   -0.00056411
     atom    2 type  1   force =     0.00000000    0.00000000    0.00007814
     atom    3 type  1   force =     0.00000000    0.00000000    0.00021714
     atom    4 type  1   force =     0.00000000    0.00000000   -0.00002401
     atom    5 type  1   force =     0.00000000    0.00000000   -0.00004643
     atom    6 type  1   force =     0.00000000    0.00000000   -0.00016031
     atom    7 type  1   force =     0.00000000    0.00000000    0.00001735
     atom    8 type  1   force =     0.00000000    0.00000000    0.00015117
     atom    9 type  1   force =     0.00000000    0.00000000    0.00004493
     atom   10 type  1   force =     0.00000000    0.00000000    0.00003983
     atom   11 type  1   force =     0.00000000    0.00000000    0.00013672
     atom   12 type  1   force =     0.00000000    0.00000000   -0.00006786
     atom   13 type  2   force =     0.00000000    0.00000000    0.00013864
     atom   14 type  2   force =     0.00000000    0.00000000   -0.00016527
     atom   15 type  2   force =     0.00000000    0.00000000    0.00012776
     atom   16 type  2   force =     0.00004156    0.00000000   -0.00081333
     atom   17 type  2   force =    -0.00004156    0.00000000   -0.00081333
     atom   18 type  2   force =     0.00000000    0.00000000   -0.00031713
     atom   19 type  2   force =     0.00000000    0.00000000   -0.00001683
     atom   20 type  2   force =     0.00011850    0.00000000    0.00011943
     atom   21 type  2   force =    -0.00011850    0.00000000    0.00011943
     atom   22 type  2   force =     0.00000000    0.00000000    0.00007910
     atom   23 type  2   force =     0.00000000    0.00000000   -0.00001127
     atom   24 type  2   force =     0.00009294    0.00000000   -0.00004524
     atom   25 type  2   force =    -0.00009294    0.00000000   -0.00004524
     atom   26 type  2   force =     0.00000000    0.00000000    0.00001357
     atom   27 type  2   force =     0.00000000    0.00000000    0.00014940
     atom   28 type  2   force =     0.00011713    0.00000000    0.00004308
     atom   29 type  2   force =    -0.00011713    0.00000000    0.00004308
     atom   30 type  2   force =     0.00000000    0.00000000    0.00017295
     atom   31 type  2   force =     0.00000000    0.00000000    0.00011182
     atom   32 type  2   force =    -0.00005105    0.00000000    0.00038036
     atom   33 type  2   force =     0.00005105    0.00000000    0.00038036
     atom   34 type  2   force =     0.00000000    0.00000000   -0.00006917
     atom   35 type  2   force =    -0.00010107    0.00000000    0.00029764
     atom   36 type  2   force =     0.00010107    0.00000000    0.00029764

     Total force =     0.001618     Total SCF correction =     0.000185
     SCF correction compared to forces is large: reduce conv_thr to get better values


     Computing stress (Cartesian axis) and pressure

          total   stress  (Ry/bohr**3)                   (kbar)     P=        0.07
   0.00000029   0.00000000   0.00000000            0.04        0.00        0.00
   0.00000000  -0.00000024   0.00000000            0.00       -0.04        0.00
   0.00000000   0.00000000   0.00000130            0.00        0.00        0.19


     Writing all to output data dir ./Out/pwscf.save/
 
     init_run     :      4.43s CPU      5.32s WALL (       2 calls)
     electrons    :    652.14s CPU    659.82s WALL (       5 calls)
     update_pot   :      1.61s CPU      1.62s WALL (       3 calls)
     forces       :      7.10s CPU      7.19s WALL (       5 calls)
     stress       :     87.09s CPU     87.52s WALL (       5 calls)

     Called by init_run:
     wfcinit      :      3.69s CPU      4.29s WALL (       2 calls)
     potinit      :      0.24s CPU      0.25s WALL (       2 calls)
     hinit0       :      0.18s CPU      0.42s WALL (       2 calls)

     Called by electrons:
     c_bands      :    610.56s CPU    617.03s WALL (      71 calls)
     sum_band     :     39.29s CPU     39.79s WALL (      71 calls)
     v_of_rho     :      1.32s CPU      1.46s WALL (      73 calls)
     mix_rho      :      0.90s CPU      0.99s WALL (      71 calls)

     Called by c_bands:
     init_us_2    :      8.06s CPU      8.15s WALL (    1232 calls)
     init_us_2:cp :      8.05s CPU      8.15s WALL (    1232 calls)
     cegterg      :    584.10s CPU    590.05s WALL (     584 calls)

     Called by *egterg:
     cdiaghg      :     67.49s CPU     68.30s WALL (    4548 calls)
     h_psi        :    336.26s CPU    339.59s WALL (    4628 calls)
     g_psi        :      2.46s CPU      2.48s WALL (    4028 calls)

     Called by h_psi:
     h_psi:calbec :     56.63s CPU     57.00s WALL (    4628 calls)
     vloc_psi     :    224.31s CPU    226.18s WALL (    4628 calls)
     add_vuspsi   :     51.46s CPU     51.80s WALL (    4628 calls)

     General routines
     calbec       :     63.52s CPU     63.93s WALL (    4828 calls)
     fft          :      0.96s CPU      1.32s WALL (     771 calls)
     ffts         :      0.04s CPU      0.06s WALL (      71 calls)
     fftw         :    229.59s CPU    231.47s WALL (  669722 calls)
 
     Parallel routines
 
     PWSCF        :  12m33.74s CPU  12m46.48s WALL

 
   This run was terminated on:  15:54:40  17Jul2026            

=------------------------------------------------------------------------------=
   JOB DONE.
=------------------------------------------------------------------------------=
