
     Program PWSCF v.7.2 starts on 23Jul2026 at 12: 9:16 
        Git branch: krg.prod
        Last git commit: daa121e36ad33d2e2c57a5cfc9f193e3f68d7ebf
        Last git commit date: Wed Feb 25 11:53:28 2026 -0600
        Last git commit subject: use krg software repo instead

     This program is part of the open-source Quantum ESPRESSO suite
     for quantum simulation of materials; please cite
         "P. Giannozzi et al., J. Phys.:Condens. Matter 21 395502 (2009);
         "P. Giannozzi et al., J. Phys.:Condens. Matter 29 465901 (2017);
         "P. Giannozzi et al., J. Chem. Phys. 152 154105 (2020);
          URL http://www.quantum-espresso.org", 
     in publications or presentations arising from this work. More details at
     http://www.quantum-espresso.org/quote

     Serial multi-threaded version, running on    8 processor cores
     163489 MiB available memory on the printing compute node when the environment starts
 
     Waiting for input...
     Reading input from standard input
Warning: card &FCP ignored
Warning: card / ignored
Warning: card &RISM ignored
Warning: card / ignored

     Current dimensions of program PWSCF are:
     Max number of different atomic species (ntypx) = 10
     Max number of k-points (npk) =  40000
     Max angular momentum in pseudopotentials (lmaxx) =  4
     Message from routine setup:
     using ibrav=0 with symmetry is DISCOURAGED, use correct ibrav instead
 
 
     G-vector sticks info
     --------------------
     sticks:   dense  smooth     PW     G-vecs:    dense   smooth      PW
     Sum        2941    2941    845                76651    76651   11745
 
     Using Slab Decomposition
 


     bravais-lattice index     =            0
     lattice parameter (alat)  =       8.7713  a.u.
     unit-cell volume          =     431.6092 (a.u.)^3
     number of atoms/cell      =            6
     number of atomic types    =            2
     number of electrons       =        48.00
     number of Kohn-Sham states=           29
     kinetic-energy cutoff     =     120.0000  Ry
     charge density cutoff     =     480.0000  Ry
     scf convergence threshold =      1.0E-06
     mixing beta               =       0.4000
     number of iterations used =           20  plain     mixing
     energy convergence thresh.=      1.0E-04
     force convergence thresh. =      1.0E-03
     press convergence thresh. =      5.0E-01
     Exchange-correlation= PBE
                           (   1   4   3   4   0   0   0)
     nstep                     =           50


     GPU acceleration is ACTIVE.


     celldm(1)=   8.771311  celldm(2)=   0.000000  celldm(3)=   0.000000
     celldm(4)=   0.000000  celldm(5)=   0.000000  celldm(6)=   0.000000

     crystal axes: (cart. coord. in units of alat)
               a(1) = (   1.000000   0.000000   0.000000 )  
               a(2) = (   0.000000   1.000000   0.000000 )  
               a(3) = (   0.000000   0.000000   0.639583 )  

     reciprocal axes: (cart. coord. in units 2 pi/alat)
               b(1) = (  1.000000  0.000000  0.000000 )  
               b(2) = (  0.000000  1.000000  0.000000 )  
               b(3) = (  0.000000  0.000000  1.563518 )  


     PseudoPot. # 1 for Ti read from file:
     /cm/shared/apps/KO/pseudo/sg15/Ti_ONCV_PBE-1.2.upf
     MD5 check sum: 1aea57736bd12dcfee93c97d0b9b5968
     Pseudo is Norm-conserving, Zval = 12.0
     Generated using ONCVPSP code by D. R. Hamann
     Using radial grid of  602 points,  6 beta functions with: 
                l(1) =   0
                l(2) =   0
                l(3) =   1
                l(4) =   1
                l(5) =   2
                l(6) =   2

     PseudoPot. # 2 for O  read from file:
     /cm/shared/apps/KO/pseudo/sg15/O_ONCV_PBE-1.2.upf
     MD5 check sum: e36c48deb68f4e355fffe4602be2c42c
     Pseudo is Norm-conserving, Zval =  6.0
     Generated using ONCVPSP code by D. R. Hamann
     Using radial grid of  602 points,  4 beta functions with: 
                l(1) =   0
                l(2) =   0
                l(3) =   1
                l(4) =   1

     atomic species   valence    mass     pseudopotential
     Ti               12.00    47.86700     Ti( 1.00)
     O                 6.00    15.99900     O ( 1.00)

     16 Sym. Ops., with inversion, found ( 8 have fractional translation)



   Cartesian axes

     site n.     atom                  positions (alat units)
         1        Ti     tau(   1) = (   0.0000000   0.0000000  -0.0000000  )
         2        Ti     tau(   2) = (   0.5000000   0.5000000   0.3197917  )
         3        O      tau(   3) = (   0.3050227   0.3050227   0.0000000  )
         4        O      tau(   4) = (   0.6949773   0.6949773   0.0000000  )
         5        O      tau(   5) = (   0.8050227   0.1949773   0.3197917  )
         6        O      tau(   6) = (   0.1949773   0.8050227   0.3197917  )

     number of k points=    50  Gaussian smearing, width (Ry)=  0.0200
                       cart. coord. in units 2pi/alat
        k(    1) = (   0.0000000   0.0000000   0.0000000), wk =   0.0069444
        k(    2) = (   0.0000000   0.0000000   0.1954397), wk =   0.0138889
        k(    3) = (   0.0000000   0.0000000   0.3908795), wk =   0.0138889
        k(    4) = (   0.0000000   0.0000000   0.5863192), wk =   0.0138889
        k(    5) = (   0.0000000   0.0000000  -0.7817590), wk =   0.0069444
        k(    6) = (   0.0000000   0.1666667   0.0000000), wk =   0.0277778
        k(    7) = (   0.0000000   0.1666667   0.1954397), wk =   0.0555556
        k(    8) = (   0.0000000   0.1666667   0.3908795), wk =   0.0555556
        k(    9) = (   0.0000000   0.1666667   0.5863192), wk =   0.0555556
        k(   10) = (   0.0000000   0.1666667  -0.7817590), wk =   0.0277778
        k(   11) = (   0.0000000   0.3333333   0.0000000), wk =   0.0277778
        k(   12) = (   0.0000000   0.3333333   0.1954397), wk =   0.0555556
        k(   13) = (   0.0000000   0.3333333   0.3908795), wk =   0.0555556
        k(   14) = (   0.0000000   0.3333333   0.5863192), wk =   0.0555556
        k(   15) = (   0.0000000   0.3333333  -0.7817590), wk =   0.0277778
        k(   16) = (   0.0000000  -0.5000000   0.0000000), wk =   0.0138889
        k(   17) = (   0.0000000  -0.5000000   0.1954397), wk =   0.0277778
        k(   18) = (   0.0000000  -0.5000000   0.3908795), wk =   0.0277778
        k(   19) = (   0.0000000  -0.5000000   0.5863192), wk =   0.0277778
        k(   20) = (   0.0000000  -0.5000000  -0.7817590), wk =   0.0138889
        k(   21) = (   0.1666667   0.1666667   0.0000000), wk =   0.0277778
        k(   22) = (   0.1666667   0.1666667   0.1954397), wk =   0.0555556
        k(   23) = (   0.1666667   0.1666667   0.3908795), wk =   0.0555556
        k(   24) = (   0.1666667   0.1666667   0.5863192), wk =   0.0555556
        k(   25) = (   0.1666667   0.1666667  -0.7817590), wk =   0.0277778
        k(   26) = (   0.1666667   0.3333333   0.0000000), wk =   0.0555556
        k(   27) = (   0.1666667   0.3333333   0.1954397), wk =   0.1111111
        k(   28) = (   0.1666667   0.3333333   0.3908795), wk =   0.1111111
        k(   29) = (   0.1666667   0.3333333   0.5863192), wk =   0.1111111
        k(   30) = (   0.1666667   0.3333333  -0.7817590), wk =   0.0555556
        k(   31) = (   0.1666667  -0.5000000   0.0000000), wk =   0.0277778
        k(   32) = (   0.1666667  -0.5000000   0.1954397), wk =   0.0555556
        k(   33) = (   0.1666667  -0.5000000   0.3908795), wk =   0.0555556
        k(   34) = (   0.1666667  -0.5000000   0.5863192), wk =   0.0555556
        k(   35) = (   0.1666667  -0.5000000  -0.7817590), wk =   0.0277778
        k(   36) = (   0.3333333   0.3333333   0.0000000), wk =   0.0277778
        k(   37) = (   0.3333333   0.3333333   0.1954397), wk =   0.0555556
        k(   38) = (   0.3333333   0.3333333   0.3908795), wk =   0.0555556
        k(   39) = (   0.3333333   0.3333333   0.5863192), wk =   0.0555556
        k(   40) = (   0.3333333   0.3333333  -0.7817590), wk =   0.0277778
        k(   41) = (   0.3333333  -0.5000000   0.0000000), wk =   0.0277778
        k(   42) = (   0.3333333  -0.5000000   0.1954397), wk =   0.0555556
        k(   43) = (   0.3333333  -0.5000000   0.3908795), wk =   0.0555556
        k(   44) = (   0.3333333  -0.5000000   0.5863192), wk =   0.0555556
        k(   45) = (   0.3333333  -0.5000000  -0.7817590), wk =   0.0277778
        k(   46) = (  -0.5000000  -0.5000000   0.0000000), wk =   0.0069444
        k(   47) = (  -0.5000000  -0.5000000   0.1954397), wk =   0.0138889
        k(   48) = (  -0.5000000  -0.5000000   0.3908795), wk =   0.0138889
        k(   49) = (  -0.5000000  -0.5000000   0.5863192), wk =   0.0138889
        k(   50) = (  -0.5000000  -0.5000000  -0.7817590), wk =   0.0069444

     Dense  grid:    76651 G-vectors     FFT dimensions: (  64,  64,  40)

     Estimated max dynamical RAM per process >     323.87 MB

     Initial potential from superposition of free atoms

     starting charge      47.7767, renormalised to      48.0000
     Starting wfcs are random

     total cpu time spent up to now is        1.4 secs

     per-process dynamical memory:   512.5 Mb

     Self-consistent Calculation

     iteration #  1     ecut=   120.00 Ry     beta= 0.40
     Davidson diagonalization with overlap
     ethr =  1.00E-02,  avg # of iterations = 12.4

     total cpu time spent up to now is        3.7 secs

     total energy              =    -358.63121885 Ry
     estimated scf accuracy    <       2.41237615 Ry

     iteration #  2     ecut=   120.00 Ry     beta= 0.40
     Davidson diagonalization with overlap
     ethr =  5.03E-03,  avg # of iterations =  3.9

     total cpu time spent up to now is        4.7 secs

     total energy              =    -359.19571156 Ry
     estimated scf accuracy    <       0.40971867 Ry

     iteration #  3     ecut=   120.00 Ry     beta= 0.40
     Davidson diagonalization with overlap
     ethr =  8.54E-04,  avg # of iterations =  3.4

     total cpu time spent up to now is        5.5 secs

     total energy              =    -359.30564677 Ry
     estimated scf accuracy    <       0.03169988 Ry

     iteration #  4     ecut=   120.00 Ry     beta= 0.40
     Davidson diagonalization with overlap
     ethr =  6.60E-05,  avg # of iterations =  8.1

     total cpu time spent up to now is        7.0 secs

     total energy              =    -359.32421582 Ry
     estimated scf accuracy    <       0.02214294 Ry

     iteration #  5     ecut=   120.00 Ry     beta= 0.40
     Davidson diagonalization with overlap
     ethr =  4.61E-05,  avg # of iterations =  2.4

     total cpu time spent up to now is        7.7 secs

     total energy              =    -359.32803048 Ry
     estimated scf accuracy    <       0.00052927 Ry

     iteration #  6     ecut=   120.00 Ry     beta= 0.40
     Davidson diagonalization with overlap
     c_bands:  2 eigenvalues not converged
     c_bands:  1 eigenvalues not converged
     ethr =  1.10E-06,  avg # of iterations = 10.0

     total cpu time spent up to now is        9.4 secs

     total energy              =    -359.32849249 Ry
     estimated scf accuracy    <       0.00001785 Ry

     iteration #  7     ecut=   120.00 Ry     beta= 0.40
     Davidson diagonalization with overlap
     ethr =  3.72E-08,  avg # of iterations =  4.1

     total cpu time spent up to now is       10.4 secs

     total energy              =    -359.32849711 Ry
     estimated scf accuracy    <       0.00000723 Ry

     iteration #  8     ecut=   120.00 Ry     beta= 0.40
     Davidson diagonalization with overlap
     ethr =  1.51E-08,  avg # of iterations =  2.3

     total cpu time spent up to now is       11.1 secs

     End of self-consistent calculation

          k = 0.0000 0.0000 0.0000 (  9551 PWs)   bands (ev):

   -48.0486 -48.0337 -24.3416 -24.3416 -24.1915 -24.1915 -24.1452 -24.1152
    -9.1779  -8.0462  -7.3558  -7.3558   3.2122   3.6605   4.1342   5.1634
     5.1634   6.3572   6.3572   6.9612   8.1907   8.4333   8.4333   8.8704
    10.7722  11.0461  11.3187  11.4082  11.4087

          k = 0.0000 0.0000 0.1954 (  9591 PWs)   bands (ev):

   -48.0424 -48.0287 -24.3255 -24.3255 -24.2085 -24.1885 -24.1885 -24.1816
    -9.0212  -7.9580  -7.4278  -7.4278   3.4342   3.8273   4.3109   4.9896
     4.9896   6.5063   6.6667   6.6667   7.5788   8.1352   8.1352   8.8033
    11.1280  11.1914  11.2163  11.5928  11.5928

          k = 0.0000 0.0000 0.3909 (  9596 PWs)   bands (ev):

   -48.0273 -48.0167 -24.3582 -24.3390 -24.2845 -24.2845 -24.1830 -24.1830
    -8.6157  -7.7663  -7.6009  -7.6009   4.0013   4.2302   4.8266   4.8678
     4.8678   5.6227   6.4628   7.1256   7.1256   7.4239   7.4239   8.4545
    11.1192  11.4395  11.7141  12.0008  12.0020

          k = 0.0000 0.0000 0.5863 (  9604 PWs)   bands (ev):

   -48.0112 -48.0055 -24.5031 -24.4934 -24.2373 -24.2373 -24.1833 -24.1833
    -8.1277  -7.7729  -7.7729  -7.6459   4.5021   4.5464   5.0337   5.0337
     5.0904   5.6135   5.6340   6.6138   6.6138   7.3928   7.3928   7.6678
    11.3335  11.7277  12.1358  12.3700  12.3780

          k = 0.0000 0.0000-0.7818 (  9580 PWs)   bands (ev):

   -48.0027 -48.0027 -24.5591 -24.5591 -24.2071 -24.2071 -24.1939 -24.1939
    -7.8438  -7.8438  -7.7588  -7.7588   4.5006   4.5006   5.2754   5.2754
     5.3079   5.3079   6.1381   6.1381   6.6382   6.6382   7.4667   7.4667
    11.8185  11.8185  12.0778  12.0782  12.5100

          k = 0.0000 0.1667 0.0000 (  9567 PWs)   bands (ev):

   -48.0476 -48.0347 -24.3338 -24.3331 -24.2009 -24.2002 -24.1432 -24.1172
    -9.0855  -8.0565  -7.4419  -7.3890   3.3845   3.7632   4.3063   5.1735
     5.1807   6.1997   6.3152   6.9782   7.9543   8.0254   8.2252   8.7774
    10.9159  11.2303  11.5088  11.5093  11.5484

          k = 0.0000 0.1667 0.1954 (  9583 PWs)   bands (ev):

   -48.0415 -48.0296 -24.3189 -24.3175 -24.2097 -24.2042 -24.1928 -24.1765
    -8.9346  -7.9616  -7.5120  -7.4569   3.5914   3.9350   4.4241   4.9781
     5.0881   6.3551   6.4857   6.7476   7.3091   7.9731   8.0105   8.6918
    11.2198  11.3306  11.3879  11.6262  11.7551

          k = 0.0000 0.1667 0.3909 (  9598 PWs)   bands (ev):

   -48.0265 -48.0174 -24.3616 -24.3438 -24.2773 -24.2746 -24.1886 -24.1871
    -8.5513  -7.7581  -7.6731  -7.6149   4.0910   4.3485   4.6444   4.8322
     5.2713   5.5896   6.1163   7.0003   7.0320   7.4616   7.5037   8.4366
    11.0773  11.6031  11.7932  11.9175  12.1135

          k = 0.0000 0.1667 0.5863 (  9597 PWs)   bands (ev):

   -48.0108 -48.0059 -24.5051 -24.4965 -24.2330 -24.2317 -24.1863 -24.1852
    -8.1357  -7.8661  -7.7310  -7.5825   4.5225   4.5842   4.5877   4.9557
     5.4227   5.4408   5.9654   6.5908   6.7454   7.2828   7.3614   7.8211
    11.1684  11.8083  11.9857  12.1440  12.4660

          k = 0.0000 0.1667-0.7818 (  9582 PWs)   bands (ev):

   -48.0027 -48.0027 -24.5615 -24.5615 -24.2049 -24.2049 -24.1938 -24.1938
    -7.9705  -7.9705  -7.6260  -7.6260   4.3930   4.3930   4.9212   4.9212
     5.6446   5.6446   6.1959   6.1959   6.9187   6.9187   7.3655   7.3655
    11.5665  11.5665  12.0839  12.0839  12.5975

          k = 0.0000 0.3333 0.0000 (  9564 PWs)   bands (ev):

   -48.0448 -48.0374 -24.3131 -24.3113 -24.2244 -24.2226 -24.1376 -24.1226
    -8.8291  -8.1689  -7.5743  -7.4730   3.7625   3.9867   4.8599   5.1980
     5.2111   5.8970   6.1116   6.9268   7.0702   7.6603   8.0177   8.4884
    11.1950  11.4359  11.7351  11.8011  11.9336

          k = 0.0000 0.3333 0.1954 (  9574 PWs)   bands (ev):

   -48.0389 -48.0321 -24.3008 -24.2967 -24.2302 -24.2253 -24.1918 -24.1776
    -8.6940  -8.0603  -7.6387  -7.5317   3.9513   4.1756   4.7254   4.9507
     5.3485   6.1221   6.2423   6.6344   6.6967   7.4493   8.0062   8.4703
    11.3956  11.5851  11.6803  11.8019  12.0642

          k = 0.0000 0.3333 0.3909 (  9565 PWs)   bands (ev):

   -48.0246 -48.0193 -24.3652 -24.3538 -24.2600 -24.2541 -24.2029 -24.1988
    -8.3732  -7.8669  -7.7335  -7.6510   4.3346   4.6409   4.6438   4.7514
     5.5256   5.5513   5.8254   6.6254   6.7333   7.4109   7.7487   8.2876
    11.1754  11.7165  11.9177  11.9569  12.3334

          k = 0.0000 0.3333 0.5863 (  9588 PWs)   bands (ev):

   -48.0098 -48.0069 -24.5083 -24.5033 -24.2220 -24.2184 -24.1949 -24.1916
    -8.1330  -7.9935  -7.6417  -7.5387   4.2778   4.4512   4.6455   4.9498
     5.2733   5.7564   6.0711   6.6952   6.8576   7.1382   7.4540   8.0365
    10.9331  11.4728  11.9957  12.1651  12.6051

          k = 0.0000 0.3333-0.7818 (  9606 PWs)   bands (ev):

   -48.0027 -48.0027 -24.5661 -24.5661 -24.2010 -24.2010 -24.1932 -24.1932
    -8.0849  -8.0849  -7.4995  -7.4995   4.0923   4.0923   4.9277   4.9277
     5.6859   5.6859   6.3775   6.3775   7.0804   7.0804   7.5554   7.5554
    11.0835  11.0835  12.0948  12.0952  12.7043

          k = 0.0000-0.5000 0.0000 (  9574 PWs)   bands (ev):

   -48.0411 -48.0411 -24.2956 -24.2956 -24.2410 -24.2410 -24.1301 -24.1301
    -8.4770  -8.4770  -7.5633  -7.5633   4.0443   4.0443   5.2182   5.2182
     5.7432   5.7432   5.8915   5.8915   7.3017   7.3017   8.1580   8.1580
    11.4082  11.4083  11.8889  11.8890  12.4310

          k = 0.0000-0.5000 0.1954 (  9570 PWs)   bands (ev):

   -48.0355 -48.0355 -24.2821 -24.2821 -24.2457 -24.2457 -24.1842 -24.1842
    -8.3604  -8.3604  -7.6167  -7.6167   4.2368   4.2368   4.9386   4.9386
     5.7458   5.7458   6.2134   6.2134   6.8435   6.8435   8.2228   8.2228
    11.5482  11.5485  11.9248  11.9259  12.4097

          k = 0.0000-0.5000 0.3909 (  9578 PWs)   bands (ev):

   -48.0219 -48.0219 -24.3625 -24.3625 -24.2439 -24.2439 -24.2114 -24.2114
    -8.1240  -8.1240  -7.6951  -7.6951   4.5941   4.5941   4.7961   4.7961
     5.3418   5.3418   6.2307   6.2307   6.9542   6.9542   8.0527   8.0527
    11.4483  11.4483  12.0661  12.0662  12.5006

          k = 0.0000-0.5000 0.5863 (  9604 PWs)   bands (ev):

   -48.0083 -48.0083 -24.5082 -24.5082 -24.2091 -24.2091 -24.2021 -24.2021
    -8.0879  -8.0879  -7.5635  -7.5635   4.2579   4.2579   4.8064   4.8064
     5.5809   5.5809   6.2927   6.2927   7.0920   7.0920   7.8586   7.8586
    11.0377  11.0377  12.1327  12.1330  12.6653

          k = 0.0000-0.5000-0.7818 (  9604 PWs)   bands (ev):

   -48.0027 -48.0027 -24.5684 -24.5684 -24.1993 -24.1993 -24.1926 -24.1926
    -8.1265  -8.1265  -7.4517  -7.4517   3.9563   3.9563   4.9840   4.9840
     5.6595   5.6595   6.5356   6.5356   6.8865   6.8865   7.8831   7.8831
    10.8148  10.8148  12.0995  12.0996  12.7437

          k = 0.1667 0.1667 0.0000 (  9595 PWs)   bands (ev):

   -48.0467 -48.0355 -24.3443 -24.3101 -24.2251 -24.1898 -24.1414 -24.1189
    -9.0071  -8.0798  -7.5229  -7.3869   3.3946   3.9512   4.4587   5.1471
     5.2140   5.9880   6.4161   7.0074   7.6336   7.9338   8.0943   8.7086
    10.8423  11.3843  11.4129  11.6865  11.7695

          k = 0.1667 0.1667 0.1954 (  9588 PWs)   bands (ev):

   -48.0407 -48.0304 -24.3280 -24.2968 -24.2293 -24.2009 -24.1870 -24.1788
    -8.8607  -7.9783  -7.5883  -7.4573   3.5872   4.1339   4.4953   5.0168
     5.1215   6.1542   6.5960   6.6930   7.1148   7.9088   7.9659   8.5589
    11.1181  11.3185  11.5524  11.8194  11.8464

          k = 0.1667 0.1667 0.3909 (  9581 PWs)   bands (ev):

   -48.0259 -48.0180 -24.3626 -24.3456 -24.2866 -24.2555 -24.2019 -24.1818
    -8.4940  -7.7512  -7.7337  -7.6268   4.0600   4.5276   4.5288   4.9135
     5.4429   5.4736   6.0834   6.7225   7.1259   7.3556   7.6570   8.4025
    11.0735  11.5474  11.8526  12.0511  12.1242

          k = 0.1667 0.1667 0.5863 (  9585 PWs)   bands (ev):

   -48.0105 -48.0062 -24.5067 -24.4973 -24.2386 -24.2191 -24.1939 -24.1828
    -8.1395  -7.8285  -7.7958  -7.5481   4.4195   4.5573   4.6950   4.7436
     5.2143   5.7814   6.1117   6.6094   6.6579   7.2990   7.4050   7.9371
    11.0659  11.8478  12.0265  12.0933  12.2604

          k = 0.1667 0.1667-0.7818 (  9596 PWs)   bands (ev):

   -48.0027 -48.0027 -24.5654 -24.5598 -24.2075 -24.2004 -24.1942 -24.1934
    -8.0850  -7.8655  -7.7321  -7.5019   4.1435   4.6393   4.8432   4.8712
     5.0546   6.1378   6.2470   6.3609   6.8813   7.1358   7.2848   7.4918
    11.2507  11.7266  12.0863  12.0893  12.2838

          k = 0.1667 0.3333 0.0000 (  9577 PWs)   bands (ev):

   -48.0443 -48.0379 -24.3379 -24.2959 -24.2407 -24.1976 -24.1366 -24.1236
    -8.7907  -8.2158  -7.5890  -7.4485   3.5603   4.0954   4.9454   5.1514
     5.2187   5.8844   6.2979   7.0538   7.1313   7.6851   7.8160   8.4000
    11.0055  11.4456  11.5328  11.8936  12.0713

          k = 0.1667 0.3333 0.1954 (  9583 PWs)   bands (ev):

   -48.0385 -48.0325 -24.3224 -24.2821 -24.2460 -24.2036 -24.1895 -24.1795
    -8.6563  -8.1059  -7.6478  -7.5132   3.7423   4.2932   4.6767   4.9470
     5.4250   6.1470   6.3707   6.5676   6.9933   7.4873   7.8658   8.2990
    11.2464  11.4991  11.6052  11.9578  12.1000

          k = 0.1667 0.3333 0.3909 (  9575 PWs)   bands (ev):

   -48.0242 -48.0197 -24.3632 -24.3523 -24.2793 -24.2436 -24.2115 -24.1858
    -8.3364  -7.8977  -7.7302  -7.6584   4.1699   4.4891   4.6655   4.8237
     5.3495   5.8887   5.9554   6.5793   6.9754   7.3246   7.7151   8.2212
    11.2111  11.6392  11.7931  12.0968  12.2840

          k = 0.1667 0.3333 0.5863 (  9585 PWs)   bands (ev):

   -48.0096 -48.0071 -24.5080 -24.5008 -24.2346 -24.2087 -24.2025 -24.1848
    -8.1207  -7.9419  -7.7023  -7.5400   4.2434   4.4064   4.6307   4.9284
     5.0791   5.8806   6.2275   6.5540   6.8467   7.2938   7.5591   8.0960
    10.9540  11.5800  11.9623  12.1403  12.3718

          k = 0.1667 0.3333-0.7818 (  9576 PWs)   bands (ev):

   -48.0027 -48.0027 -24.5676 -24.5620 -24.2057 -24.1988 -24.1940 -24.1933
    -8.1286  -7.9804  -7.6084  -7.4494   3.9686   4.2793   4.8449   4.9779
     5.1055   5.9871   6.2964   6.4067   7.0154   7.4210   7.5263   7.7757
    10.9490  11.3442  12.0980  12.0993  12.3841

          k = 0.1667-0.5000 0.0000 (  9596 PWs)   bands (ev):

   -48.0411 -48.0411 -24.3165 -24.3165 -24.2202 -24.2202 -24.1301 -24.1301
    -8.4929  -8.4929  -7.5408  -7.5408   3.8707   3.8707   5.1861   5.1861
     5.6270   5.6270   6.3987   6.3987   7.3775   7.3775   7.9822   7.9822
    11.2877  11.2877  11.7707  11.7708  12.5025

          k = 0.1667-0.5000 0.1954 (  9590 PWs)   bands (ev):

   -48.0355 -48.0355 -24.3029 -24.3029 -24.2252 -24.2252 -24.1840 -24.1840
    -8.3737  -8.3737  -7.5975  -7.5975   4.0559   4.0559   4.8491   4.8491
     5.8878   5.8878   6.5402   6.5402   6.9050   6.9050   8.0331   8.0331
    11.4704  11.4705  11.8095  11.8095  12.4366

          k = 0.1667-0.5000 0.3909 (  9574 PWs)   bands (ev):

   -48.0219 -48.0219 -24.3597 -24.3597 -24.2599 -24.2599 -24.1985 -24.1985
    -8.1185  -8.1185  -7.6970  -7.6970   4.4529   4.4529   4.5932   4.5932
     5.5950   5.5950   6.4544   6.4544   6.9906   6.9906   7.9456   7.9456
    11.4935  11.4935  11.9474  11.9482  12.4269

          k = 0.1667-0.5000 0.5863 (  9570 PWs)   bands (ev):

   -48.0083 -48.0083 -24.5057 -24.5057 -24.2224 -24.2224 -24.1919 -24.1919
    -8.0533  -8.0533  -7.5975  -7.5975   4.2313   4.2313   4.7521   4.7521
     5.4950   5.4950   6.4068   6.4068   7.1365   7.1365   7.9291   7.9291
    11.1350  11.1350  12.0842  12.0842  12.5580

          k = 0.1667-0.5000-0.7818 (  9584 PWs)   bands (ev):

   -48.0027 -48.0027 -24.5660 -24.5660 -24.2014 -24.2014 -24.1935 -24.1935
    -8.0898  -8.0898  -7.4892  -7.4892   3.9921   3.9921   4.9092   4.9092
     5.5631   5.5631   6.3364   6.3364   7.2168   7.2168   7.9444   7.9444
    10.9314  10.9314  12.1045  12.1045  12.6295

          k = 0.3333 0.3333 0.0000 (  9590 PWs)   bands (ev):

   -48.0429 -48.0392 -24.3497 -24.3187 -24.2185 -24.1864 -24.1338 -24.1263
    -8.6818  -8.3490  -7.5633  -7.4473   3.4478   3.8892   5.1147   5.1771
     5.3007   6.0826   6.5970   7.1313   7.3083   7.4087   7.6739   8.2060
    10.8241  11.2894  11.4229  11.7743  12.3575

          k = 0.3333 0.3333 0.1954 (  9587 PWs)   bands (ev):

   -48.0372 -48.0338 -24.3331 -24.3050 -24.2246 -24.1940 -24.1839 -24.1838
    -8.5509  -8.2340  -7.6206  -7.5147   3.6272   4.0755   4.6780   4.8568
     5.7693   6.4598   6.5753   6.7829   7.0389   7.5180   7.5482   7.9649
    11.0803  11.4800  11.5049  11.8339  12.2846

          k = 0.3333 0.3333 0.3909 (  9568 PWs)   bands (ev):

   -48.0232 -48.0206 -24.3585 -24.3498 -24.2907 -24.2611 -24.1975 -24.1795
    -8.2376  -7.9841  -7.7194  -7.6777   4.0633   4.3903   4.4994   4.5362
     5.6528   6.1318   6.2888   6.7651   7.1365   7.2573   7.5584   8.0055
    11.3788  11.5309  11.8046  12.0091  12.1667

          k = 0.3333 0.3333 0.5863 (  9583 PWs)   bands (ev):

   -48.0090 -48.0076 -24.5049 -24.4985 -24.2412 -24.2233 -24.1913 -24.1818
    -8.0645  -7.8407  -7.8089  -7.5869   4.1798   4.3772   4.4778   4.7252
     5.2088   5.7700   6.4138   6.4485   7.0623   7.4522   7.7453   8.1558
    11.0867  11.7813  11.8963  12.0000  12.1408

          k = 0.3333 0.3333-0.7818 (  9568 PWs)   bands (ev):

   -48.0027 -48.0027 -24.5651 -24.5594 -24.2085 -24.2013 -24.1949 -24.1940
    -8.0945  -7.9081  -7.6787  -7.4816   3.9534   4.4448   4.5415   4.7598
     5.1555   5.8795   6.1542   6.2631   7.3872   7.5773   7.7873   8.0615
    10.9739  11.5510  12.0430  12.1082  12.1326

          k = 0.3333-0.5000 0.0000 (  9614 PWs)   bands (ev):

   -48.0411 -48.0411 -24.3424 -24.3424 -24.1946 -24.1946 -24.1301 -24.1301
    -8.5226  -8.5226  -7.4976  -7.4976   3.5790   3.5790   5.1264   5.1264
     5.8469   5.8469   6.8578   6.8578   7.5303   7.5303   7.7388   7.7388
    10.9911  10.9911  11.5410  11.5410  12.6272

          k = 0.3333-0.5000 0.1954 (  9556 PWs)   bands (ev):

   -48.0355 -48.0355 -24.3266 -24.3266 -24.2027 -24.2027 -24.1832 -24.1832
    -8.3988  -8.3988  -7.5605  -7.5605   3.7581   3.7581   4.7505   4.7505
     6.2508   6.2508   6.9812   6.9812   7.0747   7.0747   7.6442   7.6442
    11.2416  11.2416  11.6086  11.6087  12.4997

          k = 0.3333-0.5000 0.3909 (  9582 PWs)   bands (ev):

   -48.0219 -48.0219 -24.3528 -24.3528 -24.2823 -24.2823 -24.1838 -24.1838
    -8.1077  -8.1077  -7.7008  -7.7008   4.1800   4.1800   4.4144   4.4144
     5.9741   5.9741   6.7864   6.7864   7.1260   7.1260   7.6867   7.6867
    11.6031  11.6034  11.7349  11.7351  12.2595

          k = 0.3333-0.5000 0.5863 (  9586 PWs)   bands (ev):

   -48.0083 -48.0083 -24.5004 -24.5004 -24.2367 -24.2367 -24.1839 -24.1839
    -7.9599  -7.9599  -7.6895  -7.6895   4.2212   4.2212   4.5513   4.5513
     5.4876   5.4876   6.4459   6.4459   7.3524   7.3524   8.0149   8.0149
    11.4069  11.4069  11.9997  11.9997  12.2698

          k = 0.3333-0.5000-0.7818 (  9584 PWs)   bands (ev):

   -48.0027 -48.0027 -24.5610 -24.5610 -24.2063 -24.2063 -24.1947 -24.1947
    -7.9972  -7.9972  -7.5833  -7.5833   4.1124   4.1124   4.6597   4.6597
     5.4505   5.4505   6.2065   6.2065   7.5496   7.5496   8.1016   8.1016
    11.2291  11.2291  12.1139  12.1178  12.3277

          k =-0.5000-0.5000 0.0000 (  9596 PWs)   bands (ev):

   -48.0411 -48.0411 -24.3524 -24.3524 -24.1847 -24.1847 -24.1300 -24.1300
    -8.5366  -8.5366  -7.4767  -7.4767   3.4534   3.4534   5.0985   5.0985
     6.0958   6.0958   6.7643   6.7643   7.6083   7.6083   7.8220   7.8220
    10.8033  10.8033  11.4282  11.4282  12.6807

          k =-0.5000-0.5000 0.1954 (  9568 PWs)   bands (ev):

   -48.0355 -48.0355 -24.3356 -24.3356 -24.1948 -24.1948 -24.1823 -24.1823
    -8.4107  -8.4107  -7.5428  -7.5428   3.6320   3.6320   4.7150   4.7150
     6.6499   6.6499   6.8714   6.8714   7.1019   7.1019   7.6132   7.6132
    11.0845  11.0846  11.5274  11.5277  12.5284

          k =-0.5000-0.5000 0.3909 (  9584 PWs)   bands (ev):

   -48.0219 -48.0219 -24.3482 -24.3482 -24.2928 -24.2928 -24.1783 -24.1783
    -8.1023  -8.1023  -7.7026  -7.7026   4.0629   4.0629   4.3553   4.3553
     6.1505   6.1505   6.9807   6.9807   7.1567   7.1567   7.5364   7.5364
    11.5726  11.5726  11.7625  11.7625  12.1319

          k =-0.5000-0.5000 0.5863 (  9592 PWs)   bands (ev):

   -48.0083 -48.0083 -24.4976 -24.4976 -24.2426 -24.2426 -24.1813 -24.1813
    -7.8627  -7.8627  -7.7861  -7.7861   4.2721   4.2721   4.3908   4.3908
     5.5130   5.5130   6.4325   6.4325   7.4951   7.4951   8.0303   8.0303
    11.6800  11.6801  11.9645  11.9652  11.9887

          k =-0.5000-0.5000-0.7818 (  9568 PWs)   bands (ev):

   -48.0026 -48.0026 -24.5584 -24.5584 -24.2089 -24.2089 -24.1952 -24.1952
    -7.9291  -7.9291  -7.6522  -7.6522   4.3007   4.3007   4.3897   4.3897
     5.4290   5.4290   6.1660   6.1660   7.6585   7.6585   8.1980   8.1980
    11.4689  11.4689  12.0813  12.0813  12.1200

     the Fermi energy is     9.8016 ev

!    total energy              =    -359.32849840 Ry
     estimated scf accuracy    <       0.00000058 Ry
     smearing contrib. (-TS)   =      -0.00000000 Ry
     internal energy E=F+TS    =    -359.32849839 Ry

     The total energy is F=E-TS. E is the sum of the following terms:
     one-electron contribution =    -125.52858099 Ry
     hartree contribution      =      84.86103527 Ry
     xc contribution           =     -56.69249130 Ry
     ewald contribution        =    -261.96846137 Ry

     convergence has been achieved in   8 iterations

     Forces acting on atoms (cartesian axes, Ry/au):

     atom    1 type  1   force =     0.00000000    0.00000000    0.00000000
     atom    2 type  1   force =     0.00000000    0.00000000    0.00000000
     atom    3 type  2   force =     0.00002400    0.00002400    0.00000000
     atom    4 type  2   force =    -0.00002400   -0.00002400    0.00000000
     atom    5 type  2   force =     0.00002400   -0.00002400    0.00000000
     atom    6 type  2   force =    -0.00002400    0.00002400    0.00000000

     Total force =     0.000068     Total SCF correction =     0.000633
     SCF correction compared to forces is large: reduce conv_thr to get better values


     Computing stress (Cartesian axis) and pressure

          total   stress  (Ry/bohr**3)                   (kbar)     P=        0.56
   0.00000797   0.00000000   0.00000000            1.17        0.00        0.00
   0.00000000   0.00000797   0.00000000            0.00        1.17        0.00
   0.00000000   0.00000000  -0.00000448            0.00        0.00       -0.66


     BFGS Geometry Optimization
     Energy error            =      0.0E+00 Ry
     Gradient error          =      2.4E-05 Ry/Bohr
     Cell gradient error     =      1.2E+00 kbar

     number of scf cycles    =   1
     number of bfgs steps    =   0

     enthalpy           new  =    -359.3284983956 Ry

     new trust radius        =       0.0008277097 bohr
     new conv_thr            =       0.0000010000 Ry

     new unit-cell volume =    431.73280 a.u.^3 (    63.97620 Ang^3 )
     density =      4.14588 g/cm^3

CELL_PARAMETERS (angstrom)
   4.642502529   0.000000000   0.000000000
   0.000000000   4.642502529   0.000000000
   0.000000000   0.000000000   2.968343447

ATOMIC_POSITIONS (angstrom)
Ti               0.0000000000        0.0000000000        0.0000000000
Ti               2.3212512645        2.3212512645        1.4841717235
O                1.4160812399        1.4160812399        0.0000000000
O                3.2264212893        3.2264212893        0.0000000000
O                3.7373325043        0.9051700248        1.4841717235
O                0.9051700248        3.7373325043        1.4841717235



     Writing config-only to output data dir ./Out/pwscf.save/
     NEW-OLD atomic charge density approx. for the potential

     total cpu time spent up to now is       12.7 secs

     per-process dynamical memory:   601.7 Mb

     Self-consistent Calculation

     iteration #  1     ecut=   120.00 Ry     beta= 0.40
     Davidson diagonalization with overlap
     ethr =  1.00E-06,  avg # of iterations =  1.0

     Threshold (ethr) on eigenvalues was too large:
     Diagonalizing with lowered threshold

     Davidson diagonalization with overlap
     ethr =  4.35E-09,  avg # of iterations =  4.6

     total cpu time spent up to now is       14.2 secs

     total energy              =    -359.32849802 Ry
     estimated scf accuracy    <       0.00000384 Ry

     iteration #  2     ecut=   120.00 Ry     beta= 0.40
     Davidson diagonalization with overlap
     ethr =  8.01E-09,  avg # of iterations =  4.8

     total cpu time spent up to now is       15.3 secs

     total energy              =    -359.32849908 Ry
     estimated scf accuracy    <       0.00000195 Ry

     iteration #  3     ecut=   120.00 Ry     beta= 0.40
     Davidson diagonalization with overlap
     ethr =  4.07E-09,  avg # of iterations =  2.4

     total cpu time spent up to now is       16.0 secs

     End of self-consistent calculation

          k = 0.0000 0.0000 0.0000 (  9551 PWs)   bands (ev):

   -48.0536 -48.0388 -24.3468 -24.3468 -24.1969 -24.1969 -24.1497 -24.1198
    -9.1798  -8.0485  -7.3590  -7.3590   3.2099   3.6584   4.1323   5.1614
     5.1614   6.3536   6.3536   6.9599   8.1881   8.4299   8.4299   8.8665
    10.7665  11.0404  11.3140  11.4035  11.4036

          k = 0.0000 0.0000 0.1955 (  9591 PWs)   bands (ev):

   -48.0475 -48.0337 -24.3306 -24.3306 -24.2130 -24.1939 -24.1939 -24.1862
    -9.0230  -7.9603  -7.4309  -7.4309   3.4319   3.8252   4.3090   4.9871
     4.9871   6.5046   6.6634   6.6634   7.5759   8.1319   8.1319   8.7999
    11.1227  11.1860  11.2113  11.5879  11.5879

          k = 0.0000 0.0000 0.3909 (  9596 PWs)   bands (ev):

   -48.0323 -48.0218 -24.3629 -24.3437 -24.2897 -24.2897 -24.1883 -24.1883
    -8.6175  -7.7685  -7.6039  -7.6039   3.9992   4.2284   4.8248   4.8647
     4.8647   5.6202   6.4594   7.1223   7.1223   7.4204   7.4204   8.4521
    11.1134  11.4346  11.7091  11.9957  11.9966

          k = 0.0000 0.0000 0.5864 (  9604 PWs)   bands (ev):

   -48.0163 -48.0106 -24.5078 -24.4982 -24.2425 -24.2425 -24.1885 -24.1885
    -8.1296  -7.7759  -7.7759  -7.6480   4.5001   4.5446   5.0306   5.0306
     5.0876   5.6101   5.6323   6.6098   6.6098   7.3893   7.3893   7.6661
    11.3272  11.7236  12.1314  12.3645  12.3718

          k = 0.0000 0.0000-0.7818 (  9580 PWs)   bands (ev):

   -48.0078 -48.0078 -24.5639 -24.5639 -24.2124 -24.2124 -24.1990 -24.1990
    -7.8468  -7.8468  -7.7607  -7.7607   4.4982   4.4982   5.2728   5.2728
     5.3053   5.3053   6.1334   6.1334   6.6366   6.6366   7.4631   7.4631
    11.8123  11.8123  12.0745  12.0745  12.5043

          k = 0.0000 0.1666 0.0000 (  9567 PWs)   bands (ev):

   -48.0526 -48.0398 -24.3389 -24.3382 -24.2063 -24.2056 -24.1477 -24.1218
    -9.0874  -8.0590  -7.4448  -7.3920   3.3819   3.7610   4.3043   5.1715
     5.1787   6.1963   6.3117   6.9768   7.9508   8.0231   8.2219   8.7738
    10.9103  11.2247  11.5041  11.5045  11.5435

          k = 0.0000 0.1666 0.1955 (  9583 PWs)   bands (ev):

   -48.0465 -48.0347 -24.3240 -24.3226 -24.2145 -24.2094 -24.1980 -24.1813
    -8.9365  -7.9640  -7.5150  -7.4599   3.5889   3.9328   4.4221   4.9755
     5.0855   6.3530   6.4827   6.7448   7.3063   7.9696   8.0072   8.6884
    11.2146  11.3257  11.3826  11.6213  11.7500

          k = 0.0000 0.1666 0.3909 (  9598 PWs)   bands (ev):

   -48.0316 -48.0225 -24.3663 -24.3485 -24.2825 -24.2797 -24.1939 -24.1925
    -8.5532  -7.7603  -7.6760  -7.6179   4.0888   4.3465   4.6421   4.8292
     5.2687   5.5871   6.1132   6.9972   7.0288   7.4581   7.5002   8.4339
    11.0719  11.5982  11.7883  11.9123  12.1080

          k = 0.0000 0.1666 0.5864 (  9597 PWs)   bands (ev):

   -48.0159 -48.0109 -24.5098 -24.5013 -24.2382 -24.2369 -24.1916 -24.1905
    -8.1377  -7.8687  -7.7338  -7.5848   4.5202   4.5820   4.5852   4.9533
     5.4189   5.4382   5.9628   6.5873   6.7418   7.2793   7.3579   7.8190
    11.1625  11.8042  11.9802  12.1402  12.4599

          k = 0.0000 0.1666-0.7818 (  9582 PWs)   bands (ev):

   -48.0077 -48.0077 -24.5663 -24.5663 -24.2103 -24.2103 -24.1989 -24.1989
    -7.9730  -7.9730  -7.6284  -7.6284   4.3903   4.3903   4.9190   4.9190
     5.6413   5.6413   6.1920   6.1920   6.9166   6.9166   7.3619   7.3619
    11.5606  11.5606  12.0805  12.0805  12.5916

          k = 0.0000 0.3333 0.0000 (  9564 PWs)   bands (ev):

   -48.0499 -48.0425 -24.3183 -24.3165 -24.2298 -24.2280 -24.1422 -24.1272
    -8.8313  -8.1715  -7.5769  -7.4758   3.7597   3.9840   4.8576   5.1960
     5.2090   5.8940   6.1083   6.9234   7.0688   7.6583   8.0146   8.4851
    11.1894  11.4302  11.7299  11.7958  11.9286

          k = 0.0000 0.3333 0.1955 (  9574 PWs)   bands (ev):

   -48.0440 -48.0371 -24.3060 -24.3019 -24.2354 -24.2304 -24.1966 -24.1824
    -8.6962  -8.0630  -7.6413  -7.5345   3.9485   4.1730   4.7230   4.9481
     5.3458   6.1195   6.2400   6.6321   6.6941   7.4461   8.0030   8.4670
    11.3903  11.5798  11.6754  11.7968  12.0588

          k = 0.0000 0.3333 0.3909 (  9565 PWs)   bands (ev):

   -48.0296 -48.0244 -24.3699 -24.3585 -24.2652 -24.2592 -24.2082 -24.2041
    -8.3754  -7.8696  -7.7359  -7.6538   4.3319   4.6385   4.6414   4.7485
     5.5231   5.5487   5.8226   6.6226   6.7306   7.4074   7.7451   8.2845
    11.1703  11.7114  11.9130  11.9523  12.3278

          k = 0.0000 0.3333 0.5864 (  9588 PWs)   bands (ev):

   -48.0148 -48.0120 -24.5131 -24.5080 -24.2272 -24.2236 -24.2002 -24.1969
    -8.1352  -7.9960  -7.6443  -7.5412   4.2754   4.4488   4.6427   4.9469
     5.2703   5.7537   6.0680   6.6922   6.8547   7.1346   7.4506   8.0338
    10.9276  11.4675  11.9917  12.1612  12.5969

          k = 0.0000 0.3333-0.7818 (  9606 PWs)   bands (ev):

   -48.0077 -48.0077 -24.5709 -24.5709 -24.2063 -24.2063 -24.1983 -24.1983
    -8.0873  -8.0873  -7.5019  -7.5019   4.0898   4.0898   4.9249   4.9249
     5.6827   5.6827   6.3746   6.3746   7.0770   7.0770   7.5526   7.5526
    11.0779  11.0779  12.0913  12.0913  12.6984

          k = 0.0000-0.4999 0.0000 (  9574 PWs)   bands (ev):

   -48.0462 -48.0462 -24.3008 -24.3008 -24.2463 -24.2463 -24.1347 -24.1347
    -8.4795  -8.4795  -7.5659  -7.5659   4.0413   4.0413   5.2161   5.2161
     5.7404   5.7404   5.8885   5.8885   7.3001   7.3001   8.1547   8.1547
    11.4025  11.4025  11.8836  11.8836  12.4258

          k = 0.0000-0.4999 0.1955 (  9570 PWs)   bands (ev):

   -48.0406 -48.0406 -24.2872 -24.2872 -24.2509 -24.2509 -24.1890 -24.1890
    -8.3628  -8.3628  -7.6193  -7.6193   4.2339   4.2339   4.9359   4.9359
     5.7433   5.7433   6.2110   6.2110   6.8410   6.8410   8.2195   8.2195
    11.5428  11.5428  11.9197  11.9198  12.4043

          k = 0.0000-0.4999 0.3909 (  9578 PWs)   bands (ev):

   -48.0270 -48.0270 -24.3672 -24.3672 -24.2491 -24.2491 -24.2168 -24.2168
    -8.1264  -8.1264  -7.6977  -7.6977   4.5913   4.5913   4.7933   4.7933
     5.3395   5.3395   6.2281   6.2281   6.9512   6.9512   8.0493   8.0493
    11.4431  11.4432  12.0616  12.0617  12.4949

          k = 0.0000-0.4999 0.5864 (  9604 PWs)   bands (ev):

   -48.0134 -48.0134 -24.5130 -24.5130 -24.2143 -24.2143 -24.2074 -24.2074
    -8.0903  -8.0903  -7.5660  -7.5660   4.2556   4.2556   4.8031   4.8031
     5.5783   5.5783   6.2899   6.2899   7.0886   7.0886   7.8555   7.8555
    11.0324  11.0324  12.1289  12.1290  12.6594

          k = 0.0000-0.4999-0.7818 (  9604 PWs)   bands (ev):

   -48.0077 -48.0077 -24.5732 -24.5732 -24.2046 -24.2046 -24.1978 -24.1978
    -8.1289  -8.1289  -7.4542  -7.4542   3.9539   3.9539   4.9806   4.9806
     5.6568   5.6568   6.5328   6.5328   6.8831   6.8831   7.8801   7.8801
    10.8094  10.8094  12.0960  12.0960  12.7377

          k = 0.1666 0.1666 0.0000 (  9595 PWs)   bands (ev):

   -48.0518 -48.0406 -24.3494 -24.3153 -24.2305 -24.1952 -24.1459 -24.1235
    -9.0091  -8.0823  -7.5256  -7.3900   3.3923   3.9485   4.4566   5.1452
     5.2119   5.9848   6.4125   7.0061   7.6305   7.9315   8.0904   8.7053
    10.8367  11.3786  11.4082  11.6817  11.7643

          k = 0.1666 0.1666 0.1955 (  9588 PWs)   bands (ev):

   -48.0457 -48.0354 -24.3331 -24.3019 -24.2344 -24.2055 -24.1924 -24.1836
    -8.8627  -7.9808  -7.5910  -7.4603   3.5849   4.1313   4.4933   5.0140
     5.1190   6.1519   6.5938   6.6897   7.1122   7.9055   7.9623   8.5555
    11.1127  11.3138  11.5470  11.8141  11.8411

          k = 0.1666 0.1666 0.3909 (  9581 PWs)   bands (ev):

   -48.0310 -48.0231 -24.3673 -24.3503 -24.2917 -24.2606 -24.2072 -24.1871
    -8.4960  -7.7535  -7.7365  -7.6298   4.0579   4.5253   4.5264   4.9106
     5.4403   5.4711   6.0804   6.7197   7.1226   7.3521   7.6534   8.3996
    11.0683  11.5426  11.8476  12.0462  12.1189

          k = 0.1666 0.1666 0.5864 (  9585 PWs)   bands (ev):

   -48.0155 -48.0112 -24.5115 -24.5020 -24.2438 -24.2243 -24.1992 -24.1880
    -8.1416  -7.8309  -7.7987  -7.5505   4.4170   4.5552   4.6926   4.7412
     5.2109   5.7784   6.1090   6.6058   6.6548   7.2953   7.4016   7.9348
    11.0602  11.8437  12.0207  12.0886  12.2558

          k = 0.1666 0.1666-0.7818 (  9596 PWs)   bands (ev):

   -48.0077 -48.0077 -24.5702 -24.5646 -24.2129 -24.2057 -24.1994 -24.1985
    -8.0874  -7.8684  -7.7340  -7.5043   4.1409   4.6364   4.8415   4.8691
     5.0512   6.1332   6.2438   6.3577   6.8794   7.1321   7.2825   7.4882
    11.2449  11.7205  12.0828  12.0855  12.2782

          k = 0.1666 0.3333 0.0000 (  9577 PWs)   bands (ev):

   -48.0494 -48.0430 -24.3430 -24.3011 -24.2461 -24.2030 -24.1412 -24.1282
    -8.7928  -8.2184  -7.5915  -7.4514   3.5578   4.0923   4.9430   5.1495
     5.2166   5.8814   6.2946   7.0505   7.1298   7.6831   7.8125   8.3968
    10.9998  11.4398  11.5279  11.8881  12.0663

          k = 0.1666 0.3333 0.1955 (  9583 PWs)   bands (ev):

   -48.0435 -48.0376 -24.3275 -24.2872 -24.2512 -24.2086 -24.1944 -24.1843
    -8.6585  -8.1085  -7.6503  -7.5161   3.7399   4.2902   4.6745   4.9443
     5.4225   6.1447   6.3682   6.5650   6.9905   7.4840   7.8626   8.2957
    11.2410  11.4942  11.5998  11.9525  12.0946

          k = 0.1666 0.3333 0.3909 (  9575 PWs)   bands (ev):

   -48.0293 -48.0247 -24.3678 -24.3570 -24.2844 -24.2487 -24.2169 -24.1911
    -8.3385  -7.9003  -7.7326  -7.6613   4.1677   4.4867   4.6630   4.8206
     5.3473   5.8857   5.9527   6.5766   6.9722   7.3212   7.7116   8.2180
    11.2061  11.6344  11.7881  12.0920  12.2783

          k = 0.1666 0.3333 0.5864 (  9585 PWs)   bands (ev):

   -48.0146 -48.0121 -24.5128 -24.5056 -24.2398 -24.2138 -24.2078 -24.1901
    -8.1230  -7.9444  -7.7049  -7.5425   4.2411   4.4040   4.6284   4.9252
     5.0763   5.8776   6.2243   6.5506   6.8439   7.2904   7.5555   8.0932
    10.9486  11.5746  11.9583  12.1362  12.3663

          k = 0.1666 0.3333-0.7818 (  9576 PWs)   bands (ev):

   -48.0077 -48.0077 -24.5724 -24.5668 -24.2110 -24.2041 -24.1992 -24.1984
    -8.1310  -7.9830  -7.6107  -7.4519   3.9662   4.2768   4.8429   4.9746
     5.1028   5.9831   6.2935   6.4033   7.0125   7.4176   7.5230   7.7729
    10.9434  11.3386  12.0942  12.0954  12.3778

          k = 0.1666-0.4999 0.0000 (  9596 PWs)   bands (ev):

   -48.0462 -48.0462 -24.3217 -24.3217 -24.2256 -24.2256 -24.1347 -24.1347
    -8.4953  -8.4953  -7.5435  -7.5435   3.8679   3.8679   5.1841   5.1841
     5.6243   5.6243   6.3952   6.3952   7.3757   7.3757   7.9791   7.9791
    11.2820  11.2820  11.7654  11.7655  12.4973

          k = 0.1666-0.4999 0.1955 (  9590 PWs)   bands (ev):

   -48.0406 -48.0406 -24.3081 -24.3081 -24.2303 -24.2303 -24.1888 -24.1888
    -8.3761  -8.3761  -7.6001  -7.6001   4.0532   4.0532   4.8466   4.8466
     5.8853   5.8853   6.5374   6.5374   6.9024   6.9024   8.0298   8.0298
    11.4651  11.4651  11.8044  11.8044  12.4313

          k = 0.1666-0.4999 0.3909 (  9574 PWs)   bands (ev):

   -48.0270 -48.0270 -24.3644 -24.3644 -24.2651 -24.2651 -24.2039 -24.2039
    -8.1209  -8.1209  -7.6997  -7.6997   4.4503   4.4503   4.5908   4.5908
     5.5923   5.5923   6.4515   6.4515   6.9876   6.9876   7.9422   7.9422
    11.4884  11.4884  11.9428  11.9434  12.4213

          k = 0.1666-0.4999 0.5864 (  9570 PWs)   bands (ev):

   -48.0134 -48.0134 -24.5104 -24.5104 -24.2276 -24.2276 -24.1971 -24.1971
    -8.0557  -8.0557  -7.6000  -7.6000   4.2290   4.2290   4.7493   4.7493
     5.4920   5.4920   6.4037   6.4037   7.1334   7.1334   7.9258   7.9258
    11.1297  11.1297  12.0803  12.0803  12.5522

          k = 0.1666-0.4999-0.7818 (  9584 PWs)   bands (ev):

   -48.0077 -48.0077 -24.5707 -24.5707 -24.2068 -24.2068 -24.1986 -24.1986
    -8.0922  -8.0922  -7.4917  -7.4917   3.9897   3.9897   4.9064   4.9064
     5.5599   5.5599   6.3332   6.3332   7.2137   7.2137   7.9412   7.9412
    10.9260  10.9260  12.1009  12.1010  12.6236

          k = 0.3333 0.3333 0.0000 (  9590 PWs)   bands (ev):

   -48.0480 -48.0443 -24.3548 -24.3239 -24.2239 -24.1918 -24.1384 -24.1309
    -8.6840  -8.3515  -7.5660  -7.4503   3.4456   3.8864   5.1128   5.1751
     5.2983   6.0795   6.5933   7.1286   7.3066   7.4047   7.6718   8.2028
    10.8183  11.2837  11.4181  11.7692  12.3525

          k = 0.3333 0.3333 0.1955 (  9587 PWs)   bands (ev):

   -48.0423 -48.0388 -24.3382 -24.3101 -24.2297 -24.1986 -24.1892 -24.1887
    -8.5531  -8.2364  -7.6233  -7.5177   3.6250   4.0729   4.6758   4.8544
     5.7667   6.4575   6.5727   6.7795   7.0365   7.5151   7.5444   7.9617
    11.0749  11.4751  11.4994  11.8286  12.2765

          k = 0.3333 0.3333 0.3909 (  9568 PWs)   bands (ev):

   -48.0283 -48.0257 -24.3632 -24.3545 -24.2959 -24.2662 -24.2028 -24.1848
    -8.2398  -7.9864  -7.7220  -7.6806   4.0613   4.3880   4.4969   4.5338
     5.6500   6.1288   6.2858   6.7621   7.1332   7.2539   7.5551   8.0022
    11.3739  11.5261  11.7995  12.0041  12.1592

          k = 0.3333 0.3333 0.5864 (  9583 PWs)   bands (ev):

   -48.0141 -48.0126 -24.5096 -24.5033 -24.2464 -24.2285 -24.1966 -24.1871
    -8.0669  -7.8435  -7.8110  -7.5894   4.1776   4.3751   4.4756   4.7228
     5.2055   5.7670   6.4096   6.4452   7.0596   7.4490   7.7416   8.1526
    11.0813  11.7756  11.8918  11.9954  12.1367

          k = 0.3333 0.3333-0.7818 (  9568 PWs)   bands (ev):

   -48.0077 -48.0077 -24.5698 -24.5642 -24.2138 -24.2066 -24.2000 -24.1991
    -8.0969  -7.9110  -7.6808  -7.4841   3.9511   4.4430   4.5385   4.7580
     5.1522   5.8764   6.1495   6.2599   7.3848   7.5741   7.7834   8.0583
    10.9684  11.5452  12.0377  12.1047  12.1289

          k = 0.3333-0.4999 0.0000 (  9614 PWs)   bands (ev):

   -48.0461 -48.0461 -24.3475 -24.3475 -24.2000 -24.2000 -24.1346 -24.1346
    -8.5249  -8.5249  -7.5004  -7.5004   3.5766   3.5766   5.1245   5.1245
     5.8442   5.8442   6.8540   6.8540   7.5284   7.5284   7.7355   7.7355
    10.9854  10.9854  11.5362  11.5362  12.6221

          k = 0.3333-0.4999 0.1955 (  9556 PWs)   bands (ev):

   -48.0405 -48.0405 -24.3317 -24.3317 -24.2076 -24.2076 -24.1883 -24.1883
    -8.4011  -8.4011  -7.5634  -7.5634   3.7559   3.7559   4.7483   4.7483
     6.2481   6.2481   6.9784   6.9784   7.0714   7.0714   7.6410   7.6410
    11.2362  11.2362  11.6036  11.6036  12.4945

          k = 0.3333-0.4999 0.3909 (  9582 PWs)   bands (ev):

   -48.0270 -48.0270 -24.3575 -24.3575 -24.2874 -24.2874 -24.1891 -24.1891
    -8.1099  -8.1099  -7.7036  -7.7036   4.1779   4.1779   4.4121   4.4121
     5.9711   5.9711   6.7831   6.7831   7.1227   7.1227   7.6835   7.6835
    11.5981  11.5982  11.7300  11.7301  12.2540

          k = 0.3333-0.4999 0.5864 (  9586 PWs)   bands (ev):

   -48.0133 -48.0133 -24.5051 -24.5051 -24.2419 -24.2419 -24.1892 -24.1892
    -7.9624  -7.9624  -7.6920  -7.6920   4.2191   4.2191   4.5491   4.5491
     5.4843   5.4843   6.4420   6.4420   7.3494   7.3494   8.0114   8.0114
    11.4015  11.4015  11.9957  11.9957  12.2642

          k = 0.3333-0.4999-0.7818 (  9584 PWs)   bands (ev):

   -48.0077 -48.0077 -24.5658 -24.5658 -24.2116 -24.2116 -24.1999 -24.1999
    -7.9998  -7.9998  -7.5856  -7.5856   4.1102   4.1102   4.6576   4.6576
     5.4474   5.4474   6.2025   6.2025   7.5467   7.5467   8.0980   8.0980
    11.2236  11.2236  12.1104  12.1134  12.3220

          k =-0.4999-0.4999 0.0000 (  9596 PWs)   bands (ev):

   -48.0461 -48.0461 -24.3575 -24.3575 -24.1901 -24.1901 -24.1346 -24.1346
    -8.5389  -8.5389  -7.4797  -7.4797   3.4511   3.4511   5.0967   5.0967
     6.0931   6.0931   6.7607   6.7607   7.6063   7.6063   7.8185   7.8185
    10.7975  10.7975  11.4234  11.4234  12.6756

          k =-0.4999-0.4999 0.1955 (  9568 PWs)   bands (ev):

   -48.0405 -48.0405 -24.3407 -24.3407 -24.1994 -24.1994 -24.1877 -24.1877
    -8.4129  -8.4129  -7.5457  -7.5457   3.6298   3.6298   4.7128   4.7128
     6.6473   6.6473   6.8679   6.8679   7.0995   7.0995   7.6096   7.6096
    11.0791  11.0791  11.5225  11.5225  12.5232

          k =-0.4999-0.4999 0.3909 (  9584 PWs)   bands (ev):

   -48.0269 -48.0269 -24.3529 -24.3529 -24.2979 -24.2979 -24.1836 -24.1836
    -8.1044  -8.1044  -7.7055  -7.7055   4.0610   4.0610   4.3531   4.3531
     6.1474   6.1474   6.9771   6.9771   7.1534   7.1534   7.5333   7.5333
    11.5678  11.5678  11.7573  11.7573  12.1266

          k =-0.4999-0.4999 0.5864 (  9592 PWs)   bands (ev):

   -48.0133 -48.0133 -24.5024 -24.5024 -24.2477 -24.2477 -24.1866 -24.1866
    -7.8656  -7.8656  -7.7882  -7.7882   4.2701   4.2701   4.3888   4.3888
     5.5099   5.5099   6.4282   6.4282   7.4921   7.4921   8.0267   8.0267
    11.6744  11.6744  11.9605  11.9609  11.9833

          k =-0.4999-0.4999-0.7818 (  9568 PWs)   bands (ev):

   -48.0077 -48.0077 -24.5632 -24.5632 -24.2143 -24.2143 -24.2003 -24.2003
    -7.9319  -7.9319  -7.6543  -7.6543   4.2989   4.2989   4.3873   4.3873
     5.4263   5.4263   6.1614   6.1614   7.6557   7.6557   8.1942   8.1942
    11.4632  11.4632  12.0758  12.0758  12.1166

     the Fermi energy is     9.7972 ev

!    total energy              =    -359.32849927 Ry
     estimated scf accuracy    <       0.00000008 Ry
     smearing contrib. (-TS)   =      -0.00000000 Ry
     internal energy E=F+TS    =    -359.32849927 Ry

     The total energy is F=E-TS. E is the sum of the following terms:
     one-electron contribution =    -125.58119384 Ry
     hartree contribution      =      84.87784516 Ry
     xc contribution           =     -56.69089407 Ry
     ewald contribution        =    -261.93425653 Ry

     convergence has been achieved in   3 iterations

     Forces acting on atoms (cartesian axes, Ry/au):

     atom    1 type  1   force =     0.00000000    0.00000000    0.00000000
     atom    2 type  1   force =     0.00000000    0.00000000    0.00000000
     atom    3 type  2   force =     0.00005933    0.00005933    0.00000000
     atom    4 type  2   force =    -0.00005933   -0.00005933    0.00000000
     atom    5 type  2   force =     0.00005933   -0.00005933    0.00000000
     atom    6 type  2   force =    -0.00005933    0.00005933    0.00000000

     Total force =     0.000168     Total SCF correction =     0.000026
     SCF correction compared to forces is large: reduce conv_thr to get better values


     Computing stress (Cartesian axis) and pressure

          total   stress  (Ry/bohr**3)                   (kbar)     P=       -0.62
  -0.00000203   0.00000000   0.00000000           -0.30        0.00        0.00
   0.00000000  -0.00000203   0.00000000            0.00       -0.30        0.00
   0.00000000   0.00000000  -0.00000854            0.00        0.00       -1.26

     Energy error            =      8.7E-07 Ry
     Gradient error          =      5.9E-05 Ry/Bohr
     Cell gradient error     =      1.3E+00 kbar

     number of scf cycles    =   2
     number of bfgs steps    =   1

     enthalpy           old  =    -359.3284983956 Ry
     enthalpy           new  =    -359.3284992705 Ry

     CASE: enthalpy          _new < enthalpy          _old

     new trust radius        =       0.0012216749 bohr
     new conv_thr            =       0.0000000100 Ry

     new unit-cell volume =    431.66714 a.u.^3 (    63.96647 Ang^3 )
     density =      4.14651 g/cm^3

CELL_PARAMETERS (angstrom)
   4.642831961   0.000000000   0.000000000
   0.000000000   4.642831961   0.000000000
   0.000000000   0.000000000   2.967470812

ATOMIC_POSITIONS (angstrom)
Ti               0.0000000000        0.0000000000        0.0000000000
Ti               2.3214159806        2.3214159806        1.4837354063
O                1.4162226201        1.4162226201        0.0000000000
O                3.2266093414        3.2266093414        0.0000000000
O                3.7376386006        0.9051933608        1.4837354063
O                0.9051933608        3.7376386006        1.4837354063



     Writing config-only to output data dir ./Out/pwscf.save/
     NEW-OLD atomic charge density approx. for the potential

     total cpu time spent up to now is       17.4 secs

     per-process dynamical memory:   601.7 Mb

     Self-consistent Calculation

     iteration #  1     ecut=   120.00 Ry     beta= 0.40
     Davidson diagonalization with overlap
     ethr =  1.00E-06,  avg # of iterations =  1.0

     Threshold (ethr) on eigenvalues was too large:
     Diagonalizing with lowered threshold

     Davidson diagonalization with overlap
     ethr =  1.53E-09,  avg # of iterations =  5.8

     total cpu time spent up to now is       19.0 secs

     total energy              =    -359.32849895 Ry
     estimated scf accuracy    <       0.00000228 Ry

     iteration #  2     ecut=   120.00 Ry     beta= 0.40
     Davidson diagonalization with overlap
     ethr =  4.75E-09,  avg # of iterations =  5.0

     total cpu time spent up to now is       20.0 secs

     total energy              =    -359.32849956 Ry
     estimated scf accuracy    <       0.00000163 Ry

     iteration #  3     ecut=   120.00 Ry     beta= 0.40
     Davidson diagonalization with overlap
     ethr =  3.40E-09,  avg # of iterations =  2.1

     total cpu time spent up to now is       20.7 secs

     total energy              =    -359.32849970 Ry
     estimated scf accuracy    <       0.00000010 Ry

     iteration #  4     ecut=   120.00 Ry     beta= 0.40
     Davidson diagonalization with overlap
     ethr =  1.99E-10,  avg # of iterations =  5.8

     total cpu time spent up to now is       21.8 secs

     total energy              =    -359.32849978 Ry
     estimated scf accuracy    <       0.00000017 Ry

     iteration #  5     ecut=   120.00 Ry     beta= 0.40
     Davidson diagonalization with overlap
     ethr =  1.99E-10,  avg # of iterations =  2.1

     total cpu time spent up to now is       22.5 secs

     total energy              =    -359.32849978 Ry
     estimated scf accuracy    <       0.00000002 Ry

     iteration #  6     ecut=   120.00 Ry     beta= 0.40
     Davidson diagonalization with overlap
     ethr =  4.87E-11,  avg # of iterations =  5.0

     total cpu time spent up to now is       23.5 secs

     End of self-consistent calculation

          k = 0.0000 0.0000 0.0000 (  9551 PWs)   bands (ev):

   -48.0507 -48.0359 -24.3440 -24.3440 -24.1941 -24.1941 -24.1466 -24.1167
    -9.1787  -8.0475  -7.3576  -7.3576   3.2108   3.6592   4.1330   5.1633
     5.1633   6.3540   6.3540   6.9637   8.1907   8.4311   8.4311   8.8671
    10.7685  11.0423  11.3177  11.4069  11.4069

          k = 0.0000 0.0000 0.1955 (  9591 PWs)   bands (ev):

   -48.0445 -48.0308 -24.3278 -24.3278 -24.2101 -24.1911 -24.1911 -24.1833
    -9.0218  -7.9591  -7.4297  -7.4297   3.4331   3.8263   4.3098   4.9882
     4.9882   6.5077   6.6644   6.6644   7.5779   8.1330   8.1330   8.8010
    11.1252  11.1883  11.2147  11.5911  11.5911

          k = 0.0000 0.0000 0.3910 (  9596 PWs)   bands (ev):

   -48.0293 -48.0188 -24.3603 -24.3412 -24.2868 -24.2868 -24.1855 -24.1855
    -8.6158  -7.7668  -7.6029  -7.6029   4.0010   4.2301   4.8260   4.8653
     4.8653   5.6222   6.4605   7.1236   7.1236   7.4213   7.4213   8.4542
    11.1156  11.4377  11.7125  11.9985  11.9986

          k = 0.0000 0.0000 0.5866 (  9604 PWs)   bands (ev):

   -48.0132 -48.0075 -24.5057 -24.4961 -24.2396 -24.2396 -24.1856 -24.1856
    -8.1274  -7.7752  -7.7752  -7.6457   4.5020   4.5468   5.0311   5.0311
     5.0890   5.6108   5.6340   6.6102   6.6102   7.3903   7.3903   7.6686
    11.3289  11.7277  12.1358  12.3670  12.3696

          k = 0.0000 0.0000-0.7821 (  9580 PWs)   bands (ev):

   -48.0047 -48.0047 -24.5619 -24.5619 -24.2096 -24.2096 -24.1960 -24.1960
    -7.8462  -7.8462  -7.7583  -7.7583   4.4996   4.4996   5.2738   5.2738
     5.3070   5.3070   6.1331   6.1331   6.6388   6.6388   7.4640   7.4640
    11.8142  11.8142  12.0798  12.0798  12.5067

          k = 0.0000 0.1666 0.0000 (  9567 PWs)   bands (ev):

   -48.0497 -48.0369 -24.3362 -24.3355 -24.2036 -24.2029 -24.1446 -24.1187
    -9.0864  -8.0580  -7.4434  -7.3906   3.3828   3.7617   4.3050   5.1734
     5.1805   6.1968   6.3122   6.9806   7.9517   8.0258   8.2230   8.7746
    10.9124  11.2268  11.5077  11.5078  11.5466

          k = 0.0000 0.1666 0.1955 (  9583 PWs)   bands (ev):

   -48.0436 -48.0317 -24.3212 -24.3198 -24.2116 -24.2066 -24.1952 -24.1784
    -8.9353  -7.9629  -7.5136  -7.4587   3.5900   3.9338   4.4229   4.9766
     5.0866   6.3554   6.4839   6.7467   7.3084   7.9708   8.0083   8.6894
    11.2174  11.3290  11.3850  11.6244  11.7530

          k = 0.0000 0.1666 0.3910 (  9598 PWs)   bands (ev):

   -48.0286 -48.0195 -24.3638 -24.3460 -24.2796 -24.2769 -24.1911 -24.1896
    -8.5516  -7.7586  -7.6750  -7.6169   4.0904   4.3482   4.6430   4.8298
     5.2696   5.5890   6.1143   6.9987   7.0306   7.4588   7.5010   8.4357
    11.0744  11.6013  11.7918  11.9150  12.1106

          k = 0.0000 0.1666 0.5866 (  9597 PWs)   bands (ev):

   -48.0128 -48.0079 -24.5077 -24.4992 -24.2353 -24.2340 -24.1887 -24.1876
    -8.1358  -7.8678  -7.7328  -7.5829   4.5216   4.5836   4.5864   4.9547
     5.4192   5.4396   5.9639   6.5883   6.7427   7.2802   7.3588   7.8213
    11.1644  11.8084  11.9827  12.1450  12.4596

          k = 0.0000 0.1666-0.7821 (  9582 PWs)   bands (ev):

   -48.0047 -48.0047 -24.5643 -24.5643 -24.2075 -24.2075 -24.1958 -24.1958
    -7.9720  -7.9720  -7.6265  -7.6265   4.3912   4.3912   4.9209   4.9209
     5.6421   5.6421   6.1925   6.1925   6.9186   6.9186   7.3627   7.3627
    11.5625  11.5625  12.0858  12.0858  12.5939

          k = 0.0000 0.3332 0.0000 (  9564 PWs)   bands (ev):

   -48.0470 -48.0396 -24.3155 -24.3137 -24.2271 -24.2252 -24.1391 -24.1242
    -8.8303  -8.1708  -7.5753  -7.4744   3.7602   3.9845   4.8583   5.1978
     5.2108   5.8950   6.1093   6.9242   7.0725   7.6614   8.0156   8.4860
    11.1917  11.4325  11.7330  11.7987  11.9322

          k = 0.0000 0.3332 0.1955 (  9574 PWs)   bands (ev):

   -48.0411 -48.0342 -24.3032 -24.2991 -24.2326 -24.2277 -24.1937 -24.1795
    -8.6950  -8.0620  -7.6398  -7.5332   3.9493   4.1737   4.7239   4.9492
     5.3468   6.1210   6.2421   6.6347   6.6962   7.4475   8.0040   8.4681
    11.3931  11.5826  11.6787  11.7997  12.0618

          k = 0.0000 0.3332 0.3910 (  9565 PWs)   bands (ev):

   -48.0266 -48.0214 -24.3674 -24.3560 -24.2623 -24.2563 -24.2054 -24.2013
    -8.3738  -7.8684  -7.7343  -7.6527   4.3330   4.6395   4.6427   4.7491
     5.5248   5.5501   5.8235   6.6244   6.7328   7.4084   7.7459   8.2858
    11.1731  11.7143  11.9166  11.9561  12.3305

          k = 0.0000 0.3332 0.5866 (  9588 PWs)   bands (ev):

   -48.0118 -48.0089 -24.5109 -24.5059 -24.2243 -24.2207 -24.1973 -24.1940
    -8.1338  -7.9951  -7.6428  -7.5392   4.2764   4.4498   4.6438   4.9479
     5.2715   5.7551   6.0693   6.6938   6.8564   7.1354   7.4512   8.0354
    10.9298  11.4700  11.9962  12.1660  12.5991

          k = 0.0000 0.3332-0.7821 (  9606 PWs)   bands (ev):

   -48.0047 -48.0047 -24.5689 -24.5689 -24.2035 -24.2035 -24.1953 -24.1953
    -8.0864  -8.0864  -7.4999  -7.4999   4.0906   4.0906   4.9262   4.9262
     5.6839   5.6839   6.3760   6.3760   7.0780   7.0780   7.5540   7.5540
    11.0800  11.0800  12.0965  12.0965  12.7008

          k = 0.0000-0.4999 0.0000 (  9574 PWs)   bands (ev):

   -48.0433 -48.0433 -24.2980 -24.2980 -24.2436 -24.2436 -24.1316 -24.1316
    -8.4787  -8.4787  -7.5644  -7.5644   4.0415   4.0415   5.2179   5.2179
     5.7411   5.7411   5.8899   5.8899   7.3036   7.3036   8.1557   8.1557
    11.4049  11.4049  11.8864  11.8864  12.4294

          k = 0.0000-0.4999 0.1955 (  9570 PWs)   bands (ev):

   -48.0376 -48.0376 -24.2844 -24.2844 -24.2481 -24.2481 -24.1861 -24.1861
    -8.3618  -8.3618  -7.6179  -7.6179   4.2344   4.2344   4.9368   4.9368
     5.7445   5.7445   6.2134   6.2134   6.8432   6.8432   8.2206   8.2206
    11.5456  11.5456  11.9228  11.9228  12.4075

          k = 0.0000-0.4999 0.3910 (  9578 PWs)   bands (ev):

   -48.0240 -48.0240 -24.3647 -24.3647 -24.2462 -24.2462 -24.2140 -24.2140
    -8.1250  -8.1250  -7.6964  -7.6964   4.5921   4.5921   4.7939   4.7939
     5.3413   5.3413   6.2298   6.2298   6.9527   6.9527   8.0502   8.0502
    11.4460  11.4460  12.0655  12.0655  12.4976

          k = 0.0000-0.4999 0.5866 (  9604 PWs)   bands (ev):

   -48.0103 -48.0103 -24.5108 -24.5108 -24.2113 -24.2113 -24.2046 -24.2046
    -8.0892  -8.0892  -7.5642  -7.5642   4.2567   4.2567   4.8035   4.8035
     5.5800   5.5800   6.2915   6.2915   7.0898   7.0898   7.8565   7.8565
    11.0348  11.0348  12.1337  12.1337  12.6620

          k = 0.0000-0.4999-0.7821 (  9604 PWs)   bands (ev):

   -48.0047 -48.0047 -24.5712 -24.5712 -24.2018 -24.2018 -24.1948 -24.1948
    -8.1280  -8.1280  -7.4521  -7.4521   3.9547   3.9547   4.9812   4.9812
     5.6587   5.6587   6.5345   6.5345   6.8838   6.8838   7.8813   7.8813
    10.8116  10.8116  12.1012  12.1012  12.7401

          k = 0.1666 0.1666 0.0000 (  9595 PWs)   bands (ev):

   -48.0488 -48.0377 -24.3467 -24.3125 -24.2277 -24.1925 -24.1429 -24.1204
    -9.0081  -8.0814  -7.5241  -7.3886   3.3931   3.9490   4.4574   5.1471
     5.2137   5.9858   6.4129   7.0098   7.6317   7.9344   8.0910   8.7065
    10.8387  11.3809  11.4115  11.6854  11.7672

          k = 0.1666 0.1666 0.1955 (  9588 PWs)   bands (ev):

   -48.0428 -48.0325 -24.3304 -24.2991 -24.2317 -24.2026 -24.1896 -24.1807
    -8.8615  -7.9798  -7.5896  -7.4591   3.5861   4.1320   4.4942   5.0149
     5.1201   6.1541   6.5964   6.6906   7.1143   7.9069   7.9633   8.5565
    11.1151  11.3172  11.5498  11.8171  11.8439

          k = 0.1666 0.1666 0.3910 (  9581 PWs)   bands (ev):

   -48.0280 -48.0201 -24.3648 -24.3478 -24.2889 -24.2578 -24.2044 -24.1843
    -8.4944  -7.7519  -7.7354  -7.6289   4.0596   4.5265   4.5273   4.9112
     5.4412   5.4729   6.0818   6.7218   7.1239   7.3531   7.6541   8.4011
    11.0711  11.5459  11.8509  12.0494  12.1216

          k = 0.1666 0.1666 0.5866 (  9585 PWs)   bands (ev):

   -48.0125 -48.0082 -24.5093 -24.4999 -24.2409 -24.2214 -24.1963 -24.1851
    -8.1400  -7.8293  -7.7980  -7.5486   4.4181   4.5571   4.6936   4.7427
     5.2114   5.7797   6.1100   6.6065   6.6564   7.2957   7.4026   7.9368
    11.0622  11.8480  12.0231  12.0922  12.2595

          k = 0.1666 0.1666-0.7821 (  9596 PWs)   bands (ev):

   -48.0047 -48.0047 -24.5682 -24.5626 -24.2101 -24.2029 -24.1963 -24.1954
    -8.0864  -7.8678  -7.7316  -7.5023   4.1417   4.6373   4.8440   4.8704
     5.0519   6.1329   6.2453   6.3590   6.8814   7.1325   7.2843   7.4892
    11.2469  11.7224  12.0880  12.0905  12.2806

          k = 0.1666 0.3332 0.0000 (  9577 PWs)   bands (ev):

   -48.0465 -48.0400 -24.3403 -24.2983 -24.2433 -24.2003 -24.1381 -24.1251
    -8.7919  -8.2176  -7.5899  -7.4500   3.5586   4.0926   4.9438   5.1514
     5.2184   5.8828   6.2952   7.0513   7.1334   7.6862   7.8133   8.3980
    11.0018  11.4422  11.5311  11.8906  12.0697

          k = 0.1666 0.3332 0.1955 (  9583 PWs)   bands (ev):

   -48.0406 -48.0347 -24.3248 -24.2844 -24.2485 -24.2057 -24.1916 -24.1814
    -8.6573  -8.1075  -7.6488  -7.5148   3.7410   4.2907   4.6755   4.9452
     5.4235   6.1468   6.3700   6.5670   6.9926   7.4853   7.8638   8.2968
    11.2436  11.4975  11.6025  11.9553  12.0975

          k = 0.1666 0.3332 0.3910 (  9575 PWs)   bands (ev):

   -48.0263 -48.0217 -24.3653 -24.3544 -24.2816 -24.2458 -24.2141 -24.1883
    -8.3370  -7.8990  -7.7312  -7.6602   4.1692   4.4876   4.6640   4.8211
     5.3492   5.8867   5.9540   6.5787   6.9738   7.3221   7.7125   8.2191
    11.2091  11.6376  11.7912  12.0955  12.2797

          k = 0.1666 0.3332 0.5866 (  9585 PWs)   bands (ev):

   -48.0116 -48.0091 -24.5106 -24.5035 -24.2369 -24.2108 -24.2050 -24.1872
    -8.1217  -7.9433  -7.7034  -7.5406   4.2422   4.4051   4.6300   4.9259
     5.0775   5.8788   6.2254   6.5519   6.8453   7.2915   7.5562   8.0947
    10.9508  11.5771  11.9628  12.1406  12.3683

          k = 0.1666 0.3332-0.7821 (  9576 PWs)   bands (ev):

   -48.0047 -48.0047 -24.5704 -24.5649 -24.2082 -24.2013 -24.1961 -24.1954
    -8.1301  -7.9821  -7.6086  -7.4498   3.9670   4.2777   4.8452   4.9752
     5.1040   5.9835   6.2952   6.4044   7.0138   7.4187   7.5240   7.7744
    10.9454  11.3407  12.0993  12.1005  12.3802

          k = 0.1666-0.4999 0.0000 (  9596 PWs)   bands (ev):

   -48.0432 -48.0432 -24.3189 -24.3189 -24.2229 -24.2229 -24.1316 -24.1316
    -8.4944  -8.4944  -7.5420  -7.5420   3.8684   3.8684   5.1859   5.1859
     5.6252   5.6252   6.3961   6.3961   7.3791   7.3791   7.9801   7.9801
    11.2842  11.2842  11.7684  11.7684  12.5009

          k = 0.1666-0.4999 0.1955 (  9590 PWs)   bands (ev):

   -48.0376 -48.0376 -24.3053 -24.3053 -24.2276 -24.2276 -24.1859 -24.1859
    -8.3750  -8.3750  -7.5987  -7.5987   4.0540   4.0540   4.8477   4.8477
     5.8865   5.8865   6.5393   6.5393   6.9045   6.9045   8.0310   8.0310
    11.4678  11.4678  11.8074  11.8074  12.4346

          k = 0.1666-0.4999 0.3910 (  9574 PWs)   bands (ev):

   -48.0240 -48.0240 -24.3619 -24.3619 -24.2622 -24.2622 -24.2011 -24.2011
    -8.1195  -8.1195  -7.6984  -7.6984   4.4514   4.4514   4.5919   4.5919
     5.5938   5.5938   6.4528   6.4528   6.9891   6.9891   7.9432   7.9432
    11.4912  11.4912  11.9465  11.9465  12.4241

          k = 0.1666-0.4999 0.5866 (  9570 PWs)   bands (ev):

   -48.0103 -48.0103 -24.5083 -24.5083 -24.2247 -24.2247 -24.1943 -24.1943
    -8.0546  -8.0546  -7.5982  -7.5982   4.2301   4.2301   4.7504   4.7504
     5.4932   5.4932   6.4049   6.4049   7.1346   7.1346   7.9268   7.9268
    11.1321  11.1321  12.0850  12.0850  12.5547

          k = 0.1666-0.4999-0.7821 (  9584 PWs)   bands (ev):

   -48.0047 -48.0047 -24.5688 -24.5688 -24.2039 -24.2039 -24.1956 -24.1956
    -8.0913  -8.0913  -7.4896  -7.4896   3.9906   3.9906   4.9078   4.9078
     5.5609   5.5609   6.3345   6.3345   7.2149   7.2149   7.9424   7.9424
    10.9281  10.9281  12.1061  12.1061  12.6260

          k = 0.3332 0.3332 0.0000 (  9590 PWs)   bands (ev):

   -48.0451 -48.0414 -24.3521 -24.3211 -24.2212 -24.1891 -24.1353 -24.1278
    -8.6831  -8.3506  -7.5645  -7.4489   3.4465   3.8870   5.1147   5.1770
     5.2990   6.0805   6.5937   7.1300   7.3101   7.4050   7.6749   8.2042
    10.8203  11.2859  11.4214  11.7721  12.3561

          k = 0.3332 0.3332 0.1955 (  9587 PWs)   bands (ev):

   -48.0393 -48.0359 -24.3354 -24.3073 -24.2269 -24.1957 -24.1865 -24.1858
    -8.5519  -8.2353  -7.6218  -7.5164   3.6262   4.0737   4.6769   4.8555
     5.7678   6.4595   6.5748   6.7801   7.0389   7.5169   7.5451   7.9629
    11.0774  11.4783  11.5021  11.8315  12.2798

          k = 0.3332 0.3332 0.3910 (  9568 PWs)   bands (ev):

   -48.0253 -48.0227 -24.3607 -24.3520 -24.2930 -24.2634 -24.2000 -24.1820
    -8.2382  -7.9850  -7.7207  -7.6796   4.0631   4.3890   4.4982   4.5348
     5.6515   6.1302   6.2867   6.7639   7.1343   7.2549   7.5562   8.0033
    11.3769  11.5294  11.8025  12.0075  12.1621

          k = 0.3332 0.3332 0.5866 (  9583 PWs)   bands (ev):

   -48.0110 -48.0096 -24.5075 -24.5011 -24.2435 -24.2256 -24.1937 -24.1841
    -8.0657  -7.8428  -7.8090  -7.5875   4.1789   4.3762   4.4774   4.7245
     5.2062   5.7681   6.4097   6.4464   7.0610   7.4502   7.7425   8.1540
    11.0837  11.7780  11.8955  11.9991  12.1410

          k = 0.3332 0.3332-0.7821 (  9568 PWs)   bands (ev):

   -48.0046 -48.0046 -24.5679 -24.5622 -24.2110 -24.2038 -24.1970 -24.1961
    -8.0961  -7.9103  -7.6785  -7.4819   3.9521   4.4445   4.5395   4.7606
     5.1528   5.8776   6.1492   6.2612   7.3865   7.5754   7.7840   8.0595
    10.9704  11.5472  12.0406  12.1099  12.1336

          k = 0.3332-0.4999 0.0000 (  9614 PWs)   bands (ev):

   -48.0432 -48.0432 -24.3448 -24.3448 -24.1973 -24.1973 -24.1316 -24.1316
    -8.5240  -8.5240  -7.4990  -7.4990   3.5774   3.5774   5.1265   5.1265
     5.8449   5.8449   6.8544   6.8544   7.5316   7.5316   7.7368   7.7368
    10.9874  10.9874  11.5393  11.5393  12.6257

          k = 0.3332-0.4999 0.1955 (  9556 PWs)   bands (ev):

   -48.0376 -48.0376 -24.3290 -24.3290 -24.2047 -24.2047 -24.1855 -24.1855
    -8.4000  -8.4000  -7.5621  -7.5621   3.7570   3.7570   4.7495   4.7495
     6.2493   6.2493   6.9803   6.9803   7.0728   7.0728   7.6422   7.6422
    11.2387  11.2387  11.6067  11.6067  12.4979

          k = 0.3332-0.4999 0.3910 (  9582 PWs)   bands (ev):

   -48.0240 -48.0240 -24.3550 -24.3550 -24.2846 -24.2846 -24.1863 -24.1863
    -8.1084  -8.1084  -7.7024  -7.7024   4.1796   4.1796   4.4131   4.4131
     5.9725   5.9725   6.7839   6.7839   7.1240   7.1240   7.6847   7.6847
    11.6012  11.6012  11.7333  11.7333  12.2569

          k = 0.3332-0.4999 0.5866 (  9586 PWs)   bands (ev):

   -48.0103 -48.0103 -24.5030 -24.5030 -24.2390 -24.2390 -24.1863 -24.1863
    -7.9613  -7.9613  -7.6902  -7.6902   4.2203   4.2203   4.5511   4.5511
     5.4852   5.4852   6.4425   6.4425   7.3507   7.3507   8.0125   8.0125
    11.4040  11.4040  12.0002  12.0002  12.2667

          k = 0.3332-0.4999-0.7821 (  9584 PWs)   bands (ev):

   -48.0046 -48.0046 -24.5638 -24.5638 -24.2088 -24.2088 -24.1968 -24.1968
    -7.9990  -7.9990  -7.5835  -7.5835   4.1113   4.1113   4.6595   4.6595
     5.4482   5.4482   6.2028   6.2028   7.5482   7.5482   8.0989   8.0989
    11.2257  11.2257  12.1155  12.1155  12.3245

          k =-0.4999-0.4999 0.0000 (  9596 PWs)   bands (ev):

   -48.0432 -48.0432 -24.3548 -24.3548 -24.1874 -24.1874 -24.1315 -24.1315
    -8.5379  -8.5379  -7.4782  -7.4782   3.4521   3.4521   5.0986   5.0986
     6.0939   6.0939   6.7610   6.7610   7.6094   7.6094   7.8197   7.8197
    10.7995  10.7995  11.4267  11.4267  12.6792

          k =-0.4999-0.4999 0.1955 (  9568 PWs)   bands (ev):

   -48.0376 -48.0376 -24.3380 -24.3380 -24.1965 -24.1965 -24.1849 -24.1849
    -8.4117  -8.4117  -7.5444  -7.5444   3.6311   3.6311   4.7141   4.7141
     6.6487   6.6487   6.8683   6.8683   7.1019   7.1019   7.6108   7.6108
    11.0815  11.0815  11.5256  11.5256  12.5266

          k =-0.4999-0.4999 0.3910 (  9584 PWs)   bands (ev):

   -48.0240 -48.0240 -24.3504 -24.3504 -24.2951 -24.2951 -24.1808 -24.1808
    -8.1028  -8.1028  -7.7045  -7.7045   4.0629   4.0629   4.3540   4.3540
     6.1489   6.1489   6.9778   6.9778   7.1542   7.1542   7.5349   7.5349
    11.5712  11.5712  11.7600  11.7600  12.1296

          k =-0.4999-0.4999 0.5866 (  9592 PWs)   bands (ev):

   -48.0103 -48.0103 -24.5003 -24.5003 -24.2448 -24.2448 -24.1837 -24.1837
    -7.8648  -7.8648  -7.7861  -7.7861   4.2713   4.2713   4.3910   4.3910
     5.5108   5.5108   6.4282   6.4282   7.4934   7.4934   8.0279   8.0279
    11.6768  11.6768  11.9651  11.9652  11.9857

          k =-0.4999-0.4999-0.7821 (  9568 PWs)   bands (ev):

   -48.0046 -48.0046 -24.5613 -24.5613 -24.2115 -24.2115 -24.1973 -24.1973
    -7.9313  -7.9313  -7.6520  -7.6520   4.3004   4.3004   4.3890   4.3890
     5.4277   5.4277   6.1610   6.1610   7.6573   7.6573   8.1951   8.1951
    11.4653  11.4653  12.0782  12.0782  12.1218

     the Fermi energy is     9.7982 ev

!    total energy              =    -359.32849979 Ry
     estimated scf accuracy    <          2.5E-09 Ry
     smearing contrib. (-TS)   =      -0.00000000 Ry
     internal energy E=F+TS    =    -359.32849979 Ry

     The total energy is F=E-TS. E is the sum of the following terms:
     one-electron contribution =    -125.58469233 Ry
     hartree contribution      =      84.88398542 Ry
     xc contribution           =     -56.69181425 Ry
     ewald contribution        =    -261.93597864 Ry

     convergence has been achieved in   6 iterations

     Forces acting on atoms (cartesian axes, Ry/au):

     atom    1 type  1   force =     0.00000000    0.00000000    0.00000000
     atom    2 type  1   force =     0.00000000    0.00000000    0.00000000
     atom    3 type  2   force =     0.00001424    0.00001424    0.00000000
     atom    4 type  2   force =    -0.00001424   -0.00001424    0.00000000
     atom    5 type  2   force =     0.00001424   -0.00001424    0.00000000
     atom    6 type  2   force =    -0.00001424    0.00001424    0.00000000

     Total force =     0.000040     Total SCF correction =     0.000018
     SCF correction compared to forces is large: reduce conv_thr to get better values


     Computing stress (Cartesian axis) and pressure

          total   stress  (Ry/bohr**3)                   (kbar)     P=        0.03
  -0.00000011   0.00000000   0.00000000           -0.02        0.00        0.00
   0.00000000  -0.00000011   0.00000000            0.00       -0.02        0.00
   0.00000000   0.00000000   0.00000083            0.00        0.00        0.12

     Energy error            =      5.2E-07 Ry
     Gradient error          =      1.4E-05 Ry/Bohr
     Cell gradient error     =      1.2E-01 kbar

     bfgs converged in   3 scf cycles and   2 bfgs steps
     (criteria: energy <  1.0E-04 Ry, force <  1.0E-03 Ry/Bohr, cell <  5.0E-01 kbar)

     End of BFGS Geometry Optimization

     Final enthalpy           =    -359.3284997880 Ry

     File ./Out/pwscf.bfgs deleted, as requested
Begin final coordinates
     new unit-cell volume =    431.66714 a.u.^3 (    63.96647 Ang^3 )
     density =      4.14651 g/cm^3

CELL_PARAMETERS (angstrom)
   4.642831961   0.000000000   0.000000000
   0.000000000   4.642831961   0.000000000
   0.000000000   0.000000000   2.967470812

ATOMIC_POSITIONS (angstrom)
Ti               0.0000000000        0.0000000000        0.0000000000
Ti               2.3214159806        2.3214159806        1.4837354063
O                1.4162226201        1.4162226201        0.0000000000
O                3.2266093414        3.2266093414        0.0000000000
O                3.7376386006        0.9051933608        1.4837354063
O                0.9051933608        3.7376386006        1.4837354063
End final coordinates



     Writing config-only to output data dir ./Out/pwscf.save/

     Final scf calculation at the relaxed structure.
     The G-vectors are recalculated for the final unit cell
     Results may differ from those at the preceding step.
 
     G-vector sticks info
     --------------------
     sticks:   dense  smooth     PW     G-vecs:    dense   smooth      PW
     Sum        2941    2941    845                76651    76651   11745
 
     Using Slab Decomposition
 


     bravais-lattice index     =            0
     lattice parameter (alat)  =       8.7713  a.u.
     unit-cell volume          =     431.6671 (a.u.)^3
     number of atoms/cell      =            6
     number of atomic types    =            2
     number of electrons       =        48.00
     number of Kohn-Sham states=           29
     kinetic-energy cutoff     =     120.0000  Ry
     charge density cutoff     =     480.0000  Ry
     scf convergence threshold =      1.0E-08
     mixing beta               =       0.4000
     number of iterations used =           20  plain     mixing
     press convergence thresh. =      5.0E-01
     Exchange-correlation= PBE
                           (   1   4   3   4   0   0   0)

     GPU acceleration is ACTIVE.


     celldm(1)=   8.771311  celldm(2)=   0.000000  celldm(3)=   0.000000
     celldm(4)=   0.000000  celldm(5)=   0.000000  celldm(6)=   0.000000

     crystal axes: (cart. coord. in units of alat)
               a(1) = (   1.000270   0.000000   0.000000 )  
               a(2) = (   0.000000   1.000270   0.000000 )  
               a(3) = (   0.000000   0.000000   0.639324 )  

     reciprocal axes: (cart. coord. in units 2 pi/alat)
               b(1) = (  0.999730  0.000000  0.000000 )  
               b(2) = (  0.000000  0.999730  0.000000 )  
               b(3) = (  0.000000  0.000000  1.564153 )  


     PseudoPot. # 1 for Ti read from file:
     /cm/shared/apps/KO/pseudo/sg15/Ti_ONCV_PBE-1.2.upf
     MD5 check sum: 1aea57736bd12dcfee93c97d0b9b5968
     Pseudo is Norm-conserving, Zval = 12.0
     Generated using ONCVPSP code by D. R. Hamann
     Using radial grid of  602 points,  6 beta functions with: 
                l(1) =   0
                l(2) =   0
                l(3) =   1
                l(4) =   1
                l(5) =   2
                l(6) =   2

     PseudoPot. # 2 for O  read from file:
     /cm/shared/apps/KO/pseudo/sg15/O_ONCV_PBE-1.2.upf
     MD5 check sum: e36c48deb68f4e355fffe4602be2c42c
     Pseudo is Norm-conserving, Zval =  6.0
     Generated using ONCVPSP code by D. R. Hamann
     Using radial grid of  602 points,  4 beta functions with: 
                l(1) =   0
                l(2) =   0
                l(3) =   1
                l(4) =   1

     atomic species   valence    mass     pseudopotential
     Ti               12.00    47.86700     Ti( 1.00)
     O                 6.00    15.99900     O ( 1.00)

     16 Sym. Ops., with inversion, found ( 8 have fractional translation)



   Cartesian axes

     site n.     atom                  positions (alat units)
         1        Ti     tau(   1) = (   0.0000000   0.0000000   0.0000000  )
         2        Ti     tau(   2) = (   0.5001351   0.5001351   0.3196619  )
         3        O      tau(   3) = (   0.3051166   0.3051166   0.0000000  )
         4        O      tau(   4) = (   0.6951535   0.6951535   0.0000000  )
         5        O      tau(   5) = (   0.8052517   0.1950185   0.3196619  )
         6        O      tau(   6) = (   0.1950185   0.8052517   0.3196619  )

     number of k points=    50  Gaussian smearing, width (Ry)=  0.0200
                       cart. coord. in units 2pi/alat
        k(    1) = (   0.0000000   0.0000000   0.0000000), wk =   0.0069444
        k(    2) = (   0.0000000   0.0000000   0.1955191), wk =   0.0138889
        k(    3) = (   0.0000000   0.0000000   0.3910382), wk =   0.0138889
        k(    4) = (   0.0000000   0.0000000   0.5865573), wk =   0.0138889
        k(    5) = (   0.0000000   0.0000000  -0.7820764), wk =   0.0069444
        k(    6) = (   0.0000000   0.1666216   0.0000000), wk =   0.0277778
        k(    7) = (   0.0000000   0.1666216   0.1955191), wk =   0.0555556
        k(    8) = (   0.0000000   0.1666216   0.3910382), wk =   0.0555556
        k(    9) = (   0.0000000   0.1666216   0.5865573), wk =   0.0555556
        k(   10) = (   0.0000000   0.1666216  -0.7820764), wk =   0.0277778
        k(   11) = (   0.0000000   0.3332433   0.0000000), wk =   0.0277778
        k(   12) = (   0.0000000   0.3332433   0.1955191), wk =   0.0555556
        k(   13) = (   0.0000000   0.3332433   0.3910382), wk =   0.0555556
        k(   14) = (   0.0000000   0.3332433   0.5865573), wk =   0.0555556
        k(   15) = (   0.0000000   0.3332433  -0.7820764), wk =   0.0277778
        k(   16) = (   0.0000000  -0.4998649   0.0000000), wk =   0.0138889
        k(   17) = (   0.0000000  -0.4998649   0.1955191), wk =   0.0277778
        k(   18) = (   0.0000000  -0.4998649   0.3910382), wk =   0.0277778
        k(   19) = (   0.0000000  -0.4998649   0.5865573), wk =   0.0277778
        k(   20) = (   0.0000000  -0.4998649  -0.7820764), wk =   0.0138889
        k(   21) = (   0.1666216   0.1666216   0.0000000), wk =   0.0277778
        k(   22) = (   0.1666216   0.1666216   0.1955191), wk =   0.0555556
        k(   23) = (   0.1666216   0.1666216   0.3910382), wk =   0.0555556
        k(   24) = (   0.1666216   0.1666216   0.5865573), wk =   0.0555556
        k(   25) = (   0.1666216   0.1666216  -0.7820764), wk =   0.0277778
        k(   26) = (   0.1666216   0.3332433   0.0000000), wk =   0.0555556
        k(   27) = (   0.1666216   0.3332433   0.1955191), wk =   0.1111111
        k(   28) = (   0.1666216   0.3332433   0.3910382), wk =   0.1111111
        k(   29) = (   0.1666216   0.3332433   0.5865573), wk =   0.1111111
        k(   30) = (   0.1666216   0.3332433  -0.7820764), wk =   0.0555556
        k(   31) = (   0.1666216  -0.4998649   0.0000000), wk =   0.0277778
        k(   32) = (   0.1666216  -0.4998649   0.1955191), wk =   0.0555556
        k(   33) = (   0.1666216  -0.4998649   0.3910382), wk =   0.0555556
        k(   34) = (   0.1666216  -0.4998649   0.5865573), wk =   0.0555556
        k(   35) = (   0.1666216  -0.4998649  -0.7820764), wk =   0.0277778
        k(   36) = (   0.3332433   0.3332433   0.0000000), wk =   0.0277778
        k(   37) = (   0.3332433   0.3332433   0.1955191), wk =   0.0555556
        k(   38) = (   0.3332433   0.3332433   0.3910382), wk =   0.0555556
        k(   39) = (   0.3332433   0.3332433   0.5865573), wk =   0.0555556
        k(   40) = (   0.3332433   0.3332433  -0.7820764), wk =   0.0277778
        k(   41) = (   0.3332433  -0.4998649   0.0000000), wk =   0.0277778
        k(   42) = (   0.3332433  -0.4998649   0.1955191), wk =   0.0555556
        k(   43) = (   0.3332433  -0.4998649   0.3910382), wk =   0.0555556
        k(   44) = (   0.3332433  -0.4998649   0.5865573), wk =   0.0555556
        k(   45) = (   0.3332433  -0.4998649  -0.7820764), wk =   0.0277778
        k(   46) = (  -0.4998649  -0.4998649   0.0000000), wk =   0.0069444
        k(   47) = (  -0.4998649  -0.4998649   0.1955191), wk =   0.0138889
        k(   48) = (  -0.4998649  -0.4998649   0.3910382), wk =   0.0138889
        k(   49) = (  -0.4998649  -0.4998649   0.5865573), wk =   0.0138889
        k(   50) = (  -0.4998649  -0.4998649  -0.7820764), wk =   0.0069444

     Dense  grid:    76651 G-vectors     FFT dimensions: (  64,  64,  40)

     Estimated max dynamical RAM per process >     325.06 MB

     Initial potential from superposition of free atoms

     starting charge      47.7767, renormalised to      48.0000
     Starting wfcs are random

     total cpu time spent up to now is       25.4 secs

     per-process dynamical memory:   573.7 Mb

     Self-consistent Calculation

     iteration #  1     ecut=   120.00 Ry     beta= 0.40
     Davidson diagonalization with overlap
     c_bands:  4 eigenvalues not converged
     c_bands:  3 eigenvalues not converged
     c_bands:  1 eigenvalues not converged
     c_bands:  2 eigenvalues not converged
     c_bands:  1 eigenvalues not converged
     c_bands:  1 eigenvalues not converged
     c_bands:  1 eigenvalues not converged
     c_bands:  1 eigenvalues not converged
     c_bands:  1 eigenvalues not converged
     c_bands:  2 eigenvalues not converged
     c_bands:  2 eigenvalues not converged
     c_bands:  1 eigenvalues not converged
     c_bands:  2 eigenvalues not converged
     c_bands:  1 eigenvalues not converged
     c_bands:  1 eigenvalues not converged
     c_bands:  1 eigenvalues not converged
     c_bands:  1 eigenvalues not converged
     c_bands:  2 eigenvalues not converged
     c_bands:  1 eigenvalues not converged
     ethr =  1.00E-06,  avg # of iterations = 38.1

     total cpu time spent up to now is       31.5 secs

     total energy              =    -358.53989251 Ry
     estimated scf accuracy    <       2.67504228 Ry

     iteration #  2     ecut=   120.00 Ry     beta= 0.40
     Davidson diagonalization with overlap
     ethr =  5.57E-03,  avg # of iterations =  4.0

     total cpu time spent up to now is       32.4 secs

     total energy              =    -359.06882910 Ry
     estimated scf accuracy    <       1.01395512 Ry

     iteration #  3     ecut=   120.00 Ry     beta= 0.40
     Davidson diagonalization with overlap
     ethr =  2.11E-03,  avg # of iterations =  3.0

     total cpu time spent up to now is       33.2 secs

     total energy              =    -359.30817288 Ry
     estimated scf accuracy    <       0.04718689 Ry

     iteration #  4     ecut=   120.00 Ry     beta= 0.40
     Davidson diagonalization with overlap
     ethr =  9.83E-05,  avg # of iterations =  5.2

     total cpu time spent up to now is       34.3 secs

     total energy              =    -359.32389219 Ry
     estimated scf accuracy    <       0.01516142 Ry

     iteration #  5     ecut=   120.00 Ry     beta= 0.40
     Davidson diagonalization with overlap
     ethr =  3.16E-05,  avg # of iterations =  5.7

     total cpu time spent up to now is       35.4 secs

     total energy              =    -359.32925571 Ry
     estimated scf accuracy    <       0.01540629 Ry

     iteration #  6     ecut=   120.00 Ry     beta= 0.40
     Davidson diagonalization with overlap
     ethr =  3.16E-05,  avg # of iterations =  1.0

     total cpu time spent up to now is       36.0 secs

     total energy              =    -359.32578120 Ry
     estimated scf accuracy    <       0.00756635 Ry

     iteration #  7     ecut=   120.00 Ry     beta= 0.40
     Davidson diagonalization with overlap
     ethr =  1.58E-05,  avg # of iterations =  4.5

     total cpu time spent up to now is       36.9 secs

     total energy              =    -359.32861600 Ry
     estimated scf accuracy    <       0.00204778 Ry

     iteration #  8     ecut=   120.00 Ry     beta= 0.40
     Davidson diagonalization with overlap
     ethr =  4.27E-06,  avg # of iterations =  1.6

     total cpu time spent up to now is       37.5 secs

     total energy              =    -359.32839064 Ry
     estimated scf accuracy    <       0.00100585 Ry

     iteration #  9     ecut=   120.00 Ry     beta= 0.40
     Davidson diagonalization with overlap
     ethr =  2.10E-06,  avg # of iterations =  3.5

     total cpu time spent up to now is       38.4 secs

     total energy              =    -359.32850913 Ry
     estimated scf accuracy    <       0.00009341 Ry

     iteration # 10     ecut=   120.00 Ry     beta= 0.40
     Davidson diagonalization with overlap
     ethr =  1.95E-07,  avg # of iterations =  3.3

     total cpu time spent up to now is       39.2 secs

     total energy              =    -359.32846973 Ry
     estimated scf accuracy    <       0.00010254 Ry

     iteration # 11     ecut=   120.00 Ry     beta= 0.40
     Davidson diagonalization with overlap
     ethr =  1.95E-07,  avg # of iterations =  4.7

     total cpu time spent up to now is       40.2 secs

     total energy              =    -359.32850137 Ry
     estimated scf accuracy    <       0.00000951 Ry

     iteration # 12     ecut=   120.00 Ry     beta= 0.40
     Davidson diagonalization with overlap
     ethr =  1.98E-08,  avg # of iterations =  3.9

     total cpu time spent up to now is       41.1 secs

     total energy              =    -359.32850357 Ry
     estimated scf accuracy    <       0.00001461 Ry

     iteration # 13     ecut=   120.00 Ry     beta= 0.40
     Davidson diagonalization with overlap
     ethr =  1.98E-08,  avg # of iterations =  1.0

     total cpu time spent up to now is       41.7 secs

     total energy              =    -359.32849997 Ry
     estimated scf accuracy    <       0.00001828 Ry

     iteration # 14     ecut=   120.00 Ry     beta= 0.40
     Davidson diagonalization with overlap
     ethr =  1.98E-08,  avg # of iterations =  1.0

     total cpu time spent up to now is       42.2 secs

     total energy              =    -359.32849835 Ry
     estimated scf accuracy    <       0.00000634 Ry

     iteration # 15     ecut=   120.00 Ry     beta= 0.40
     Davidson diagonalization with overlap
     ethr =  1.32E-08,  avg # of iterations =  4.3

     total cpu time spent up to now is       43.2 secs

     total energy              =    -359.32849982 Ry
     estimated scf accuracy    <       0.00000003 Ry

     iteration # 16     ecut=   120.00 Ry     beta= 0.40
     Davidson diagonalization with overlap
     ethr =  5.57E-11,  avg # of iterations =  8.2

     total cpu time spent up to now is       44.7 secs

     total energy              =    -359.32849996 Ry
     estimated scf accuracy    <       0.00000178 Ry

     iteration # 17     ecut=   120.00 Ry     beta= 0.40
     Davidson diagonalization with overlap
     ethr =  5.57E-11,  avg # of iterations =  5.3

     total cpu time spent up to now is       45.8 secs

     total energy              =    -359.32849968 Ry
     estimated scf accuracy    <       0.00000083 Ry

     iteration # 18     ecut=   120.00 Ry     beta= 0.40
     Davidson diagonalization with overlap
     ethr =  5.57E-11,  avg # of iterations =  6.1

     total cpu time spent up to now is       46.9 secs

     End of self-consistent calculation

          k = 0.0000 0.0000 0.0000 (  9551 PWs)   bands (ev):

   -48.0511 -48.0363 -24.3444 -24.3444 -24.1945 -24.1945 -24.1470 -24.1171
    -9.1786  -8.0474  -7.3576  -7.3576   3.2108   3.6592   4.1331   5.1633
     5.1633   6.3540   6.3540   6.9638   8.1908   8.4312   8.4312   8.8672
    10.7683  11.0420  11.3175  11.4066  11.4066

          k = 0.0000 0.0000 0.1955 (  9599 PWs)   bands (ev):

   -48.0450 -48.0312 -24.3282 -24.3282 -24.2105 -24.1915 -24.1915 -24.1837
    -9.0217  -7.9590  -7.4296  -7.4296   3.4331   3.8263   4.3099   4.9882
     4.9882   6.5078   6.6645   6.6645   7.5779   8.1331   8.1331   8.8010
    11.1249  11.1880  11.2144  11.5908  11.5908

          k = 0.0000 0.0000 0.3910 (  9596 PWs)   bands (ev):

   -48.0297 -48.0192 -24.3607 -24.3416 -24.2872 -24.2872 -24.1859 -24.1859
    -8.6158  -7.7667  -7.6029  -7.6029   4.0010   4.2301   4.8260   4.8653
     4.8653   5.6222   6.4606   7.1237   7.1237   7.4213   7.4213   8.4543
    11.1153  11.4374  11.7122  11.9983  11.9983

          k = 0.0000 0.0000 0.5866 (  9604 PWs)   bands (ev):

   -48.0137 -48.0080 -24.5061 -24.4964 -24.2400 -24.2400 -24.1860 -24.1860
    -8.1273  -7.7751  -7.7751  -7.6457   4.5020   4.5468   5.0311   5.0311
     5.0891   5.6109   5.6341   6.6102   6.6102   7.3904   7.3904   7.6687
    11.3287  11.7274  12.1355  12.3668  12.3668

          k = 0.0000 0.0000-0.7821 (  9580 PWs)   bands (ev):

   -48.0051 -48.0051 -24.5623 -24.5623 -24.2100 -24.2100 -24.1964 -24.1964
    -7.8461  -7.8461  -7.7582  -7.7582   4.4996   4.4996   5.2738   5.2738
     5.3070   5.3070   6.1331   6.1331   6.6389   6.6389   7.4640   7.4640
    11.8140  11.8140  12.0795  12.5063  12.5065

          k = 0.0000 0.1666 0.0000 (  9563 PWs)   bands (ev):

   -48.0501 -48.0373 -24.3365 -24.3359 -24.2040 -24.2033 -24.1450 -24.1191
    -9.0863  -8.0580  -7.4433  -7.3906   3.3828   3.7617   4.3050   5.1734
     5.1805   6.1969   6.3123   6.9807   7.9518   8.0259   8.2231   8.7747
    10.9122  11.2265  11.5074  11.5075  11.5464

          k = 0.0000 0.1666 0.1955 (  9585 PWs)   bands (ev):

   -48.0440 -48.0321 -24.3216 -24.3202 -24.2120 -24.2070 -24.1956 -24.1788
    -8.9352  -7.9628  -7.5136  -7.4586   3.5900   3.9338   4.4230   4.9766
     5.0866   6.3555   6.4840   6.7467   7.3084   7.9708   8.0084   8.6895
    11.2171  11.3287  11.3848  11.6241  11.7528

          k = 0.0000 0.1666 0.3910 (  9593 PWs)   bands (ev):

   -48.0290 -48.0199 -24.3642 -24.3464 -24.2800 -24.2773 -24.1915 -24.1900
    -8.5515  -7.7586  -7.6749  -7.6168   4.0904   4.3482   4.6430   4.8298
     5.2696   5.5890   6.1144   6.9988   7.0306   7.4589   7.5010   8.4358
    11.0741  11.6011  11.7915  11.9148  12.1103

          k = 0.0000 0.1666 0.5866 (  9593 PWs)   bands (ev):

   -48.0133 -48.0083 -24.5081 -24.4996 -24.2357 -24.2344 -24.1891 -24.1880
    -8.1358  -7.8677  -7.7328  -7.5828   4.5216   4.5836   4.5864   4.9547
     5.4192   5.4396   5.9640   6.5883   6.7428   7.2802   7.3588   7.8214
    11.1641  11.8081  11.9825  12.1448  12.4593

          k = 0.0000 0.1666-0.7821 (  9590 PWs)   bands (ev):

   -48.0051 -48.0051 -24.5647 -24.5647 -24.2078 -24.2078 -24.1962 -24.1962
    -7.9719  -7.9719  -7.6264  -7.6264   4.3912   4.3912   4.9209   4.9209
     5.6422   5.6422   6.1925   6.1925   6.9187   6.9187   7.3628   7.3628
    11.5623  11.5623  12.0855  12.0855  12.5937

          k = 0.0000 0.3332 0.0000 (  9572 PWs)   bands (ev):

   -48.0474 -48.0400 -24.3159 -24.3141 -24.2275 -24.2256 -24.1395 -24.1245
    -8.8303  -8.1707  -7.5752  -7.4743   3.7602   3.9845   4.8583   5.1978
     5.2108   5.8950   6.1093   6.9243   7.0726   7.6615   8.0157   8.4861
    11.1914  11.4323  11.7327  11.7984  11.9320

          k = 0.0000 0.3332 0.1955 (  9574 PWs)   bands (ev):

   -48.0415 -48.0346 -24.3036 -24.2995 -24.2330 -24.2280 -24.1941 -24.1799
    -8.6950  -8.0619  -7.6397  -7.5331   3.9493   4.1737   4.7240   4.9492
     5.3468   6.1210   6.2421   6.6347   6.6963   7.4476   8.0041   8.4682
    11.3929  11.5823  11.6785  11.7995  12.0615

          k = 0.0000 0.3332 0.3910 (  9565 PWs)   bands (ev):

   -48.0271 -48.0218 -24.3678 -24.3564 -24.2627 -24.2567 -24.2058 -24.2017
    -8.3737  -7.8684  -7.7343  -7.6526   4.3331   4.6395   4.6427   4.7491
     5.5249   5.5501   5.8235   6.6245   6.7329   7.4085   7.7459   8.2859
    11.1729  11.7140  11.9164  11.9558  12.3303

          k = 0.0000 0.3332 0.5866 (  9592 PWs)   bands (ev):

   -48.0122 -48.0094 -24.5113 -24.5063 -24.2247 -24.2211 -24.1977 -24.1944
    -8.1337  -7.9950  -7.6427  -7.5392   4.2765   4.4499   4.6438   4.9479
     5.2715   5.7552   6.0693   6.6938   6.8564   7.1354   7.4512   8.0355
    10.9295  11.4697  11.9959  12.1657  12.5988

          k = 0.0000 0.3332-0.7821 (  9610 PWs)   bands (ev):

   -48.0051 -48.0051 -24.5693 -24.5693 -24.2039 -24.2039 -24.1956 -24.1956
    -8.0863  -8.0863  -7.4998  -7.4998   4.0906   4.0906   4.9262   4.9262
     5.6839   5.6839   6.3761   6.3761   7.0780   7.0780   7.5541   7.5541
    11.0797  11.0797  12.0962  12.0962  12.7006

          k = 0.0000-0.4999 0.0000 (  9574 PWs)   bands (ev):

   -48.0437 -48.0437 -24.2984 -24.2984 -24.2440 -24.2440 -24.1320 -24.1320
    -8.4786  -8.4786  -7.5643  -7.5643   4.0415   4.0415   5.2179   5.2179
     5.7411   5.7411   5.8899   5.8899   7.3036   7.3036   8.1558   8.1558
    11.4047  11.4047  11.8861  11.8861  12.4292

          k = 0.0000-0.4999 0.1955 (  9568 PWs)   bands (ev):

   -48.0381 -48.0381 -24.2848 -24.2848 -24.2485 -24.2485 -24.1865 -24.1865
    -8.3617  -8.3617  -7.6178  -7.6178   4.2344   4.2344   4.9368   4.9368
     5.7445   5.7445   6.2134   6.2134   6.8432   6.8432   8.2207   8.2207
    11.5453  11.5453  11.9225  11.9225  12.4073

          k = 0.0000-0.4999 0.3910 (  9578 PWs)   bands (ev):

   -48.0244 -48.0244 -24.3650 -24.3650 -24.2465 -24.2465 -24.2144 -24.2144
    -8.1249  -8.1249  -7.6963  -7.6963   4.5921   4.5921   4.7939   4.7939
     5.3413   5.3413   6.2299   6.2299   6.9528   6.9528   8.0503   8.0503
    11.4457  11.4457  12.0653  12.0654  12.4974

          k = 0.0000-0.4999 0.5866 (  9604 PWs)   bands (ev):

   -48.0108 -48.0108 -24.5112 -24.5112 -24.2117 -24.2117 -24.2050 -24.2050
    -8.0891  -8.0891  -7.5641  -7.5641   4.2567   4.2567   4.8035   4.8035
     5.5801   5.5801   6.2915   6.2915   7.0898   7.0898   7.8566   7.8566
    11.0346  11.0346  12.1334  12.1334  12.6617

          k = 0.0000-0.4999-0.7821 (  9604 PWs)   bands (ev):

   -48.0051 -48.0051 -24.5715 -24.5715 -24.2022 -24.2022 -24.1951 -24.1951
    -8.1279  -8.1279  -7.4520  -7.4520   3.9547   3.9547   4.9812   4.9812
     5.6588   5.6588   6.5346   6.5346   6.8839   6.8839   7.8814   7.8814
    10.8113  10.8113  12.1009  12.1009  12.7399

          k = 0.1666 0.1666 0.0000 (  9591 PWs)   bands (ev):

   -48.0493 -48.0381 -24.3471 -24.3129 -24.2281 -24.1929 -24.1432 -24.1208
    -9.0080  -8.0813  -7.5240  -7.3885   3.3932   3.9490   4.4574   5.1470
     5.2137   5.9859   6.4129   7.0099   7.6318   7.9345   8.0910   8.7066
    10.8384  11.3807  11.4112  11.6851  11.7670

          k = 0.1666 0.1666 0.1955 (  9590 PWs)   bands (ev):

   -48.0432 -48.0329 -24.3307 -24.2995 -24.2320 -24.2030 -24.1900 -24.1811
    -8.8614  -7.9797  -7.5895  -7.4590   3.5861   4.1320   4.4942   5.0149
     5.1201   6.1542   6.5964   6.6907   7.1144   7.9069   7.9634   8.5566
    11.1149  11.3169  11.5495  11.8169  11.8437

          k = 0.1666 0.1666 0.3910 (  9584 PWs)   bands (ev):

   -48.0284 -48.0205 -24.3651 -24.3481 -24.2893 -24.2581 -24.2048 -24.1847
    -8.4943  -7.7519  -7.7353  -7.6288   4.0596   4.5265   4.5273   4.9112
     5.4412   5.4730   6.0818   6.7219   7.1240   7.3532   7.6542   8.4012
    11.0708  11.5456  11.8506  12.0492  12.1214

          k = 0.1666 0.1666 0.5866 (  9587 PWs)   bands (ev):

   -48.0129 -48.0087 -24.5097 -24.5003 -24.2413 -24.2218 -24.1967 -24.1855
    -8.1399  -7.8292  -7.7979  -7.5485   4.4181   4.5571   4.6936   4.7427
     5.2114   5.7797   6.1101   6.6066   6.6565   7.2957   7.4027   7.9369
    11.0619  11.8477  12.0228  12.0920  12.2593

          k = 0.1666 0.1666-0.7821 (  9596 PWs)   bands (ev):

   -48.0051 -48.0051 -24.5686 -24.5630 -24.2105 -24.2033 -24.1967 -24.1958
    -8.0863  -7.8677  -7.7316  -7.5023   4.1417   4.6373   4.8441   4.8704
     5.0519   6.1329   6.2453   6.3590   6.8815   7.1325   7.2844   7.4893
    11.2466  11.7222  12.0877  12.0902  12.2804

          k = 0.1666 0.3332 0.0000 (  9583 PWs)   bands (ev):

   -48.0469 -48.0405 -24.3407 -24.2987 -24.2437 -24.2006 -24.1385 -24.1255
    -8.7918  -8.2175  -7.5899  -7.4499   3.5586   4.0926   4.9438   5.1514
     5.2184   5.8828   6.2952   7.0514   7.1335   7.6863   7.8134   8.3981
    11.0016  11.4419  11.5308  11.8903  12.0695

          k = 0.1666 0.3332 0.1955 (  9583 PWs)   bands (ev):

   -48.0410 -48.0351 -24.3252 -24.2848 -24.2489 -24.2061 -24.1920 -24.1818
    -8.6573  -8.1074  -7.6487  -7.5147   3.7410   4.2907   4.6755   4.9452
     5.4236   6.1469   6.3700   6.5671   6.9927   7.4854   7.8639   8.2968
    11.2433  11.4972  11.6023  11.9551  12.0973

          k = 0.1666 0.3332 0.3910 (  9576 PWs)   bands (ev):

   -48.0267 -48.0222 -24.3657 -24.3548 -24.2820 -24.2462 -24.2145 -24.1887
    -8.3369  -7.8989  -7.7311  -7.6601   4.1693   4.4876   4.6640   4.8211
     5.3492   5.8868   5.9541   6.5788   6.9738   7.3222   7.7125   8.2192
    11.2088  11.6373  11.7909  12.0953  12.2795

          k = 0.1666 0.3332 0.5866 (  9590 PWs)   bands (ev):

   -48.0120 -48.0095 -24.5110 -24.5038 -24.2372 -24.2112 -24.2054 -24.1876
    -8.1216  -7.9432  -7.7033  -7.5405   4.2422   4.4051   4.6300   4.9259
     5.0776   5.8789   6.2254   6.5519   6.8453   7.2915   7.5562   8.0948
    10.9505  11.5768  11.9625  12.1404  12.3682

          k = 0.1666 0.3332-0.7821 (  9574 PWs)   bands (ev):

   -48.0051 -48.0051 -24.5708 -24.5652 -24.2086 -24.2017 -24.1965 -24.1957
    -8.1300  -7.9820  -7.6085  -7.4497   3.9671   4.2778   4.8452   4.9752
     5.1041   5.9835   6.2953   6.4045   7.0138   7.4188   7.5240   7.7744
    10.9452  11.3404  12.0991  12.1002  12.3800

          k = 0.1666-0.4999 0.0000 (  9596 PWs)   bands (ev):

   -48.0437 -48.0437 -24.3193 -24.3193 -24.2232 -24.2232 -24.1320 -24.1320
    -8.4943  -8.4943  -7.5419  -7.5419   3.8684   3.8684   5.1859   5.1859
     5.6253   5.6253   6.3961   6.3961   7.3792   7.3792   7.9802   7.9802
    11.2840  11.2840  11.7681  11.7681  12.5006

          k = 0.1666-0.4999 0.1955 (  9588 PWs)   bands (ev):

   -48.0380 -48.0380 -24.3057 -24.3057 -24.2279 -24.2279 -24.1863 -24.1863
    -8.3750  -8.3750  -7.5987  -7.5987   4.0540   4.0540   4.8477   4.8477
     5.8866   5.8866   6.5393   6.5393   6.9045   6.9045   8.0310   8.0310
    11.4675  11.4675  11.8071  11.8071  12.4344

          k = 0.1666-0.4999 0.3910 (  9574 PWs)   bands (ev):

   -48.0244 -48.0244 -24.3623 -24.3623 -24.2626 -24.2626 -24.2015 -24.2015
    -8.1194  -8.1194  -7.6983  -7.6983   4.4514   4.4514   4.5919   4.5919
     5.5938   5.5938   6.4529   6.4529   6.9892   6.9892   7.9433   7.9433
    11.4910  11.4910  11.9462  11.9462  12.4238

          k = 0.1666-0.4999 0.5866 (  9576 PWs)   bands (ev):

   -48.0108 -48.0108 -24.5087 -24.5087 -24.2251 -24.2251 -24.1946 -24.1946
    -8.0545  -8.0545  -7.5981  -7.5981   4.2301   4.2301   4.7504   4.7504
     5.4932   5.4932   6.4050   6.4050   7.1346   7.1346   7.9269   7.9269
    11.1319  11.1319  12.0847  12.0847  12.5545

          k = 0.1666-0.4999-0.7821 (  9584 PWs)   bands (ev):

   -48.0051 -48.0051 -24.5691 -24.5691 -24.2043 -24.2043 -24.1960 -24.1960
    -8.0912  -8.0912  -7.4895  -7.4895   3.9907   3.9907   4.9078   4.9078
     5.5609   5.5609   6.3345   6.3345   7.2149   7.2149   7.9424   7.9424
    10.9278  10.9278  12.1058  12.1058  12.6258

          k = 0.3332 0.3332 0.0000 (  9594 PWs)   bands (ev):

   -48.0455 -48.0418 -24.3525 -24.3215 -24.2216 -24.1895 -24.1357 -24.1282
    -8.6830  -8.3505  -7.5644  -7.4488   3.4465   3.8870   5.1147   5.1770
     5.2991   6.0806   6.5937   7.1301   7.3101   7.4050   7.6750   8.2043
    10.8200  11.2856  11.4211  11.7718  12.3559

          k = 0.3332 0.3332 0.1955 (  9585 PWs)   bands (ev):

   -48.0398 -48.0363 -24.3358 -24.3077 -24.2273 -24.1961 -24.1868 -24.1862
    -8.5518  -8.2353  -7.6218  -7.5163   3.6262   4.0737   4.6770   4.8555
     5.7678   6.4595   6.5748   6.7802   7.0389   7.5170   7.5451   7.9630
    11.0771  11.4781  11.5018  11.8312  12.2796

          k = 0.3332 0.3332 0.3910 (  9568 PWs)   bands (ev):

   -48.0257 -48.0231 -24.3611 -24.3524 -24.2934 -24.2638 -24.2004 -24.1823
    -8.2382  -7.9849  -7.7206  -7.6795   4.0631   4.3890   4.4982   4.5349
     5.6515   6.1302   6.2867   6.7640   7.1343   7.2549   7.5563   8.0034
    11.3767  11.5291  11.8022  12.0073  12.1619

          k = 0.3332 0.3332 0.5866 (  9575 PWs)   bands (ev):

   -48.0115 -48.0100 -24.5079 -24.5015 -24.2439 -24.2260 -24.1941 -24.1845
    -8.0656  -7.8427  -7.8089  -7.5875   4.1789   4.3762   4.4774   4.7245
     5.2062   5.7681   6.4097   6.4464   7.0611   7.4503   7.7425   8.1541
    11.0835  11.7778  11.8952  11.9989  12.1408

          k = 0.3332 0.3332-0.7821 (  9568 PWs)   bands (ev):

   -48.0051 -48.0051 -24.5682 -24.5626 -24.2114 -24.2042 -24.1973 -24.1965
    -8.0960  -7.9103  -7.6784  -7.4819   3.9522   4.4445   4.5396   4.7606
     5.1528   5.8776   6.1492   6.2612   7.3866   7.5755   7.7840   8.0596
    10.9702  11.5470  12.0404  12.1097  12.1334

          k = 0.3332-0.4999 0.0000 (  9610 PWs)   bands (ev):

   -48.0437 -48.0437 -24.3452 -24.3452 -24.1976 -24.1976 -24.1319 -24.1319
    -8.5239  -8.5239  -7.4989  -7.4989   3.5774   3.5774   5.1265   5.1265
     5.8450   5.8450   6.8545   6.8545   7.5317   7.5317   7.7369   7.7369
    10.9872  10.9872  11.5391  11.5391  12.6255

          k = 0.3332-0.4999 0.1955 (  9560 PWs)   bands (ev):

   -48.0380 -48.0380 -24.3294 -24.3294 -24.2051 -24.2051 -24.1858 -24.1858
    -8.3999  -8.3999  -7.5620  -7.5620   3.7570   3.7570   4.7495   4.7495
     6.2493   6.2493   6.9804   6.9804   7.0729   7.0729   7.6423   7.6423
    11.2385  11.2385  11.6064  11.6064  12.4977

          k = 0.3332-0.4999 0.3910 (  9580 PWs)   bands (ev):

   -48.0244 -48.0244 -24.3554 -24.3554 -24.2850 -24.2850 -24.1867 -24.1867
    -8.1083  -8.1083  -7.7024  -7.7024   4.1797   4.1797   4.4131   4.4131
     5.9725   5.9725   6.7840   6.7840   7.1241   7.1241   7.6848   7.6848
    11.6009  11.6009  11.7330  11.7330  12.2566

          k = 0.3332-0.4999 0.5866 (  9586 PWs)   bands (ev):

   -48.0107 -48.0107 -24.5034 -24.5034 -24.2393 -24.2393 -24.1867 -24.1867
    -7.9612  -7.9612  -7.6901  -7.6901   4.2203   4.2203   4.5511   4.5511
     5.4852   5.4852   6.4425   6.4425   7.3508   7.3508   8.0126   8.0126
    11.4037  11.4037  12.0000  12.0000  12.2665

          k = 0.3332-0.4999-0.7821 (  9584 PWs)   bands (ev):

   -48.0051 -48.0051 -24.5642 -24.5642 -24.2092 -24.2092 -24.1972 -24.1972
    -7.9989  -7.9989  -7.5834  -7.5834   4.1114   4.1114   4.6595   4.6595
     5.4482   5.4482   6.2028   6.2028   7.5483   7.5483   8.0990   8.0990
    11.2254  11.2254  12.1152  12.3205  12.3243

          k =-0.4999-0.4999 0.0000 (  9596 PWs)   bands (ev):

   -48.0436 -48.0436 -24.3552 -24.3552 -24.1878 -24.1878 -24.1319 -24.1319
    -8.5379  -8.5379  -7.4782  -7.4782   3.4521   3.4521   5.0986   5.0986
     6.0940   6.0940   6.7610   6.7610   7.6095   7.6095   7.8198   7.8198
    10.7992  10.7992  11.4264  11.4264  12.6789

          k =-0.4999-0.4999 0.1955 (  9568 PWs)   bands (ev):

   -48.0380 -48.0380 -24.3384 -24.3384 -24.1969 -24.1969 -24.1853 -24.1853
    -8.4116  -8.4116  -7.5443  -7.5443   3.6311   3.6311   4.7141   4.7141
     6.6488   6.6488   6.8683   6.8683   7.1020   7.1020   7.6109   7.6109
    11.0812  11.0812  11.5253  11.5253  12.5264

          k =-0.4999-0.4999 0.3910 (  9592 PWs)   bands (ev):

   -48.0244 -48.0244 -24.3507 -24.3507 -24.2955 -24.2955 -24.1812 -24.1812
    -8.1027  -8.1027  -7.7044  -7.7044   4.0629   4.0629   4.3541   4.3541
     6.1489   6.1489   6.9779   6.9779   7.1542   7.1542   7.5350   7.5350
    11.5709  11.5709  11.7597  11.7597  12.1294

          k =-0.4999-0.4999 0.5866 (  9584 PWs)   bands (ev):

   -48.0107 -48.0107 -24.5006 -24.5006 -24.2452 -24.2452 -24.1840 -24.1840
    -7.8647  -7.8647  -7.7860  -7.7860   4.2713   4.2713   4.3910   4.3910
     5.5108   5.5108   6.4283   6.4283   7.4935   7.4935   8.0279   8.0279
    11.6766  11.6766  11.9648  11.9855  11.9855

          k =-0.4999-0.4999-0.7821 (  9568 PWs)   bands (ev):

   -48.0051 -48.0051 -24.5616 -24.5616 -24.2118 -24.2118 -24.1977 -24.1977
    -7.9312  -7.9312  -7.6519  -7.6519   4.3004   4.3004   4.3890   4.3890
     5.4277   5.4277   6.1610   6.1610   7.6573   7.6573   8.1952   8.1952
    11.4651  11.4651  12.0780  12.0780  12.1215

     the Fermi energy is     9.7984 ev

!    total energy              =    -359.32849983 Ry
     estimated scf accuracy    <          8.7E-09 Ry
     smearing contrib. (-TS)   =      -0.00000000 Ry
     internal energy E=F+TS    =    -359.32849983 Ry

     The total energy is F=E-TS. E is the sum of the following terms:
     one-electron contribution =    -125.58511264 Ry
     hartree contribution      =      84.88437726 Ry
     xc contribution           =     -56.69178581 Ry
     ewald contribution        =    -261.93597864 Ry

     convergence has been achieved in  18 iterations

     Forces acting on atoms (cartesian axes, Ry/au):

     atom    1 type  1   force =     0.00000000    0.00000000    0.00000000
     atom    2 type  1   force =     0.00000000    0.00000000    0.00000000
     atom    3 type  2   force =     0.00001602    0.00001602    0.00000000
     atom    4 type  2   force =    -0.00001602   -0.00001602    0.00000000
     atom    5 type  2   force =     0.00001602   -0.00001602    0.00000000
     atom    6 type  2   force =    -0.00001602    0.00001602    0.00000000

     Total force =     0.000045     Total SCF correction =     0.000027
     SCF correction compared to forces is large: reduce conv_thr to get better values


     Computing stress (Cartesian axis) and pressure

          total   stress  (Ry/bohr**3)                   (kbar)     P=        0.09
   0.00000041   0.00000000   0.00000000            0.06        0.00        0.00
   0.00000000   0.00000041   0.00000000            0.00        0.06        0.00
   0.00000000   0.00000000   0.00000108            0.00        0.00        0.16


     Writing all to output data dir ./Out/pwscf.save/
 
     init_run     :      1.54s CPU      2.09s WALL (       2 calls)
     electrons    :     39.35s CPU     40.58s WALL (       4 calls)
     update_pot   :      0.48s CPU      0.40s WALL (       2 calls)
     forces       :      1.82s CPU      1.94s WALL (       4 calls)
     stress       :      2.71s CPU      2.90s WALL (       4 calls)

     Called by init_run:
     wfcinit      :      0.87s CPU      1.18s WALL (       2 calls)
     potinit      :      0.03s CPU      0.03s WALL (       2 calls)
     hinit0       :      0.51s CPU      0.69s WALL (       2 calls)

     Called by electrons:
     c_bands      :     34.94s CPU     36.08s WALL (      37 calls)
     sum_band     :      3.75s CPU      3.85s WALL (      37 calls)
     v_of_rho     :      0.31s CPU      0.16s WALL (      39 calls)
     mix_rho      :      0.32s CPU      0.39s WALL (      37 calls)

     Called by c_bands:
     init_us_2    :      1.73s CPU      1.77s WALL (    4200 calls)
     init_us_2:gp :      1.62s CPU      1.66s WALL (    4200 calls)
     cegterg      :     30.66s CPU     31.21s WALL (    1900 calls)

     Called by *egterg:
     cdiaghg      :     10.51s CPU     11.05s WALL (   11183 calls)
                                       10.98s GPU  (   11183 calls)
     h_psi        :     12.54s CPU     13.10s WALL (   11533 calls)
                                       13.01s GPU  (   11533 calls)
     g_psi        :      0.03s CPU      0.26s WALL (    9533 calls)
                                        0.19s GPU  (    9533 calls)

     Called by h_psi:
     h_psi:calbec :      0.43s CPU      1.46s WALL (   11533 calls)
                                        1.39s GPU  (   11533 calls)
     vloc_psi     :      8.53s CPU      8.92s WALL (   11533 calls)
                                        8.84s GPU  (   11533 calls)
     add_vuspsi   :      1.91s CPU      2.22s WALL (   11533 calls)
                                        2.14s GPU  (   11533 calls)

     General routines
     calbec       :      0.33s CPU      0.42s WALL (   12533 calls)
     fft          :      0.01s CPU      0.20s WALL (     422 calls)
                                        0.20s GPU  (     422 calls)
     ffts         :      0.00s CPU      0.00s WALL (      37 calls)
                                        0.00s GPU  (      37 calls)
     fftw         :      0.35s CPU      5.60s WALL (   38046 calls)
                                        5.35s GPU  (   38046 calls)
 
 
     PWSCF        :     46.39s CPU     48.32s WALL

 
   This run was terminated on:  12:10: 4  23Jul2026            

=------------------------------------------------------------------------------=
   JOB DONE.
=------------------------------------------------------------------------------=
