
     Program PWSCF v.7.2 starts on 23Jul2026 at 12:22:26 
        Git branch: krg.prod
        Last git commit: daa121e36ad33d2e2c57a5cfc9f193e3f68d7ebf
        Last git commit date: Wed Feb 25 11:53:28 2026 -0600
        Last git commit subject: use krg software repo instead

     This program is part of the open-source Quantum ESPRESSO suite
     for quantum simulation of materials; please cite
         "P. Giannozzi et al., J. Phys.:Condens. Matter 21 395502 (2009);
         "P. Giannozzi et al., J. Phys.:Condens. Matter 29 465901 (2017);
         "P. Giannozzi et al., J. Chem. Phys. 152 154105 (2020);
          URL http://www.quantum-espresso.org", 
     in publications or presentations arising from this work. More details at
     http://www.quantum-espresso.org/quote

     Serial multi-threaded version, running on    8 processor cores
     165724 MiB available memory on the printing compute node when the environment starts
 
     Waiting for input...
     Reading input from standard input
Warning: card &FCP ignored
Warning: card / ignored
Warning: card &RISM ignored
Warning: card / ignored

     Current dimensions of program PWSCF are:
     Max number of different atomic species (ntypx) = 10
     Max number of k-points (npk) =  40000
     Max angular momentum in pseudopotentials (lmaxx) =  4
     Message from routine setup:
     using ibrav=0 with symmetry is DISCOURAGED, use correct ibrav instead
 
 
     G-vector sticks info
     --------------------
     sticks:   dense  smooth     PW     G-vecs:    dense   smooth      PW
     Sum        2801    2801    793                76593    76593   11669
 
     Using Slab Decomposition
 


     bravais-lattice index     =            0
     lattice parameter (alat)  =       8.5565  a.u.
     unit-cell volume          =     431.3240 (a.u.)^3
     number of atoms/cell      =            6
     number of atomic types    =            2
     number of electrons       =        56.00
     number of Kohn-Sham states=           34
     kinetic-energy cutoff     =     120.0000  Ry
     charge density cutoff     =     480.0000  Ry
     scf convergence threshold =      1.0E-08
     mixing beta               =       0.4000
     number of iterations used =           20  plain     mixing
     energy convergence thresh.=      1.0E-04
     force convergence thresh. =      1.0E-03
     press convergence thresh. =      5.0E-01
     Exchange-correlation= PBE
                           (   1   4   3   4   0   0   0)
     nstep                     =           50


     GPU acceleration is ACTIVE.


     celldm(1)=   8.556513  celldm(2)=   0.000000  celldm(3)=   0.000000
     celldm(4)=   0.000000  celldm(5)=   0.000000  celldm(6)=   0.000000

     crystal axes: (cart. coord. in units of alat)
               a(1) = (   1.000000   0.000000   0.000000 )  
               a(2) = (   0.000000   1.000000   0.000000 )  
               a(3) = (   0.000000   0.000000   0.688515 )  

     reciprocal axes: (cart. coord. in units 2 pi/alat)
               b(1) = (  1.000000  0.000000  0.000000 )  
               b(2) = (  0.000000  1.000000  0.000000 )  
               b(3) = (  0.000000  0.000000  1.452402 )  


     PseudoPot. # 1 for Ru read from file:
     /cm/shared/apps/KO/pseudo/sg15/Ru_ONCV_PBE-1.2.upf
     MD5 check sum: 197966c748556f6a714a34a8c7eb0781
     Pseudo is Norm-conserving, Zval = 16.0
     Generated using ONCVPSP code by D. R. Hamann
     Using radial grid of  602 points,  6 beta functions with: 
                l(1) =   0
                l(2) =   0
                l(3) =   1
                l(4) =   1
                l(5) =   2
                l(6) =   2

     PseudoPot. # 2 for O  read from file:
     /cm/shared/apps/KO/pseudo/sg15/O_ONCV_PBE-1.2.upf
     MD5 check sum: e36c48deb68f4e355fffe4602be2c42c
     Pseudo is Norm-conserving, Zval =  6.0
     Generated using ONCVPSP code by D. R. Hamann
     Using radial grid of  602 points,  4 beta functions with: 
                l(1) =   0
                l(2) =   0
                l(3) =   1
                l(4) =   1

     atomic species   valence    mass     pseudopotential
     Ru               16.00   101.07000     Ru( 1.00)
     O                 6.00    15.99900     O ( 1.00)

     16 Sym. Ops., with inversion, found ( 8 have fractional translation)



   Cartesian axes

     site n.     atom                  positions (alat units)
         1        Ru     tau(   1) = (   0.0000000   0.0000000   0.0000000  )
         2        Ru     tau(   2) = (   0.5000000   0.5000000   0.3442574  )
         3        O      tau(   3) = (   0.3056254   0.3056254  -0.0000000  )
         4        O      tau(   4) = (   0.6943746   0.6943746  -0.0000000  )
         5        O      tau(   5) = (   0.8056254   0.1943746   0.3442574  )
         6        O      tau(   6) = (   0.1943746   0.8056254   0.3442574  )

     number of k points=    50  Gaussian smearing, width (Ry)=  0.0200
                       cart. coord. in units 2pi/alat
        k(    1) = (   0.0000000   0.0000000   0.0000000), wk =   0.0069444
        k(    2) = (   0.0000000   0.0000000   0.1815502), wk =   0.0138889
        k(    3) = (   0.0000000   0.0000000   0.3631004), wk =   0.0138889
        k(    4) = (   0.0000000   0.0000000   0.5446506), wk =   0.0138889
        k(    5) = (   0.0000000   0.0000000  -0.7262008), wk =   0.0069444
        k(    6) = (   0.0000000   0.1666667   0.0000000), wk =   0.0277778
        k(    7) = (   0.0000000   0.1666667   0.1815502), wk =   0.0555556
        k(    8) = (   0.0000000   0.1666667   0.3631004), wk =   0.0555556
        k(    9) = (   0.0000000   0.1666667   0.5446506), wk =   0.0555556
        k(   10) = (   0.0000000   0.1666667  -0.7262008), wk =   0.0277778
        k(   11) = (   0.0000000   0.3333333   0.0000000), wk =   0.0277778
        k(   12) = (   0.0000000   0.3333333   0.1815502), wk =   0.0555556
        k(   13) = (   0.0000000   0.3333333   0.3631004), wk =   0.0555556
        k(   14) = (   0.0000000   0.3333333   0.5446506), wk =   0.0555556
        k(   15) = (   0.0000000   0.3333333  -0.7262008), wk =   0.0277778
        k(   16) = (   0.0000000  -0.5000000   0.0000000), wk =   0.0138889
        k(   17) = (   0.0000000  -0.5000000   0.1815502), wk =   0.0277778
        k(   18) = (   0.0000000  -0.5000000   0.3631004), wk =   0.0277778
        k(   19) = (   0.0000000  -0.5000000   0.5446506), wk =   0.0277778
        k(   20) = (   0.0000000  -0.5000000  -0.7262008), wk =   0.0138889
        k(   21) = (   0.1666667   0.1666667   0.0000000), wk =   0.0277778
        k(   22) = (   0.1666667   0.1666667   0.1815502), wk =   0.0555556
        k(   23) = (   0.1666667   0.1666667   0.3631004), wk =   0.0555556
        k(   24) = (   0.1666667   0.1666667   0.5446506), wk =   0.0555556
        k(   25) = (   0.1666667   0.1666667  -0.7262008), wk =   0.0277778
        k(   26) = (   0.1666667   0.3333333   0.0000000), wk =   0.0555556
        k(   27) = (   0.1666667   0.3333333   0.1815502), wk =   0.1111111
        k(   28) = (   0.1666667   0.3333333   0.3631004), wk =   0.1111111
        k(   29) = (   0.1666667   0.3333333   0.5446506), wk =   0.1111111
        k(   30) = (   0.1666667   0.3333333  -0.7262008), wk =   0.0555556
        k(   31) = (   0.1666667  -0.5000000   0.0000000), wk =   0.0277778
        k(   32) = (   0.1666667  -0.5000000   0.1815502), wk =   0.0555556
        k(   33) = (   0.1666667  -0.5000000   0.3631004), wk =   0.0555556
        k(   34) = (   0.1666667  -0.5000000   0.5446506), wk =   0.0555556
        k(   35) = (   0.1666667  -0.5000000  -0.7262008), wk =   0.0277778
        k(   36) = (   0.3333333   0.3333333   0.0000000), wk =   0.0277778
        k(   37) = (   0.3333333   0.3333333   0.1815502), wk =   0.0555556
        k(   38) = (   0.3333333   0.3333333   0.3631004), wk =   0.0555556
        k(   39) = (   0.3333333   0.3333333   0.5446506), wk =   0.0555556
        k(   40) = (   0.3333333   0.3333333  -0.7262008), wk =   0.0277778
        k(   41) = (   0.3333333  -0.5000000   0.0000000), wk =   0.0277778
        k(   42) = (   0.3333333  -0.5000000   0.1815502), wk =   0.0555556
        k(   43) = (   0.3333333  -0.5000000   0.3631004), wk =   0.0555556
        k(   44) = (   0.3333333  -0.5000000   0.5446506), wk =   0.0555556
        k(   45) = (   0.3333333  -0.5000000  -0.7262008), wk =   0.0277778
        k(   46) = (  -0.5000000  -0.5000000   0.0000000), wk =   0.0069444
        k(   47) = (  -0.5000000  -0.5000000   0.1815502), wk =   0.0138889
        k(   48) = (  -0.5000000  -0.5000000   0.3631004), wk =   0.0138889
        k(   49) = (  -0.5000000  -0.5000000   0.5446506), wk =   0.0138889
        k(   50) = (  -0.5000000  -0.5000000  -0.7262008), wk =   0.0069444

     Dense  grid:    76593 G-vectors     FFT dimensions: (  60,  60,  48)

     Estimated max dynamical RAM per process >     364.53 MB

     Initial potential from superposition of free atoms

     starting charge      55.8739, renormalised to      56.0000
     Starting wfcs are random

     total cpu time spent up to now is        1.5 secs

     per-process dynamical memory:   555.0 Mb

     Self-consistent Calculation

     iteration #  1     ecut=   120.00 Ry     beta= 0.40
     Davidson diagonalization with overlap
     ethr =  1.00E-02,  avg # of iterations = 11.8

     total cpu time spent up to now is        4.3 secs

     total energy              =    -504.62260107 Ry
     estimated scf accuracy    <       1.10922835 Ry

     iteration #  2     ecut=   120.00 Ry     beta= 0.40
     Davidson diagonalization with overlap
     ethr =  1.98E-03,  avg # of iterations =  2.3

     total cpu time spent up to now is        5.1 secs

     total energy              =    -504.86259297 Ry
     estimated scf accuracy    <       0.72711375 Ry

     iteration #  3     ecut=   120.00 Ry     beta= 0.40
     Davidson diagonalization with overlap
     ethr =  1.30E-03,  avg # of iterations =  1.3

     total cpu time spent up to now is        5.8 secs

     total energy              =    -504.98730827 Ry
     estimated scf accuracy    <       0.02453169 Ry

     iteration #  4     ecut=   120.00 Ry     beta= 0.40
     Davidson diagonalization with overlap
     ethr =  4.38E-05,  avg # of iterations =  2.4

     total cpu time spent up to now is        6.6 secs

     total energy              =    -504.99064582 Ry
     estimated scf accuracy    <       0.00185888 Ry

     iteration #  5     ecut=   120.00 Ry     beta= 0.40
     Davidson diagonalization with overlap
     ethr =  3.32E-06,  avg # of iterations =  1.3

     total cpu time spent up to now is        7.3 secs

     total energy              =    -504.99073386 Ry
     estimated scf accuracy    <       0.00011163 Ry

     iteration #  6     ecut=   120.00 Ry     beta= 0.40
     Davidson diagonalization with overlap
     ethr =  1.99E-07,  avg # of iterations =  2.0

     total cpu time spent up to now is        8.1 secs

     total energy              =    -504.99075372 Ry
     estimated scf accuracy    <       0.00001498 Ry

     iteration #  7     ecut=   120.00 Ry     beta= 0.40
     Davidson diagonalization with overlap
     ethr =  2.67E-08,  avg # of iterations =  2.0

     total cpu time spent up to now is        8.9 secs

     total energy              =    -504.99075713 Ry
     estimated scf accuracy    <       0.00000152 Ry

     iteration #  8     ecut=   120.00 Ry     beta= 0.40
     Davidson diagonalization with overlap
     ethr =  2.71E-09,  avg # of iterations =  2.0

     total cpu time spent up to now is        9.7 secs

     total energy              =    -504.99075741 Ry
     estimated scf accuracy    <       0.00000004 Ry

     iteration #  9     ecut=   120.00 Ry     beta= 0.40
     Davidson diagonalization with overlap
     ethr =  6.49E-11,  avg # of iterations =  2.2

     total cpu time spent up to now is       10.5 secs

     End of self-consistent calculation

          k = 0.0000 0.0000 0.0000 (  9557 PWs)   bands (ev):

   -60.6825 -60.6764 -30.9193 -30.9193 -30.5297 -30.5297 -30.5263 -30.5043
    -7.2443  -6.2298  -5.3133  -5.3133   4.5136   4.6276   5.7777   6.1301
     6.1301   8.6622   8.6660   8.6660  10.0962  10.5354  10.5354  11.0563
    11.2936  11.4223  11.5024  11.5024  11.9108  14.2569  14.5087  17.2365
    17.2365  18.6425

          k = 0.0000 0.0000 0.1816 (  9549 PWs)   bands (ev):

   -60.6808 -60.6752 -30.9172 -30.9172 -30.5510 -30.5308 -30.5258 -30.5258
    -7.1122  -6.1592  -5.3905  -5.3905   4.6659   4.8343   5.9387   6.1798
     6.1798   8.2039   8.8327   8.8327   9.3839   9.9372   9.9372  10.8917
    11.4197  11.7730  11.9645  12.0777  12.0777  14.3697  14.5783  16.9196
    16.9196  18.3162

          k = 0.0000 0.0000 0.3631 (  9545 PWs)   bands (ev):

   -60.6767 -60.6724 -30.9121 -30.9121 -30.6098 -30.5946 -30.5164 -30.5164
    -6.7669  -6.0061  -5.5721  -5.5721   5.0495   5.3622   6.3554   6.3554
     6.4115   7.3430   8.3286   8.9865   8.9865   9.2944   9.2944  10.1957
    11.6891  11.9841  12.2835  12.8502  12.8502  13.9803  15.2165  16.3485
    16.3485  17.4705

          k = 0.0000 0.0000 0.5447 (  9576 PWs)   bands (ev):

   -60.6722 -60.6699 -30.9070 -30.9070 -30.6670 -30.6589 -30.5068 -30.5068
    -6.3455  -5.9147  -5.7474  -5.7474   5.4499   5.7948   6.6509   6.6509
     6.8656   7.1620   7.5415   8.3296   8.3296   9.1925   9.5176   9.5176
    12.0081  12.1728  12.4383  13.4157  13.4346  13.4346  15.7025  15.9530
    15.9530  16.5451

          k = 0.0000 0.0000-0.7262 (  9548 PWs)   bands (ev):

   -60.6696 -60.6696 -30.9049 -30.9049 -30.6879 -30.6879 -30.5029 -30.5029
    -6.0216  -6.0216  -5.8183  -5.8183   5.6939   5.6939   6.8568   6.8568
     7.1054   7.1054   7.9887   7.9887   8.1253   8.1253   9.6082   9.6082
    12.2165  12.2165  12.7785  12.7785  13.6597  13.6597  15.8276  15.8276
    16.0107  16.0107

          k = 0.0000 0.1667 0.0000 (  9572 PWs)   bands (ev):

   -60.6821 -60.6768 -30.9188 -30.9187 -30.5307 -30.5306 -30.5248 -30.5057
    -7.1453  -6.2080  -5.4354  -5.3713   4.7080   4.8535   5.9628   6.1523
     6.1645   8.3069   8.4150   8.5838   9.7087   9.8687  10.2201  10.9439
    11.5756  11.7180  11.8278  11.8711  12.2066  14.3142  14.6404  17.1015
    17.1327  18.4171

          k = 0.0000 0.1667 0.1816 (  9570 PWs)   bands (ev):

   -60.6805 -60.6756 -30.9168 -30.9168 -30.5497 -30.5333 -30.5264 -30.5254
    -7.0185  -6.1334  -5.5065  -5.4430   4.8557   5.0352   6.0073   6.1878
     6.3462   8.0522   8.4068   8.6285   9.0690   9.7780   9.8655  10.8214
    11.4852  11.9979  12.0519  12.2983  12.3450  14.1949  14.9069  16.7101
    16.8157  18.2152

          k = 0.0000 0.1667 0.3631 (  9558 PWs)   bands (ev):

   -60.6764 -60.6727 -30.9122 -30.9121 -30.6086 -30.5956 -30.5167 -30.5165
    -6.6932  -5.9818  -5.6597  -5.6067   5.2138   5.4737   6.2101   6.3453
     6.8223   7.2237   7.8316   8.9184   9.0252   9.2074   9.2265  10.3704
    11.4758  12.2340  12.4278  12.6953  12.9848  13.8796  15.4211  15.9879
    16.3149  17.6673

          k = 0.0000 0.1667 0.5447 (  9565 PWs)   bands (ev):

   -60.6721 -60.6700 -30.9077 -30.9077 -30.6659 -30.6590 -30.5068 -30.5068
    -6.3239  -5.9753  -5.7402  -5.7146   5.5372   5.8329   6.1975   6.5461
     7.1506   7.2750   7.5808   8.3638   8.5473   9.2841   9.3610   9.5209
    11.9021  12.1372  12.4706  12.8927  13.5342  13.6755  15.4025  15.4383
    16.3911  17.1084

          k = 0.0000 0.1667-0.7262 (  9572 PWs)   bands (ev):

   -60.6696 -60.6696 -30.9059 -30.9059 -30.6872 -30.6872 -30.5027 -30.5027
    -6.0962  -6.0962  -5.7377  -5.7377   5.6933   5.6933   6.3973   6.3973
     7.4514   7.4514   8.0449   8.0449   8.4912   8.4912   9.4497   9.4497
    12.2314  12.2314  12.4532  12.4532  13.7474  13.7474  15.2498  15.2498
    16.7298  16.7298

          k = 0.0000 0.3333 0.0000 (  9592 PWs)   bands (ev):

   -60.6810 -60.6780 -30.9176 -30.9175 -30.5325 -30.5324 -30.5208 -30.5097
    -6.8697  -6.2200  -5.6685  -5.5173   5.2208   5.3849   6.2062   6.2298
     6.5351   7.6117   7.6967   8.5058   8.6979   9.1005  10.0850  10.6444
    12.0022  12.1724  12.3664  12.4088  12.4922  13.8281  15.6110  16.8331
    16.8933  17.7551

          k = 0.0000 0.3333 0.1816 (  9567 PWs)   bands (ev):

   -60.6794 -60.6766 -30.9160 -30.9159 -30.5465 -30.5379 -30.5273 -30.5259
    -6.7570  -6.1249  -5.7387  -5.5769   5.3674   5.5264   6.1484   6.1856
     6.7959   7.7284   7.9006   7.9540   8.3228   9.1086  10.0645  10.5855
    11.9197  12.1591  12.3799  12.6464  12.8076  13.7408  15.6947  16.3439
    16.6174  17.7413

          k = 0.0000 0.3333 0.3631 (  9564 PWs)   bands (ev):

   -60.6756 -60.6735 -30.9124 -30.9122 -30.6056 -30.5983 -30.5172 -30.5170
    -6.4878  -5.9145  -5.8905  -5.6966   5.6449   5.7574   6.2541   6.3328
     6.9865   7.1394   7.4906   8.3080   8.4546   9.1087   9.6856  10.3626
    11.5233  12.3601  12.6479  12.6660  13.2424  13.6285  15.4866  15.5120
    16.6018  17.6704

          k = 0.0000 0.3333 0.5447 (  9573 PWs)   bands (ev):

   -60.6716 -60.6705 -30.9091 -30.9090 -30.6634 -30.6596 -30.5068 -30.5067
    -6.2654  -6.0811  -5.7190  -5.6860   5.6934   5.8280   5.9792   6.3125
     7.0907   7.4774   7.8478   8.6201   8.7005   8.8691   9.3368  10.0473
    11.3742  12.1699  12.3778  12.5256  13.6890  13.7448  14.8993  15.0907
    17.0618  17.5927

          k = 0.0000 0.3333-0.7262 (  9594 PWs)   bands (ev):

   -60.6696 -60.6696 -30.9078 -30.9078 -30.6858 -30.6858 -30.5025 -30.5025
    -6.1867  -6.1867  -5.6350  -5.6350   5.5774   5.5774   6.1670   6.1670
     7.6238   7.6238   8.2157   8.2157   8.9525   8.9525   9.4446   9.4446
    11.7263  11.7263  12.2611  12.2611  13.8554  13.8554  14.8361  14.8361
    17.4279  17.4279

          k = 0.0000-0.5000 0.0000 (  9574 PWs)   bands (ev):

   -60.6795 -60.6795 -30.9169 -30.9169 -30.5334 -30.5334 -30.5152 -30.5152
    -6.4932  -6.4932  -5.6727  -5.6727   5.6861   5.6861   6.2493   6.2493
     7.1852   7.1852   7.4966   7.4966   8.6587   8.6587  10.2966  10.2966
    12.3114  12.3114  12.4883  12.4883  13.1871  13.1871  16.7269  16.7269
    16.7578  16.7578

          k = 0.0000-0.5000 0.1816 (  9600 PWs)   bands (ev):

   -60.6780 -60.6780 -30.9155 -30.9155 -30.5424 -30.5424 -30.5271 -30.5271
    -6.3942  -6.3942  -5.7280  -5.7280   5.8990   5.8990   6.0932   6.0932
     7.2618   7.2618   7.6531   7.6531   8.3061   8.3061  10.3427  10.3427
    12.1585  12.1585  12.7442  12.7442  13.2110  13.2110  16.1455  16.1455
    16.9749  16.9749

          k = 0.0000-0.5000 0.3631 (  9588 PWs)   bands (ev):

   -60.6745 -60.6745 -30.9124 -30.9124 -30.6018 -30.6018 -30.5173 -30.5173
    -6.1972  -6.1972  -5.8095  -5.8095   5.9752   5.9752   6.3787   6.3787
     6.7321   6.7321   7.9655   7.9655   8.5024   8.5024  10.0806  10.0806
    11.9647  11.9647  12.8004  12.8004  13.4316  13.4316  15.3342  15.3342
    17.2382  17.2382

          k = 0.0000-0.5000 0.5447 (  9574 PWs)   bands (ev):

   -60.6710 -60.6710 -30.9097 -30.9097 -30.6610 -30.6610 -30.5067 -30.5067
    -6.1819  -6.1819  -5.6932  -5.6932   5.7385   5.7385   6.1210   6.1210
     7.3001   7.3001   8.2136   8.2136   8.7936   8.7936   9.9099   9.9099
    11.4780  11.4780  12.5129  12.5129  13.7560  13.7560  14.8237  14.8237
    17.5604  17.5604

          k = 0.0000-0.5000-0.7262 (  9576 PWs)   bands (ev):

   -60.6696 -60.6696 -30.9088 -30.9088 -30.6851 -30.6851 -30.5023 -30.5023
    -6.2212  -6.2212  -5.5943  -5.5943   5.4754   5.4754   6.1603   6.1603
     7.6856   7.6856   8.4821   8.4821   8.5987   8.5987  10.0425  10.0425
    11.1503  11.1503  12.2711  12.2711  13.8938  13.8938  14.6954  14.6954
    17.7137  17.7137

          k = 0.1667 0.1667 0.0000 (  9585 PWs)   bands (ev):

   -60.6818 -60.6772 -30.9198 -30.9173 -30.5325 -30.5297 -30.5235 -30.5070
    -7.0651  -6.1959  -5.5837  -5.3490   4.5657   5.3350   6.1089   6.1349
     6.2310   7.6774   8.5231   8.5889   9.6435   9.6706  10.0400  10.8300
    11.4469  11.5108  12.1685  12.2856  12.3604  14.1982  14.8678  16.8629
    17.2330  18.1850

          k = 0.1667 0.1667 0.1816 (  9561 PWs)   bands (ev):

   -60.6801 -60.6759 -30.9177 -30.9157 -30.5487 -30.5347 -30.5262 -30.5258
    -6.9422  -6.1144  -5.6481  -5.4246   4.7399   5.4689   5.9910   6.2727
     6.4522   7.7910   8.0376   8.7368   8.9027   9.7709   9.8948  10.6449
    11.5111  11.7006  12.2836  12.4744  12.6380  14.0737  15.1100  16.4345
    16.9227  18.0535

          k = 0.1667 0.1667 0.3631 (  9568 PWs)   bands (ev):

   -60.6762 -60.6729 -30.9125 -30.9121 -30.6077 -30.5964 -30.5170 -30.5164
    -6.6309  -5.9564  -5.7647  -5.6027   5.1850   5.7135   6.0652   6.5210
     6.9821   6.9936   7.9033   8.3946   8.8688   9.2545   9.5742  10.4544
    11.3703  12.0871  12.5671  12.7987  13.0364  13.8001  15.3802  15.9363
    16.3476  17.6817

          k = 0.1667 0.1667 0.5447 (  9564 PWs)   bands (ev):

   -60.6719 -60.6702 -30.9089 -30.9073 -30.6655 -30.6589 -30.5070 -30.5067
    -6.3014  -5.9912  -5.7750  -5.6844   5.5945   5.8932   6.1041   6.2863
     7.0687   7.5561   7.6987   8.3099   8.5905   9.1735   9.4008   9.7347
    11.7136  12.1733  12.5017  12.9740  13.1306  13.8757  14.9302  15.9454
    16.2003  17.3610

          k = 0.1667 0.1667-0.7262 (  9588 PWs)   bands (ev):

   -60.6696 -60.6696 -30.9077 -30.9052 -30.6885 -30.6852 -30.5031 -30.5024
    -6.1940  -5.9906  -5.8447  -5.6300   5.5659   5.8681   6.1997   6.4360
     6.8024   7.9888   8.1311   8.3771   8.3916   8.9295   9.0473   9.5838
    12.0370  12.2353  12.2518  12.6622  13.3198  14.0240  14.7427  15.8219
    16.2756  17.2952

          k = 0.1667 0.3333 0.0000 (  9581 PWs)   bands (ev):

   -60.6808 -60.6782 -30.9195 -30.9169 -30.5334 -30.5306 -30.5200 -30.5105
    -6.8429  -6.2646  -5.7081  -5.4456   4.7725   5.7282   6.1243   6.2503
     6.6623   7.2231   8.1756   8.5457   9.0700   9.2817   9.7491  10.4815
    11.7648  11.7877  12.3923  12.5044  12.7324  13.8346  15.6082  16.7238
    17.1137  17.5337

          k = 0.1667 0.3333 0.1816 (  9575 PWs)   bands (ev):

   -60.6792 -60.6768 -30.9175 -30.9155 -30.5459 -30.5378 -30.5271 -30.5260
    -6.7306  -6.1679  -5.7723  -5.5141   4.9387   5.9380   6.0395   6.0997
     6.9135   7.5437   7.8065   8.2795   8.7862   9.2583   9.8279  10.3388
    11.8226  11.9235  12.3656  12.7787  12.8514  13.7237  15.7187  16.2740
    16.8002  17.5600

          k = 0.1667 0.3333 0.3631 (  9567 PWs)   bands (ev):

   -60.6755 -60.6736 -30.9127 -30.9124 -30.6053 -30.5986 -30.5173 -30.5167
    -6.4594  -5.9719  -5.8826  -5.6674   5.3489   5.9632   6.0558   6.4346
     6.7713   7.4361   7.6646   8.1631   8.8598   8.9994   9.6523  10.2820
    11.5692  12.2049  12.4904  12.8715  13.1885  13.5735  15.2949  15.9177
    16.5367  17.5427

          k = 0.1667 0.3333 0.5447 (  9580 PWs)   bands (ev):

   -60.6715 -60.6705 -30.9097 -30.9081 -30.6639 -30.6595 -30.5071 -30.5067
    -6.2397  -6.0567  -5.7679  -5.6838   5.6857   5.8167   6.0540   6.1832
     6.8927   7.5815   7.9991   8.4533   8.5431   9.1189   9.4702  10.1436
    11.3898  12.2578  12.3716  12.5436  13.3491  13.8332  14.7697  15.5084
    16.8193  17.5663

          k = 0.1667 0.3333-0.7262 (  9572 PWs)   bands (ev):

   -60.6696 -60.6696 -30.9088 -30.9063 -30.6878 -30.6845 -30.5030 -30.5023
    -6.2245  -6.0746  -5.7520  -5.5909   5.4898   5.8232   6.1112   6.1686
     6.9522   7.8989   8.1763   8.4012   8.6027   9.2746   9.4152   9.7860
    11.5302  12.1063  12.2601  12.2708  13.4392  13.9874  14.6298  15.3433
    16.9355  17.6156

          k = 0.1667-0.5000 0.0000 (  9580 PWs)   bands (ev):

   -60.6795 -60.6795 -30.9180 -30.9180 -30.5324 -30.5324 -30.5152 -30.5152
    -6.5357  -6.5357  -5.6118  -5.6118   5.2942   5.2942   6.1926   6.1926
     7.3294   7.3294   8.0402   8.0402   8.8262   8.8262  10.0330  10.0330
    12.1726  12.1726  12.2690  12.2690  13.3163  13.3163  16.6014  16.6014
    16.8612  16.8612

          k = 0.1667-0.5000 0.1816 (  9578 PWs)   bands (ev):

   -60.6780 -60.6780 -30.9164 -30.9164 -30.5419 -30.5419 -30.5268 -30.5268
    -6.4360  -6.4360  -5.6704  -5.6704   5.4497   5.4497   6.1196   6.1196
     7.4537   7.4537   8.1108   8.1108   8.4483   8.4483  10.0714  10.0714
    12.0760  12.0760  12.5763  12.5763  13.2634  13.2634  16.2665  16.2665
    16.8852  16.8852

          k = 0.1667-0.5000 0.3631 (  9578 PWs)   bands (ev):

   -60.6745 -60.6745 -30.9127 -30.9127 -30.6019 -30.6019 -30.5172 -30.5172
    -6.2209  -6.2209  -5.7763  -5.7763   5.7147   5.7147   6.1976   6.1976
     7.0394   7.0394   8.2263   8.2263   8.6106   8.6106   9.9062   9.9062
    12.0360  12.0360  12.6593  12.6593  13.3461  13.3461  15.5455  15.5455
    17.1035  17.1035

          k = 0.1667-0.5000 0.5447 (  9588 PWs)   bands (ev):

   -60.6710 -60.6710 -30.9093 -30.9093 -30.6614 -30.6614 -30.5069 -30.5069
    -6.1516  -6.1516  -5.7214  -5.7214   5.7151   5.7151   6.1298   6.1298
     7.1398   7.1398   8.3208   8.3208   8.8180   8.8180   9.9685   9.9685
    11.6469  11.6469  12.4499  12.4499  13.6220  13.6220  15.0228  15.0228
    17.3752  17.3752

          k = 0.1667-0.5000-0.7262 (  9580 PWs)   bands (ev):

   -60.6696 -60.6696 -30.9081 -30.9081 -30.6858 -30.6858 -30.5027 -30.5027
    -6.1797  -6.1797  -5.6369  -5.6369   5.5552   5.5552   6.1351   6.1351
     7.4487   7.4487   8.2020   8.2020   8.9601   8.9601  10.0883  10.0883
    11.3894  11.3894  12.2756  12.2756  13.7538  13.7538  14.8617  14.8617
    17.5009  17.5009

          k = 0.3333 0.3333 0.0000 (  9571 PWs)   bands (ev):

   -60.6802 -60.6787 -30.9208 -30.9183 -30.5324 -30.5297 -30.5180 -30.5125
    -6.7567  -6.4188  -5.6396  -5.4182   4.5741   5.3043   6.0667   6.1804
     7.0929   7.7726   8.4407   8.7940   9.1229   9.3994   9.4470  10.2392
    11.4398  11.5286  12.1881  12.2777  13.1695  13.7590  15.8123  16.8585
    16.9750  17.2261

          k = 0.3333 0.3333 0.1816 (  9579 PWs)   bands (ev):

   -60.6787 -60.6773 -30.9186 -30.9166 -30.5440 -30.5387 -30.5268 -30.5259
    -6.6473  -6.3227  -5.6993  -5.4909   4.7503   5.4610   5.9789   6.1094
     7.3467   8.0062   8.0849   8.5568   8.8286   9.4764   9.5460   9.8158
    11.6423  11.8181  12.2461  12.5528  13.1174  13.6144  15.9365  16.3952
    16.9213  17.1124

          k = 0.3333 0.3333 0.3631 (  9596 PWs)   bands (ev):

   -60.6751 -60.6740 -30.9132 -30.9128 -30.6041 -30.5998 -30.5172 -30.5166
    -6.3797  -6.1161  -5.8067  -5.6624   5.2130   5.7198   5.9254   6.1847
     7.0992   7.8324   7.8587   8.5464   8.7677   9.1238   9.4471  10.0072
    11.8694  12.0323  12.4859  12.7253  13.0846  13.3943  15.5243  16.3416
    16.3536  17.2086

          k = 0.3333 0.3333 0.5447 (  9579 PWs)   bands (ev):

   -60.6713 -60.6707 -30.9094 -30.9078 -30.6638 -30.6604 -30.5073 -30.5070
    -6.1684  -6.0205  -5.8288  -5.7231   5.6880   5.7803   5.9998   6.1390
     6.7845   7.3900   8.1584   8.3686   8.6762   9.2304   9.6945  10.2586
    11.5963  12.2403  12.4409  12.6749  12.8652  13.6610  14.9919  15.9306
    16.4865  17.3471

          k = 0.3333 0.3333-0.7262 (  9562 PWs)   bands (ev):

   -60.6696 -60.6696 -30.9082 -30.9056 -30.6884 -30.6851 -30.5034 -30.5028
    -6.1801  -5.9288  -5.8964  -5.6338   5.5500   6.0657   6.0676   6.1297
     6.5122   7.6506   8.0093   8.1368   8.9492   9.3493   9.8347  10.1926
    11.5357  12.2705  12.2820  12.4345  12.9872  13.8031  14.8173  15.8062
    16.4873  17.4388

          k = 0.3333-0.5000 0.0000 (  9586 PWs)   bands (ev):

   -60.6795 -60.6795 -30.9202 -30.9202 -30.5306 -30.5306 -30.5152 -30.5152
    -6.6076  -6.6076  -5.5023  -5.5023   4.7776   4.7776   6.0914   6.0914
     7.7457   7.7457   8.7380   8.7380   9.1980   9.1980   9.6674   9.6674
    11.7641  11.7641  11.8038  11.8038  13.5299  13.5299  16.3229  16.3229
    17.1079  17.1079

          k = 0.3333-0.5000 0.1816 (  9598 PWs)   bands (ev):

   -60.6780 -60.6780 -30.9182 -30.9182 -30.5411 -30.5411 -30.5262 -30.5262
    -6.5050  -6.5050  -5.5691  -5.5691   4.9454   4.9454   6.0183   6.0183
     7.9228   7.9228   8.6209   8.6209   8.9531   8.9531   9.5294   9.5294
    11.8752  11.8752  12.1316  12.1316  13.3970  13.3970  16.3523  16.3523
    16.8512  16.8512

          k = 0.3333-0.5000 0.3631 (  9572 PWs)   bands (ev):

   -60.6745 -60.6745 -30.9133 -30.9133 -30.6020 -30.6020 -30.5169 -30.5169
    -6.2604  -6.2604  -5.7180  -5.7180   5.3595   5.3595   5.9736   5.9736
     7.5510   7.5510   8.4713   8.4713   8.9216   8.9216   9.5830   9.5830
    12.1897  12.1897  12.3759  12.3759  13.1685  13.1685  15.9767  15.9767
    16.7851  16.7851

          k = 0.3333-0.5000 0.5447 (  9558 PWs)   bands (ev):

   -60.6710 -60.6710 -30.9085 -30.9085 -30.6623 -30.6623 -30.5073 -30.5073
    -6.0738  -6.0738  -5.7949  -5.7949   5.7137   5.7137   6.0380   6.0380
     7.0244   7.0244   8.2782   8.2782   9.0002   9.0002  10.0667  10.0667
    12.0987  12.0987  12.3291  12.3291  13.2561  13.2561  15.5065  15.5065
    16.9044  16.9044

          k = 0.3333-0.5000-0.7262 (  9572 PWs)   bands (ev):

   -60.6696 -60.6696 -30.9066 -30.9066 -30.6870 -30.6870 -30.5033 -30.5033
    -6.0662  -6.0662  -5.7525  -5.7525   5.7689   5.7689   6.0832   6.0832
     6.9692   6.9692   8.0636   8.0636   9.1938   9.1938  10.2443  10.2443
    11.9228  11.9228  12.2829  12.2829  13.3629  13.3629  15.3365  15.3365
    16.9519  16.9519

          k =-0.5000-0.5000 0.0000 (  9652 PWs)   bands (ev):

   -60.6795 -60.6795 -30.9213 -30.9213 -30.5296 -30.5296 -30.5152 -30.5152
    -6.6390  -6.6390  -5.4519  -5.4519   4.5763   4.5763   6.0456   6.0456
     8.3218   8.3218   8.3714   8.3714   9.4211   9.4211   9.9403   9.9403
    11.4077  11.4077  11.5381  11.5381  13.6167  13.6167  16.2013  16.2013
    17.2227  17.2227

          k =-0.5000-0.5000 0.1816 (  9604 PWs)   bands (ev):

   -60.6780 -60.6780 -30.9190 -30.9190 -30.5408 -30.5408 -30.5259 -30.5259
    -6.5347  -6.5347  -5.5231  -5.5231   4.7525   4.7525   5.9681   5.9681
     8.4733   8.4733   8.6057   8.6057   8.8482   8.8482   9.6160   9.6160
    11.7189  11.7189  11.8766  11.8766  13.4535  13.4535  16.3105  16.3105
    16.9185  16.9185

          k =-0.5000-0.5000 0.3631 (  9544 PWs)   bands (ev):

   -60.6745 -60.6745 -30.9136 -30.9136 -30.6021 -30.6021 -30.5167 -30.5167
    -6.2773  -6.2773  -5.6915  -5.6915   5.2155   5.2155   5.8927   5.8927
     7.8430   7.8430   8.6819   8.6819   8.7486   8.7486   9.5915   9.5915
    12.0971  12.0971  12.4367  12.4367  13.0317  13.0317  16.3368  16.3368
    16.4689  16.4689

          k =-0.5000-0.5000 0.5447 (  9540 PWs)   bands (ev):

   -60.6710 -60.6710 -30.9081 -30.9081 -30.6627 -30.6627 -30.5075 -30.5075
    -6.0112  -6.0112  -5.8552  -5.8552   5.7564   5.7564   5.9228   5.9228
     7.0268   7.0268   8.2254   8.2254   9.0850   9.0850  10.1242  10.1242
    12.2603  12.2603  12.5508  12.5508  12.8607  12.8607  15.9219  15.9219
    16.4880  16.4880

          k =-0.5000-0.5000-0.7262 (  9536 PWs)   bands (ev):

   -60.6696 -60.6696 -30.9059 -30.9059 -30.6877 -30.6877 -30.5036 -30.5036
    -5.9217  -5.9217  -5.8981  -5.8981   5.9631   5.9631   6.0325   6.0325
     6.6909   6.6909   8.0219   8.0219   9.2535   9.2535  10.3450  10.3450
    12.2855  12.2855  12.3232  12.3232  13.0166  13.0166  15.7953  15.7953
    16.4596  16.4596

     the Fermi energy is    12.8347 ev

!    total energy              =    -504.99075741 Ry
     estimated scf accuracy    <          6.6E-09 Ry
     smearing contrib. (-TS)   =      -0.01017260 Ry
     internal energy E=F+TS    =    -504.98058481 Ry

     The total energy is F=E-TS. E is the sum of the following terms:
     one-electron contribution =    -167.35557629 Ry
     hartree contribution      =     113.70387953 Ry
     xc contribution           =     -67.39933393 Ry
     ewald contribution        =    -383.92955412 Ry

     convergence has been achieved in   9 iterations

     Forces acting on atoms (cartesian axes, Ry/au):

     atom    1 type  1   force =     0.00000000    0.00000000    0.00000000
     atom    2 type  1   force =     0.00000000    0.00000000    0.00000000
     atom    3 type  2   force =     0.00002938    0.00002938    0.00000000
     atom    4 type  2   force =    -0.00002938   -0.00002938    0.00000000
     atom    5 type  2   force =     0.00002938   -0.00002938    0.00000000
     atom    6 type  2   force =    -0.00002938    0.00002938    0.00000000

     Total force =     0.000083     Total SCF correction =     0.000042
     SCF correction compared to forces is large: reduce conv_thr to get better values


     Computing stress (Cartesian axis) and pressure

          total   stress  (Ry/bohr**3)                   (kbar)     P=        0.38
   0.00000341   0.00000000   0.00000000            0.50        0.00        0.00
   0.00000000   0.00000341   0.00000000            0.00        0.50        0.00
   0.00000000   0.00000000   0.00000085            0.00        0.00        0.12


     BFGS Geometry Optimization
     Energy error            =      0.0E+00 Ry
     Gradient error          =      2.9E-05 Ry/Bohr
     Cell gradient error     =      5.0E-01 kbar

     number of scf cycles    =   1
     number of bfgs steps    =   0

     enthalpy           new  =    -504.9907574101 Ry

     new trust radius        =       0.0003542538 bohr
     new conv_thr            =       0.0000000100 Ry

     new unit-cell volume =    431.40671 a.u.^3 (    63.92788 Ang^3 )
     density =      6.91293 g/cm^3

CELL_PARAMETERS (angstrom)
   4.528297631   0.000000000   0.000000000
   0.000000000   4.528297631   0.000000000
   0.000000000   0.000000000   3.117599810

ATOMIC_POSITIONS (angstrom)
Ru               0.0000000000        0.0000000000        0.0000000000
Ru               2.2641488158        2.2641488158        1.5587999047
O                1.3839783504        1.3839783504        0.0000000000
O                3.1443192813        3.1443192813        0.0000000000
O                3.6481271662        0.8801704654        1.5587999047
O                0.8801704654        3.6481271662        1.5587999047



     Writing config-only to output data dir ./Out/pwscf.save/
     NEW-OLD atomic charge density approx. for the potential

     total cpu time spent up to now is       12.0 secs

     per-process dynamical memory:   655.0 Mb

     Self-consistent Calculation

     iteration #  1     ecut=   120.00 Ry     beta= 0.40
     Davidson diagonalization with overlap
     ethr =  1.00E-06,  avg # of iterations =  1.0

     Threshold (ethr) on eigenvalues was too large:
     Diagonalizing with lowered threshold

     Davidson diagonalization with overlap
     ethr =  1.76E-10,  avg # of iterations =  3.0

     total cpu time spent up to now is       13.5 secs

     total energy              =    -504.99075751 Ry
     estimated scf accuracy    <       0.00000011 Ry

     iteration #  2     ecut=   120.00 Ry     beta= 0.40
     Davidson diagonalization with overlap
     ethr =  1.89E-10,  avg # of iterations =  2.0

     total cpu time spent up to now is       14.3 secs

     total energy              =    -504.99075754 Ry
     estimated scf accuracy    <       0.00000008 Ry

     iteration #  3     ecut=   120.00 Ry     beta= 0.40
     Davidson diagonalization with overlap
     ethr =  1.35E-10,  avg # of iterations =  1.1

     total cpu time spent up to now is       15.0 secs

     End of self-consistent calculation

          k = 0.0000 0.0000 0.0000 (  9557 PWs)   bands (ev):

   -60.6863 -60.6802 -30.9229 -30.9229 -30.5335 -30.5335 -30.5300 -30.5080
    -7.2465  -6.2323  -5.3163  -5.3163   4.5116   4.6254   5.7757   6.1277
     6.1277   8.6596   8.6629   8.6629  10.0931  10.5321  10.5321  11.0529
    11.2900  11.4188  11.4988  11.4988  11.9070  14.2518  14.5042  17.2318
    17.2318  18.6365

          k = 0.0000 0.0000 0.1815 (  9549 PWs)   bands (ev):

   -60.6846 -60.6790 -30.9208 -30.9208 -30.5547 -30.5345 -30.5296 -30.5296
    -7.1145  -6.1617  -5.3935  -5.3935   4.6639   4.8320   5.9368   6.1773
     6.1773   8.2012   8.8296   8.8296   9.3807   9.9340   9.9340  10.8888
    11.4157  11.7693  11.9607  12.0740  12.0740  14.3653  14.5733  16.9149
    16.9149  18.3104

          k = 0.0000 0.0000 0.3631 (  9545 PWs)   bands (ev):

   -60.6805 -60.6762 -30.9157 -30.9157 -30.6135 -30.5983 -30.5201 -30.5201
    -6.7693  -6.0086  -5.5751  -5.5751   5.0475   5.3599   6.3529   6.3529
     6.4094   7.3403   8.3256   8.9834   8.9834   9.2912   9.2912  10.1931
    11.6850  11.9803  12.2797  12.8464  12.8464  13.9759  15.2114  16.3440
    16.3440  17.4650

          k = 0.0000 0.0000 0.5446 (  9576 PWs)   bands (ev):

   -60.6760 -60.6737 -30.9106 -30.9106 -30.6707 -30.6625 -30.5106 -30.5106
    -6.3480  -5.9173  -5.7503  -5.7503   5.4479   5.7925   6.6484   6.6484
     6.8628   7.1598   7.5385   8.3265   8.3265   9.1901   9.5143   9.5143
    12.0045  12.1686  12.4347  13.4114  13.4306  13.4306  15.6973  15.9486
    15.9486  16.5398

          k = 0.0000 0.0000-0.7262 (  9548 PWs)   bands (ev):

   -60.6734 -60.6734 -30.9085 -30.9085 -30.6916 -30.6916 -30.5066 -30.5066
    -6.0241  -6.0241  -5.8212  -5.8212   5.6918   5.6918   6.8544   6.8544
     7.1025   7.1025   7.9855   7.9855   8.1230   8.1230   9.6049   9.6049
    12.2129  12.2129  12.7742  12.7742  13.6556  13.6556  15.8233  15.8233
    16.0055  16.0055

          k = 0.0000 0.1667 0.0000 (  9572 PWs)   bands (ev):

   -60.6859 -60.6806 -30.9223 -30.9223 -30.5344 -30.5344 -30.5285 -30.5094
    -7.1476  -6.2105  -5.4384  -5.3744   4.7059   4.8512   5.9608   6.1498
     6.1620   8.3039   8.4119   8.5812   9.7057   9.8654  10.2170  10.9406
    11.5719  11.7143  11.8243  11.8673  12.2028  14.3099  14.6352  17.0969
    17.1280  18.4115

          k = 0.0000 0.1667 0.1815 (  9570 PWs)   bands (ev):

   -60.6843 -60.6794 -30.9204 -30.9203 -30.5534 -30.5370 -30.5301 -30.5291
    -7.0209  -6.1360  -5.5095  -5.4460   4.8536   5.0329   6.0051   6.1853
     6.3437   8.0496   8.4039   8.6254   9.0660   9.7748   9.8623  10.8182
    11.4816  11.9943  12.0482  12.2945  12.3411  14.1905  14.9017  16.7054
    16.8111  18.2097

          k = 0.0000 0.1667 0.3631 (  9558 PWs)   bands (ev):

   -60.6802 -60.6765 -30.9158 -30.9157 -30.6123 -30.5993 -30.5204 -30.5203
    -6.6956  -5.9844  -5.6627  -5.6097   5.2117   5.4714   6.2078   6.3427
     6.8199   7.2210   7.8287   8.9153   9.0221   9.2042   9.2234  10.3676
    11.4718  12.2302  12.4241  12.6915  12.9808  13.8753  15.4160  15.9833
    16.3104  17.6619

          k = 0.0000 0.1667 0.5446 (  9565 PWs)   bands (ev):

   -60.6759 -60.6738 -30.9113 -30.9112 -30.6696 -30.6627 -30.5106 -30.5105
    -6.3264  -5.9779  -5.7431  -5.7175   5.5350   5.8307   6.1952   6.5437
     7.1481   7.2720   7.5782   8.3608   8.5442   9.2811   9.3578   9.5182
    11.8980  12.1335  12.4670  12.8887  13.5301  13.6713  15.3979  15.4335
    16.3863  17.1033

          k = 0.0000 0.1667-0.7262 (  9572 PWs)   bands (ev):

   -60.6734 -60.6734 -30.9095 -30.9095 -30.6909 -30.6909 -30.5065 -30.5065
    -6.0988  -6.0988  -5.7406  -5.7406   5.6911   5.6911   6.3949   6.3949
     7.4486   7.4486   8.0418   8.0418   8.4887   8.4887   9.4464   9.4464
    12.2278  12.2278  12.4491  12.4491  13.7432  13.7432  15.2452  15.2452
    16.7248  16.7248

          k = 0.0000 0.3333 0.0000 (  9592 PWs)   bands (ev):

   -60.6848 -60.6817 -30.9211 -30.9210 -30.5363 -30.5362 -30.5245 -30.5135
    -6.8722  -6.2227  -5.6713  -5.5202   5.2185   5.3824   6.2036   6.2273
     6.5329   7.6090   7.6938   8.5032   8.6949   9.0978  10.0819  10.6411
    11.9984  12.1685  12.3624  12.4049  12.4884  13.8239  15.6057  16.8286
    16.8888  17.7495

          k = 0.0000 0.3333 0.1815 (  9567 PWs)   bands (ev):

   -60.6832 -60.6804 -30.9195 -30.9194 -30.5502 -30.5416 -30.5311 -30.5297
    -6.7595  -6.1276  -5.7414  -5.5798   5.3651   5.5239   6.1460   6.1830
     6.7935   7.7258   7.8978   7.9515   8.3200   9.1056  10.0613  10.5823
    11.9159  12.1553  12.3762  12.6425  12.8036  13.7366  15.6894  16.3394
    16.6129  17.7359

          k = 0.0000 0.3333 0.3631 (  9564 PWs)   bands (ev):

   -60.6794 -60.6773 -30.9159 -30.9158 -30.6092 -30.6020 -30.5210 -30.5207
    -6.4903  -5.9171  -5.8934  -5.6995   5.6426   5.7549   6.2518   6.3302
     6.9837   7.1368   7.4880   8.3051   8.4517   9.1056   9.6823  10.3594
    11.5196  12.3564  12.6441  12.6623  13.2383  13.6243  15.4821  15.5071
    16.5970  17.6652

          k = 0.0000 0.3333 0.5446 (  9573 PWs)   bands (ev):

   -60.6754 -60.6743 -30.9126 -30.9125 -30.6671 -30.6632 -30.5106 -30.5105
    -6.2679  -6.0837  -5.7219  -5.6889   5.6912   5.8258   5.9768   6.3101
     7.0878   7.4746   7.8450   8.6172   8.6975   8.8661   9.3336  10.0444
    11.3704  12.1662  12.3741  12.5220  13.6848  13.7405  14.8948  15.0860
    17.0567  17.5875

          k = 0.0000 0.3333-0.7262 (  9594 PWs)   bands (ev):

   -60.6734 -60.6734 -30.9114 -30.9114 -30.6895 -30.6895 -30.5062 -30.5062
    -6.1892  -6.1892  -5.6379  -5.6379   5.5752   5.5752   6.1646   6.1646
     7.6210   7.6210   8.2128   8.2128   8.9495   8.9495   9.4416   9.4416
    11.7225  11.7225  12.2574  12.2574  13.8511  13.8511  14.8315  14.8315
    17.4228  17.4228

          k = 0.0000-0.5000 0.0000 (  9574 PWs)   bands (ev):

   -60.6833 -60.6833 -30.9204 -30.9204 -30.5371 -30.5371 -30.5189 -30.5189
    -6.4958  -6.4958  -5.6754  -5.6754   5.6835   5.6835   6.2467   6.2467
     7.1827   7.1827   7.4939   7.4939   8.6561   8.6561  10.2934  10.2934
    12.3075  12.3075  12.4842  12.4842  13.1832  13.1832  16.7226  16.7226
    16.7524  16.7524

          k = 0.0000-0.5000 0.1815 (  9600 PWs)   bands (ev):

   -60.6818 -60.6818 -30.9191 -30.9191 -30.5461 -30.5461 -30.5309 -30.5309
    -6.3969  -6.3969  -5.7307  -5.7307   5.8964   5.8964   6.0907   6.0907
     7.2594   7.2594   7.6504   7.6504   8.3034   8.3034  10.3395  10.3395
    12.1547  12.1547  12.7403  12.7403  13.2069  13.2069  16.1408  16.1408
    16.9698  16.9698

          k = 0.0000-0.5000 0.3631 (  9588 PWs)   bands (ev):

   -60.6783 -60.6783 -30.9159 -30.9159 -30.6055 -30.6055 -30.5211 -30.5211
    -6.1998  -6.1998  -5.8122  -5.8122   5.9728   5.9728   6.3763   6.3763
     6.7295   6.7295   7.9628   7.9628   8.4995   8.4995  10.0773  10.0773
    11.9610  11.9610  12.7966  12.7966  13.4274  13.4274  15.3296  15.3296
    17.2330  17.2330

          k = 0.0000-0.5000 0.5446 (  9574 PWs)   bands (ev):

   -60.6748 -60.6748 -30.9132 -30.9132 -30.6647 -30.6647 -30.5105 -30.5105
    -6.1845  -6.1845  -5.6961  -5.6961   5.7363   5.7363   6.1185   6.1185
     7.2973   7.2973   8.2108   8.2108   8.7906   8.7906   9.9067   9.9067
    11.4744  11.4744  12.5093  12.5093  13.7518  13.7518  14.8191  14.8191
    17.5553  17.5553

          k = 0.0000-0.5000-0.7262 (  9576 PWs)   bands (ev):

   -60.6734 -60.6734 -30.9123 -30.9123 -30.6888 -30.6888 -30.5061 -30.5061
    -6.2237  -6.2237  -5.5972  -5.5972   5.4732   5.4732   6.1578   6.1578
     7.6828   7.6828   8.4791   8.4791   8.5957   8.5957  10.0395  10.0395
    11.1466  11.1466  12.2675  12.2675  13.8895  13.8895  14.6907  14.6907
    17.7085  17.7085

          k = 0.1667 0.1667 0.0000 (  9585 PWs)   bands (ev):

   -60.6855 -60.6810 -30.9234 -30.9208 -30.5362 -30.5335 -30.5272 -30.5107
    -7.0675  -6.1985  -5.5866  -5.3520   4.5636   5.3325   6.1065   6.1329
     6.2285   7.6745   8.5206   8.5859   9.6406   9.6676  10.0367  10.8268
    11.4432  11.5072  12.1648  12.2816  12.3565  14.1939  14.8627  16.8584
    17.2283  18.1794

          k = 0.1667 0.1667 0.1815 (  9561 PWs)   bands (ev):

   -60.6839 -60.6797 -30.9212 -30.9193 -30.5524 -30.5384 -30.5300 -30.5296
    -6.9446  -6.1170  -5.6509  -5.4276   4.7378   5.4665   5.9887   6.2701
     6.4500   7.7884   8.0348   8.7338   8.8997   9.7676   9.8916  10.6415
    11.5077  11.6969  12.2797  12.4706  12.6341  14.0694  15.1048  16.4301
    16.9180  18.0480

          k = 0.1667 0.1667 0.3631 (  9568 PWs)   bands (ev):

   -60.6799 -60.6767 -30.9160 -30.9157 -30.6114 -30.6001 -30.5208 -30.5202
    -6.6333  -5.9590  -5.7676  -5.6057   5.1829   5.7111   6.0629   6.5184
     6.9798   6.9910   7.9004   8.3917   8.8658   9.2513   9.5709  10.4514
    11.3665  12.0834  12.5634  12.7948  13.0324  13.7958  15.3752  15.9315
    16.3431  17.6764

          k = 0.1667 0.1667 0.5446 (  9564 PWs)   bands (ev):

   -60.6757 -60.6740 -30.9124 -30.9108 -30.6691 -30.6626 -30.5108 -30.5105
    -6.3039  -5.9938  -5.7779  -5.6873   5.5924   5.8909   6.1017   6.2841
     7.0658   7.5531   7.6962   8.3068   8.5875   9.1701   9.3978   9.7319
    11.7096  12.1696  12.4981  12.9699  13.1267  13.8714  14.9256  15.9411
    16.1951  17.3558

          k = 0.1667 0.1667-0.7262 (  9588 PWs)   bands (ev):

   -60.6734 -60.6734 -30.9113 -30.9087 -30.6922 -30.6888 -30.5068 -30.5061
    -6.1965  -5.9931  -5.8476  -5.6329   5.5638   5.8658   6.1973   6.4338
     6.7996   7.9856   8.1281   8.3741   8.3892   8.9269   9.0441   9.5806
    12.0330  12.2317  12.2482  12.6580  13.3159  14.0197  14.7381  15.8176
    16.2702  17.2901

          k = 0.1667 0.3333 0.0000 (  9581 PWs)   bands (ev):

   -60.6846 -60.6819 -30.9230 -30.9205 -30.5371 -30.5344 -30.5237 -30.5142
    -6.8454  -6.2673  -5.7107  -5.4486   4.7703   5.7255   6.1219   6.2477
     6.6600   7.2205   8.1728   8.5432   9.0669   9.2789   9.7460  10.4784
    11.7610  11.7840  12.3884  12.5003  12.7286  13.8305  15.6030  16.7194
    17.1090  17.5282

          k = 0.1667 0.3333 0.1815 (  9575 PWs)   bands (ev):

   -60.6830 -60.6806 -30.9210 -30.9191 -30.5496 -30.5415 -30.5309 -30.5297
    -6.7331  -6.1706  -5.7749  -5.5170   4.9366   5.9353   6.0371   6.0972
     6.9111   7.5410   7.8039   8.2768   8.7832   9.2551   9.8248  10.3355
    11.8190  11.9198  12.3617  12.7748  12.8474  13.7195  15.7135  16.2695
    16.7957  17.5546

          k = 0.1667 0.3333 0.3631 (  9567 PWs)   bands (ev):

   -60.6793 -60.6774 -30.9163 -30.9159 -30.6090 -30.6023 -30.5211 -30.5205
    -6.4619  -5.9746  -5.8853  -5.6703   5.3467   5.9608   6.0534   6.4321
     6.7687   7.4335   7.6619   8.1603   8.8568   8.9964   9.6490  10.2788
    11.5657  12.2012  12.4866  12.8677  13.1844  13.5693  15.2903  15.9128
    16.5319  17.5375

          k = 0.1667 0.3333 0.5446 (  9580 PWs)   bands (ev):

   -60.6753 -60.6743 -30.9132 -30.9116 -30.6675 -30.6631 -30.5108 -30.5105
    -6.2422  -6.0593  -5.7707  -5.6867   5.6835   5.8145   6.0516   6.1809
     6.8899   7.5786   7.9963   8.4503   8.5402   9.1158   9.4670  10.1406
    11.3860  12.2541  12.3678  12.5399  13.3450  13.8290  14.7651  15.5038
    16.8142  17.5611

          k = 0.1667 0.3333-0.7262 (  9572 PWs)   bands (ev):

   -60.6734 -60.6734 -30.9123 -30.9098 -30.6914 -30.6881 -30.5068 -30.5061
    -6.2270  -6.0772  -5.7549  -5.5938   5.4876   5.8210   6.1089   6.1661
     6.9495   7.8958   8.1732   8.3981   8.6000   9.2716   9.4120   9.7831
    11.5264  12.1024  12.2565  12.2672  13.4352  13.9831  14.6252  15.3388
    16.9304  17.6105

          k = 0.1667-0.5000 0.0000 (  9580 PWs)   bands (ev):

   -60.6833 -60.6833 -30.9216 -30.9216 -30.5362 -30.5362 -30.5189 -30.5189
    -6.5383  -6.5383  -5.6145  -5.6145   5.2918   5.2918   6.1900   6.1900
     7.3268   7.3268   8.0373   8.0373   8.8235   8.8235  10.0300  10.0300
    12.1687  12.1687  12.2651  12.2651  13.3124  13.3124  16.5960  16.5960
    16.8568  16.8568

          k = 0.1667-0.5000 0.1815 (  9578 PWs)   bands (ev):

   -60.6818 -60.6818 -30.9199 -30.9199 -30.5456 -30.5456 -30.5306 -30.5306
    -6.4386  -6.4386  -5.6732  -5.6732   5.4473   5.4473   6.1171   6.1171
     7.4512   7.4512   8.1079   8.1079   8.4455   8.4455  10.0682  10.0682
    12.0722  12.0722  12.5724  12.5724  13.2593  13.2593  16.2616  16.2616
    16.8802  16.8802

          k = 0.1667-0.5000 0.3631 (  9578 PWs)   bands (ev):

   -60.6783 -60.6783 -30.9162 -30.9162 -30.6056 -30.6056 -30.5209 -30.5209
    -6.2236  -6.2236  -5.7791  -5.7791   5.7123   5.7123   6.1952   6.1952
     7.0368   7.0368   8.2235   8.2235   8.6076   8.6076   9.9030   9.9030
    12.0324  12.0324  12.6555  12.6555  13.3420  13.3420  15.5409  15.5409
    17.0983  17.0983

          k = 0.1667-0.5000 0.5446 (  9588 PWs)   bands (ev):

   -60.6748 -60.6748 -30.9128 -30.9128 -30.6651 -30.6651 -30.5107 -30.5107
    -6.1542  -6.1542  -5.7243  -5.7243   5.7129   5.7129   6.1274   6.1274
     7.1370   7.1370   8.3178   8.3178   8.8151   8.8151   9.9652   9.9652
    11.6432  11.6432  12.4462  12.4462  13.6179  13.6179  15.0182  15.0182
    17.3701  17.3701

          k = 0.1667-0.5000-0.7262 (  9580 PWs)   bands (ev):

   -60.6734 -60.6734 -30.9116 -30.9116 -30.6894 -30.6894 -30.5064 -30.5064
    -6.1823  -6.1823  -5.6398  -5.6398   5.5531   5.5531   6.1327   6.1327
     7.4459   7.4459   8.1989   8.1989   8.9572   8.9572  10.0852  10.0852
    11.3857  11.3857  12.2720  12.2720  13.7497  13.7497  14.8571  14.8571
    17.4958  17.4958

          k = 0.3333 0.3333 0.0000 (  9571 PWs)   bands (ev):

   -60.6840 -60.6825 -30.9243 -30.9218 -30.5362 -30.5334 -30.5217 -30.5162
    -6.7591  -6.4215  -5.6424  -5.4213   4.5720   5.3019   6.0642   6.1779
     7.0905   7.7697   8.4378   8.7913   9.1201   9.3961   9.4440  10.2360
    11.4361  11.5251  12.1842  12.2737  13.1656  13.7548  15.8070  16.8540
    16.9695  17.2214

          k = 0.3333 0.3333 0.1815 (  9579 PWs)   bands (ev):

   -60.6825 -60.6811 -30.9221 -30.9202 -30.5477 -30.5424 -30.5306 -30.5296
    -6.6498  -6.3253  -5.7021  -5.4939   4.7482   5.4586   5.9765   6.1069
     7.3443   8.0036   8.0820   8.5539   8.8257   9.4734   9.5427   9.8127
    11.6386  11.8146  12.2423  12.5489  13.1135  13.6103  15.9313  16.3905
    16.9167  17.1071

          k = 0.3333 0.3333 0.3631 (  9596 PWs)   bands (ev):

   -60.6789 -60.6778 -30.9167 -30.9164 -30.6078 -30.6035 -30.5210 -30.5204
    -6.3822  -6.1187  -5.8095  -5.6653   5.2108   5.7174   5.9231   6.1822
     7.0965   7.8295   7.8561   8.5434   8.7648   9.1207   9.4439  10.0039
    11.8659  12.0286  12.4821  12.7215  13.0805  13.3902  15.5196  16.3371
    16.3483  17.2035

          k = 0.3333 0.3333 0.5446 (  9579 PWs)   bands (ev):

   -60.6751 -60.6745 -30.9130 -30.9114 -30.6675 -30.6640 -30.5111 -30.5108
    -6.1710  -6.0231  -5.8317  -5.7260   5.6859   5.7780   5.9976   6.1366
     6.7818   7.3871   8.1553   8.3655   8.6735   9.2274   9.6911  10.2554
    11.5926  12.2366  12.4372  12.6708  12.8614  13.6568  14.9873  15.9262
    16.4811  17.3420

          k = 0.3333 0.3333-0.7262 (  9562 PWs)   bands (ev):

   -60.6734 -60.6734 -30.9117 -30.9092 -30.6921 -30.6887 -30.5072 -30.5065
    -6.1826  -5.9314  -5.8992  -5.6367   5.5478   6.0636   6.0653   6.1273
     6.5095   7.6478   8.0060   8.1337   8.9466   9.3464   9.8312  10.1896
    11.5318  12.2670  12.2784  12.4305  12.9834  13.7989  14.8127  15.8019
    16.4819  17.4337

          k = 0.3333-0.5000 0.0000 (  9586 PWs)   bands (ev):

   -60.6832 -60.6832 -30.9238 -30.9238 -30.5343 -30.5343 -30.5189 -30.5189
    -6.6101  -6.6101  -5.5053  -5.5053   4.7754   4.7754   6.0890   6.0890
     7.7431   7.7431   8.7349   8.7349   9.1952   9.1952   9.6644   9.6644
    11.7603  11.7603  11.8001  11.8001  13.5259  13.5259  16.3176  16.3176
    17.1033  17.1033

          k = 0.3333-0.5000 0.1815 (  9598 PWs)   bands (ev):

   -60.6818 -60.6818 -30.9217 -30.9217 -30.5448 -30.5448 -30.5299 -30.5299
    -6.5075  -6.5075  -5.5720  -5.5720   4.9432   4.9432   6.0159   6.0159
     7.9202   7.9202   8.6180   8.6180   8.9500   8.9500   9.5263   9.5263
    11.8715  11.8715  12.1278  12.1278  13.3929  13.3929  16.3470  16.3470
    16.8466  16.8466

          k = 0.3333-0.5000 0.3631 (  9572 PWs)   bands (ev):

   -60.6783 -60.6783 -30.9168 -30.9168 -30.6057 -30.6057 -30.5206 -30.5206
    -6.2629  -6.2629  -5.7209  -5.7209   5.3573   5.3573   5.9713   5.9713
     7.5482   7.5482   8.4685   8.4685   8.9185   8.9185   9.5798   9.5798
    12.1860  12.1860  12.3721  12.3721  13.1644  13.1644  15.9719  15.9719
    16.7800  16.7800

          k = 0.3333-0.5000 0.5446 (  9558 PWs)   bands (ev):

   -60.6748 -60.6748 -30.9121 -30.9121 -30.6660 -30.6660 -30.5110 -30.5110
    -6.0764  -6.0764  -5.7977  -5.7977   5.7115   5.7115   6.0357   6.0357
     7.0216   7.0216   8.2751   8.2751   8.9974   8.9974  10.0634  10.0634
    12.0949  12.0949  12.3255  12.3255  13.2521  13.2521  15.5019  15.5019
    16.8993  16.8993

          k = 0.3333-0.5000-0.7262 (  9572 PWs)   bands (ev):

   -60.6734 -60.6734 -30.9101 -30.9101 -30.6907 -30.6907 -30.5071 -30.5071
    -6.0689  -6.0689  -5.7554  -5.7554   5.7668   5.7668   6.0809   6.0809
     6.9665   6.9665   8.0603   8.0603   9.1910   9.1910  10.2409  10.2409
    11.9190  11.9190  12.2793  12.2793  13.3589  13.3589  15.3319  15.3319
    16.9468  16.9468

          k =-0.5000-0.5000 0.0000 (  9652 PWs)   bands (ev):

   -60.6832 -60.6832 -30.9248 -30.9248 -30.5334 -30.5334 -30.5189 -30.5189
    -6.6415  -6.6415  -5.4549  -5.4549   4.5742   4.5742   6.0432   6.0432
     8.3191   8.3191   8.3686   8.3686   9.4182   9.4182   9.9371   9.9371
    11.4040  11.4040  11.5345  11.5345  13.6126  13.6126  16.1959  16.1959
    17.2180  17.2180

          k =-0.5000-0.5000 0.1815 (  9604 PWs)   bands (ev):

   -60.6818 -60.6818 -30.9226 -30.9226 -30.5445 -30.5445 -30.5296 -30.5296
    -6.5372  -6.5372  -5.5261  -5.5261   4.7504   4.7504   5.9658   5.9658
     8.4705   8.4705   8.6029   8.6029   8.8452   8.8452   9.6128   9.6128
    11.7152  11.7152  11.8730  11.8730  13.4494  13.4494  16.3051  16.3051
    16.9138  16.9138

          k =-0.5000-0.5000 0.3631 (  9544 PWs)   bands (ev):

   -60.6783 -60.6783 -30.9171 -30.9171 -30.6057 -30.6057 -30.5205 -30.5205
    -6.2799  -6.2799  -5.6944  -5.6944   5.2133   5.2133   5.8904   5.8904
     7.8401   7.8401   8.6789   8.6789   8.7458   8.7458   9.5882   9.5882
    12.0934  12.0934  12.4330  12.4330  13.0277  13.0277  16.3323  16.3323
    16.4636  16.4636

          k =-0.5000-0.5000 0.5446 (  9540 PWs)   bands (ev):

   -60.6748 -60.6748 -30.9117 -30.9117 -30.6664 -30.6664 -30.5112 -30.5112
    -6.0139  -6.0139  -5.8581  -5.8581   5.7541   5.7541   5.9206   5.9206
     7.0240   7.0240   8.2222   8.2222   9.0823   9.0823  10.1209  10.1209
    12.2566  12.2566  12.5468  12.5468  12.8569  12.8569  15.9176  15.9176
    16.4827  16.4827

          k =-0.5000-0.5000-0.7262 (  9536 PWs)   bands (ev):

   -60.6734 -60.6734 -30.9094 -30.9094 -30.6913 -30.6913 -30.5074 -30.5074
    -5.9245  -5.9245  -5.9007  -5.9007   5.9610   5.9610   6.0302   6.0302
     6.6882   6.6882   8.0186   8.0186   9.2507   9.2507  10.3416  10.3416
    12.2819  12.2819  12.3192  12.3192  13.0127  13.0127  15.7910  15.7910
    16.4543  16.4543

     the Fermi energy is    12.8308 ev

!    total energy              =    -504.99075755 Ry
     estimated scf accuracy    <          8.9E-10 Ry
     smearing contrib. (-TS)   =      -0.01017631 Ry
     internal energy E=F+TS    =    -504.98058125 Ry

     The total energy is F=E-TS. E is the sum of the following terms:
     one-electron contribution =    -167.39766945 Ry
     hartree contribution      =     113.71784138 Ry
     xc contribution           =     -67.39845320 Ry
     ewald contribution        =    -383.90229998 Ry

     convergence has been achieved in   3 iterations

     Forces acting on atoms (cartesian axes, Ry/au):

     atom    1 type  1   force =     0.00000000    0.00000000    0.00000000
     atom    2 type  1   force =     0.00000000    0.00000000    0.00000000
     atom    3 type  2   force =     0.00001561    0.00001561    0.00000000
     atom    4 type  2   force =    -0.00001561   -0.00001561    0.00000000
     atom    5 type  2   force =     0.00001561   -0.00001561    0.00000000
     atom    6 type  2   force =    -0.00001561    0.00001561    0.00000000

     Total force =     0.000044     Total SCF correction =     0.000044
     SCF correction compared to forces is large: reduce conv_thr to get better values


     Computing stress (Cartesian axis) and pressure

          total   stress  (Ry/bohr**3)                   (kbar)     P=       -0.09
   0.00000007   0.00000000   0.00000000            0.01        0.00        0.00
   0.00000000   0.00000007   0.00000000            0.00        0.01        0.00
   0.00000000   0.00000000  -0.00000191            0.00        0.00       -0.28

     Energy error            =      1.4E-07 Ry
     Gradient error          =      1.6E-05 Ry/Bohr
     Cell gradient error     =      2.8E-01 kbar

     bfgs converged in   2 scf cycles and   1 bfgs steps
     (criteria: energy <  1.0E-04 Ry, force <  1.0E-03 Ry/Bohr, cell <  5.0E-01 kbar)

     End of BFGS Geometry Optimization

     Final enthalpy           =    -504.9907575521 Ry

     File ./Out/pwscf.bfgs deleted, as requested
Begin final coordinates
     new unit-cell volume =    431.40671 a.u.^3 (    63.92788 Ang^3 )
     density =      6.91293 g/cm^3

CELL_PARAMETERS (angstrom)
   4.528297631   0.000000000   0.000000000
   0.000000000   4.528297631   0.000000000
   0.000000000   0.000000000   3.117599810

ATOMIC_POSITIONS (angstrom)
Ru               0.0000000000        0.0000000000        0.0000000000
Ru               2.2641488158        2.2641488158        1.5587999047
O                1.3839783504        1.3839783504        0.0000000000
O                3.1443192813        3.1443192813        0.0000000000
O                3.6481271662        0.8801704654        1.5587999047
O                0.8801704654        3.6481271662        1.5587999047
End final coordinates



     Writing config-only to output data dir ./Out/pwscf.save/

     Final scf calculation at the relaxed structure.
     The G-vectors are recalculated for the final unit cell
     Results may differ from those at the preceding step.
 
     G-vector sticks info
     --------------------
     sticks:   dense  smooth     PW     G-vecs:    dense   smooth      PW
     Sum        2801    2801    793                76593    76593   11669
 
     Using Slab Decomposition
 


     bravais-lattice index     =            0
     lattice parameter (alat)  =       8.5565  a.u.
     unit-cell volume          =     431.4067 (a.u.)^3
     number of atoms/cell      =            6
     number of atomic types    =            2
     number of electrons       =        56.00
     number of Kohn-Sham states=           34
     kinetic-energy cutoff     =     120.0000  Ry
     charge density cutoff     =     480.0000  Ry
     scf convergence threshold =      1.0E-08
     mixing beta               =       0.4000
     number of iterations used =           20  plain     mixing
     press convergence thresh. =      5.0E-01
     Exchange-correlation= PBE
                           (   1   4   3   4   0   0   0)

     GPU acceleration is ACTIVE.


     celldm(1)=   8.556513  celldm(2)=   0.000000  celldm(3)=   0.000000
     celldm(4)=   0.000000  celldm(5)=   0.000000  celldm(6)=   0.000000

     crystal axes: (cart. coord. in units of alat)
               a(1) = (   1.000085   0.000000   0.000000 )  
               a(2) = (   0.000000   1.000085   0.000000 )  
               a(3) = (   0.000000   0.000000   0.688529 )  

     reciprocal axes: (cart. coord. in units 2 pi/alat)
               b(1) = (  0.999915  0.000000  0.000000 )  
               b(2) = (  0.000000  0.999915  0.000000 )  
               b(3) = (  0.000000  0.000000  1.452371 )  


     PseudoPot. # 1 for Ru read from file:
     /cm/shared/apps/KO/pseudo/sg15/Ru_ONCV_PBE-1.2.upf
     MD5 check sum: 197966c748556f6a714a34a8c7eb0781
     Pseudo is Norm-conserving, Zval = 16.0
     Generated using ONCVPSP code by D. R. Hamann
     Using radial grid of  602 points,  6 beta functions with: 
                l(1) =   0
                l(2) =   0
                l(3) =   1
                l(4) =   1
                l(5) =   2
                l(6) =   2

     PseudoPot. # 2 for O  read from file:
     /cm/shared/apps/KO/pseudo/sg15/O_ONCV_PBE-1.2.upf
     MD5 check sum: e36c48deb68f4e355fffe4602be2c42c
     Pseudo is Norm-conserving, Zval =  6.0
     Generated using ONCVPSP code by D. R. Hamann
     Using radial grid of  602 points,  4 beta functions with: 
                l(1) =   0
                l(2) =   0
                l(3) =   1
                l(4) =   1

     atomic species   valence    mass     pseudopotential
     Ru               16.00   101.07000     Ru( 1.00)
     O                 6.00    15.99900     O ( 1.00)

     16 Sym. Ops., with inversion, found ( 8 have fractional translation)



   Cartesian axes

     site n.     atom                  positions (alat units)
         1        Ru     tau(   1) = (   0.0000000   0.0000000   0.0000000  )
         2        Ru     tau(   2) = (   0.5000426   0.5000426   0.3442647  )
         3        O      tau(   3) = (   0.3056549   0.3056549   0.0000000  )
         4        O      tau(   4) = (   0.6944304   0.6944304   0.0000000  )
         5        O      tau(   5) = (   0.8056975   0.1943877   0.3442647  )
         6        O      tau(   6) = (   0.1943877   0.8056975   0.3442647  )

     number of k points=    50  Gaussian smearing, width (Ry)=  0.0200
                       cart. coord. in units 2pi/alat
        k(    1) = (   0.0000000   0.0000000   0.0000000), wk =   0.0069444
        k(    2) = (   0.0000000   0.0000000   0.1815464), wk =   0.0138889
        k(    3) = (   0.0000000   0.0000000   0.3630927), wk =   0.0138889
        k(    4) = (   0.0000000   0.0000000   0.5446391), wk =   0.0138889
        k(    5) = (   0.0000000   0.0000000  -0.7261855), wk =   0.0069444
        k(    6) = (   0.0000000   0.1666525   0.0000000), wk =   0.0277778
        k(    7) = (   0.0000000   0.1666525   0.1815464), wk =   0.0555556
        k(    8) = (   0.0000000   0.1666525   0.3630927), wk =   0.0555556
        k(    9) = (   0.0000000   0.1666525   0.5446391), wk =   0.0555556
        k(   10) = (   0.0000000   0.1666525  -0.7261855), wk =   0.0277778
        k(   11) = (   0.0000000   0.3333049   0.0000000), wk =   0.0277778
        k(   12) = (   0.0000000   0.3333049   0.1815464), wk =   0.0555556
        k(   13) = (   0.0000000   0.3333049   0.3630927), wk =   0.0555556
        k(   14) = (   0.0000000   0.3333049   0.5446391), wk =   0.0555556
        k(   15) = (   0.0000000   0.3333049  -0.7261855), wk =   0.0277778
        k(   16) = (   0.0000000  -0.4999574   0.0000000), wk =   0.0138889
        k(   17) = (   0.0000000  -0.4999574   0.1815464), wk =   0.0277778
        k(   18) = (   0.0000000  -0.4999574   0.3630927), wk =   0.0277778
        k(   19) = (   0.0000000  -0.4999574   0.5446391), wk =   0.0277778
        k(   20) = (   0.0000000  -0.4999574  -0.7261855), wk =   0.0138889
        k(   21) = (   0.1666525   0.1666525   0.0000000), wk =   0.0277778
        k(   22) = (   0.1666525   0.1666525   0.1815464), wk =   0.0555556
        k(   23) = (   0.1666525   0.1666525   0.3630927), wk =   0.0555556
        k(   24) = (   0.1666525   0.1666525   0.5446391), wk =   0.0555556
        k(   25) = (   0.1666525   0.1666525  -0.7261855), wk =   0.0277778
        k(   26) = (   0.1666525   0.3333049   0.0000000), wk =   0.0555556
        k(   27) = (   0.1666525   0.3333049   0.1815464), wk =   0.1111111
        k(   28) = (   0.1666525   0.3333049   0.3630927), wk =   0.1111111
        k(   29) = (   0.1666525   0.3333049   0.5446391), wk =   0.1111111
        k(   30) = (   0.1666525   0.3333049  -0.7261855), wk =   0.0555556
        k(   31) = (   0.1666525  -0.4999574   0.0000000), wk =   0.0277778
        k(   32) = (   0.1666525  -0.4999574   0.1815464), wk =   0.0555556
        k(   33) = (   0.1666525  -0.4999574   0.3630927), wk =   0.0555556
        k(   34) = (   0.1666525  -0.4999574   0.5446391), wk =   0.0555556
        k(   35) = (   0.1666525  -0.4999574  -0.7261855), wk =   0.0277778
        k(   36) = (   0.3333049   0.3333049   0.0000000), wk =   0.0277778
        k(   37) = (   0.3333049   0.3333049   0.1815464), wk =   0.0555556
        k(   38) = (   0.3333049   0.3333049   0.3630927), wk =   0.0555556
        k(   39) = (   0.3333049   0.3333049   0.5446391), wk =   0.0555556
        k(   40) = (   0.3333049   0.3333049  -0.7261855), wk =   0.0277778
        k(   41) = (   0.3333049  -0.4999574   0.0000000), wk =   0.0277778
        k(   42) = (   0.3333049  -0.4999574   0.1815464), wk =   0.0555556
        k(   43) = (   0.3333049  -0.4999574   0.3630927), wk =   0.0555556
        k(   44) = (   0.3333049  -0.4999574   0.5446391), wk =   0.0555556
        k(   45) = (   0.3333049  -0.4999574  -0.7261855), wk =   0.0277778
        k(   46) = (  -0.4999574  -0.4999574   0.0000000), wk =   0.0069444
        k(   47) = (  -0.4999574  -0.4999574   0.1815464), wk =   0.0138889
        k(   48) = (  -0.4999574  -0.4999574   0.3630927), wk =   0.0138889
        k(   49) = (  -0.4999574  -0.4999574   0.5446391), wk =   0.0138889
        k(   50) = (  -0.4999574  -0.4999574  -0.7261855), wk =   0.0069444

     Dense  grid:    76593 G-vectors     FFT dimensions: (  60,  60,  48)

     Estimated max dynamical RAM per process >     365.75 MB

     Initial potential from superposition of free atoms

     starting charge      55.8739, renormalised to      56.0000
     Starting wfcs are random

     total cpu time spent up to now is       17.2 secs

     per-process dynamical memory:   627.9 Mb

     Self-consistent Calculation

     iteration #  1     ecut=   120.00 Ry     beta= 0.40
     Davidson diagonalization with overlap
     c_bands:  3 eigenvalues not converged
     c_bands:  2 eigenvalues not converged
     c_bands:  3 eigenvalues not converged
     c_bands:  5 eigenvalues not converged
     c_bands:  2 eigenvalues not converged
     c_bands:  3 eigenvalues not converged
     c_bands:  1 eigenvalues not converged
     c_bands:  1 eigenvalues not converged
     c_bands:  1 eigenvalues not converged
     c_bands:  3 eigenvalues not converged
     c_bands:  5 eigenvalues not converged
     c_bands:  3 eigenvalues not converged
     c_bands:  2 eigenvalues not converged
     c_bands:  1 eigenvalues not converged
     c_bands:  3 eigenvalues not converged
     c_bands:  2 eigenvalues not converged
     c_bands:  2 eigenvalues not converged
     c_bands:  2 eigenvalues not converged
     c_bands:  3 eigenvalues not converged
     c_bands:  1 eigenvalues not converged
     c_bands:  2 eigenvalues not converged
     c_bands:  1 eigenvalues not converged
     c_bands:  1 eigenvalues not converged
     ethr =  1.00E-06,  avg # of iterations = 24.7

     total cpu time spent up to now is       22.1 secs

     total energy              =    -504.61884326 Ry
     estimated scf accuracy    <       1.14676723 Ry

     iteration #  2     ecut=   120.00 Ry     beta= 0.40
     Davidson diagonalization with overlap
     ethr =  2.05E-03,  avg # of iterations =  2.0

     total cpu time spent up to now is       22.9 secs

     total energy              =    -504.85373408 Ry
     estimated scf accuracy    <       0.78190128 Ry

     iteration #  3     ecut=   120.00 Ry     beta= 0.40
     Davidson diagonalization with overlap
     ethr =  1.40E-03,  avg # of iterations =  1.1

     total cpu time spent up to now is       23.5 secs

     total energy              =    -504.98741794 Ry
     estimated scf accuracy    <       0.02555390 Ry

     iteration #  4     ecut=   120.00 Ry     beta= 0.40
     Davidson diagonalization with overlap
     ethr =  4.56E-05,  avg # of iterations =  2.0

     total cpu time spent up to now is       24.3 secs

     total energy              =    -504.99063281 Ry
     estimated scf accuracy    <       0.00263087 Ry

     iteration #  5     ecut=   120.00 Ry     beta= 0.40
     Davidson diagonalization with overlap
     ethr =  4.70E-06,  avg # of iterations =  1.0

     total cpu time spent up to now is       25.0 secs

     total energy              =    -504.99073161 Ry
     estimated scf accuracy    <       0.00011855 Ry

     iteration #  6     ecut=   120.00 Ry     beta= 0.40
     Davidson diagonalization with overlap
     ethr =  2.12E-07,  avg # of iterations =  2.1

     total cpu time spent up to now is       25.8 secs

     total energy              =    -504.99075512 Ry
     estimated scf accuracy    <       0.00001614 Ry

     iteration #  7     ecut=   120.00 Ry     beta= 0.40
     Davidson diagonalization with overlap
     ethr =  2.88E-08,  avg # of iterations =  1.2

     total cpu time spent up to now is       26.5 secs

     total energy              =    -504.99075754 Ry
     estimated scf accuracy    <       0.00000093 Ry

     iteration #  8     ecut=   120.00 Ry     beta= 0.40
     Davidson diagonalization with overlap
     ethr =  1.66E-09,  avg # of iterations =  2.0

     total cpu time spent up to now is       27.3 secs

     total energy              =    -504.99075769 Ry
     estimated scf accuracy    <       0.00000007 Ry

     iteration #  9     ecut=   120.00 Ry     beta= 0.40
     Davidson diagonalization with overlap
     ethr =  1.28E-10,  avg # of iterations =  2.0

     total cpu time spent up to now is       28.1 secs

     total energy              =    -504.99075770 Ry
     estimated scf accuracy    <       0.00000004 Ry

     iteration # 10     ecut=   120.00 Ry     beta= 0.40
     Davidson diagonalization with overlap
     ethr =  6.66E-11,  avg # of iterations =  2.0

     total cpu time spent up to now is       28.9 secs

     End of self-consistent calculation

          k = 0.0000 0.0000 0.0000 (  9557 PWs)   bands (ev):

   -60.6865 -60.6804 -30.9231 -30.9231 -30.5336 -30.5336 -30.5301 -30.5081
    -7.2466  -6.2324  -5.3164  -5.3164   4.5116   4.6253   5.7757   6.1276
     6.1276   8.6595   8.6629   8.6629  10.0930  10.5321  10.5321  11.0529
    11.2899  11.4187  11.4987  11.4987  11.9069  14.2517  14.5042  17.2317
    17.2317  18.7349

          k = 0.0000 0.0000 0.1815 (  9549 PWs)   bands (ev):

   -60.6848 -60.6792 -30.9209 -30.9209 -30.5548 -30.5346 -30.5297 -30.5297
    -7.1145  -6.1618  -5.3936  -5.3936   4.6638   4.8320   5.9367   6.1772
     6.1772   8.2012   8.8296   8.8296   9.3807   9.9339   9.9339  10.8888
    11.4156  11.7692  11.9606  12.0740  12.0740  14.3652  14.5732  16.9148
    16.9148  18.3104

          k = 0.0000 0.0000 0.3631 (  9545 PWs)   bands (ev):

   -60.6807 -60.6764 -30.9158 -30.9158 -30.6136 -30.5984 -30.5203 -30.5203
    -6.7693  -6.0087  -5.5751  -5.5751   5.0474   5.3599   6.3528   6.3528
     6.4094   7.3402   8.3255   8.9834   8.9834   9.2912   9.2912  10.1931
    11.6849  11.9802  12.2796  12.8463  12.8463  13.9758  15.2112  16.3439
    16.3439  17.4649

          k = 0.0000 0.0000 0.5446 (  9576 PWs)   bands (ev):

   -60.6762 -60.6739 -30.9108 -30.9108 -30.6708 -30.6627 -30.5107 -30.5107
    -6.3480  -5.9173  -5.7504  -5.7504   5.4478   5.7925   6.6483   6.6483
     6.8628   7.1598   7.5385   8.3264   8.3264   9.1901   9.5143   9.5143
    12.0044  12.1685  12.4346  13.4113  13.4305  13.4305  15.6972  15.9486
    15.9486  16.5397

          k = 0.0000 0.0000-0.7262 (  9548 PWs)   bands (ev):

   -60.6736 -60.6736 -30.9087 -30.9087 -30.6917 -30.6917 -30.5068 -30.5068
    -6.0242  -6.0242  -5.8213  -5.8213   5.6917   5.6917   6.8544   6.8544
     7.1025   7.1025   7.9854   7.9854   8.1230   8.1230   9.6049   9.6049
    12.2129  12.2129  12.7741  12.7741  13.6555  13.6555  15.8232  15.8232
    16.0053  16.0053

          k = 0.0000 0.1667 0.0000 (  9572 PWs)   bands (ev):

   -60.6861 -60.6808 -30.9225 -30.9224 -30.5346 -30.5345 -30.5286 -30.5096
    -7.1477  -6.2106  -5.4384  -5.3744   4.7058   4.8512   5.9608   6.1498
     6.1619   8.3039   8.4118   8.5812   9.7057   9.8654  10.2169  10.9406
    11.5718  11.7142  11.8242  11.8672  12.2027  14.3098  14.6351  17.0968
    17.1279  18.4115

          k = 0.0000 0.1667 0.1815 (  9570 PWs)   bands (ev):

   -60.6844 -60.6796 -30.9206 -30.9205 -30.5535 -30.5372 -30.5303 -30.5293
    -7.0209  -6.1360  -5.5095  -5.4461   4.8535   5.0329   6.0051   6.1853
     6.3437   8.0495   8.4039   8.6253   9.0659   9.7748   9.8623  10.8182
    11.4815  11.9942  12.0481  12.2944  12.3410  14.1905  14.9016  16.7054
    16.8110  18.2095

          k = 0.0000 0.1667 0.3631 (  9558 PWs)   bands (ev):

   -60.6804 -60.6767 -30.9159 -30.9159 -30.6124 -30.5995 -30.5206 -30.5204
    -6.6956  -5.9845  -5.6627  -5.6097   5.2116   5.4714   6.2078   6.3427
     6.8198   7.2210   7.8286   8.9153   9.0221   9.2042   9.2233  10.3676
    11.4717  12.2301  12.4240  12.6914  12.9807  13.8752  15.4159  15.9833
    16.3103  17.6618

          k = 0.0000 0.1667 0.5446 (  9565 PWs)   bands (ev):

   -60.6760 -60.6740 -30.9115 -30.9114 -30.6697 -30.6628 -30.5107 -30.5107
    -6.3264  -5.9780  -5.7431  -5.7175   5.5350   5.8306   6.1951   6.5436
     7.1480   7.2720   7.5782   8.3608   8.5442   9.2811   9.3578   9.5182
    11.8979  12.1334  12.4669  12.8886  13.5300  13.6712  15.3978  15.4334
    16.3862  17.1032

          k = 0.0000 0.1667-0.7262 (  9580 PWs)   bands (ev):

   -60.6736 -60.6736 -30.9096 -30.9096 -30.6910 -30.6910 -30.5066 -30.5066
    -6.0988  -6.0988  -5.7406  -5.7406   5.6910   5.6910   6.3948   6.3948
     7.4485   7.4485   8.0417   8.0417   8.4887   8.4887   9.4464   9.4464
    12.2277  12.2277  12.4490  12.4490  13.7431  13.7431  15.2451  15.2451
    16.7247  16.7247

          k = 0.0000 0.3333 0.0000 (  9592 PWs)   bands (ev):

   -60.6850 -60.6819 -30.9213 -30.9212 -30.5364 -30.5363 -30.5246 -30.5136
    -6.8722  -6.2228  -5.6713  -5.5202   5.2184   5.3823   6.2036   6.2272
     6.5328   7.6090   7.6937   8.5032   8.6949   9.0978  10.0819  10.6411
    11.9983  12.1684  12.3623  12.4048  12.4884  13.8239  15.6056  16.8285
    16.8888  17.7494

          k = 0.0000 0.3333 0.1815 (  9567 PWs)   bands (ev):

   -60.6834 -60.6806 -30.9197 -30.9196 -30.5503 -30.5417 -30.5312 -30.5298
    -6.7595  -6.1277  -5.7415  -5.5798   5.3650   5.5238   6.1459   6.1830
     6.7935   7.7257   7.8978   7.9514   8.3199   9.1055  10.0613  10.5823
    11.9158  12.1552  12.3761  12.6425  12.8035  13.7365  15.6893  16.3394
    16.6128  17.7358

          k = 0.0000 0.3333 0.3631 (  9570 PWs)   bands (ev):

   -60.6796 -60.6775 -30.9161 -30.9160 -30.6094 -30.6021 -30.5211 -30.5209
    -6.4904  -5.9171  -5.8934  -5.6995   5.6425   5.7549   6.2518   6.3302
     6.9837   7.1368   7.4880   8.3051   8.4517   9.1055   9.6823  10.3594
    11.5195  12.3563  12.6440  12.6622  13.2382  13.6242  15.4820  15.5070
    16.5969  17.6651

          k = 0.0000 0.3333 0.5446 (  9575 PWs)   bands (ev):

   -60.6756 -60.6745 -30.9128 -30.9127 -30.6672 -30.6634 -30.5107 -30.5106
    -6.2680  -6.0837  -5.7219  -5.6890   5.6912   5.8257   5.9767   6.3100
     7.0878   7.4746   7.8449   8.6172   8.6974   8.8660   9.3336  10.0444
    11.3703  12.1661  12.3740  12.5219  13.6848  13.7404  14.8947  15.0859
    17.0566  17.5874

          k = 0.0000 0.3333-0.7262 (  9598 PWs)   bands (ev):

   -60.6736 -60.6736 -30.9116 -30.9116 -30.6896 -30.6896 -30.5064 -30.5064
    -6.1893  -6.1893  -5.6379  -5.6379   5.5752   5.5752   6.1645   6.1645
     7.6209   7.6209   8.2127   8.2127   8.9495   8.9495   9.4416   9.4416
    11.7224  11.7224  12.2574  12.2574  13.8511  13.8511  14.8314  14.8314
    17.4227  17.4227

          k = 0.0000-0.5000 0.0000 (  9574 PWs)   bands (ev):

   -60.6835 -60.6835 -30.9206 -30.9206 -30.5373 -30.5373 -30.5191 -30.5191
    -6.4959  -6.4959  -5.6754  -5.6754   5.6834   5.6834   6.2467   6.2467
     7.1826   7.1826   7.4939   7.4939   8.6561   8.6561  10.2934  10.2934
    12.3074  12.3074  12.4841  12.4841  13.1831  13.1831  16.7225  16.7225
    16.7523  16.7523

          k = 0.0000-0.5000 0.1815 (  9600 PWs)   bands (ev):

   -60.6820 -60.6820 -30.9192 -30.9192 -30.5462 -30.5462 -30.5310 -30.5310
    -6.3969  -6.3969  -5.7307  -5.7307   5.8963   5.8963   6.0906   6.0906
     7.2594   7.2594   7.6504   7.6504   8.3034   8.3034  10.3395  10.3395
    12.1546  12.1546  12.7403  12.7403  13.2068  13.2068  16.1408  16.1408
    16.9698  16.9698

          k = 0.0000-0.5000 0.3631 (  9592 PWs)   bands (ev):

   -60.6785 -60.6785 -30.9161 -30.9161 -30.6056 -30.6056 -30.5212 -30.5212
    -6.1998  -6.1998  -5.8122  -5.8122   5.9727   5.9727   6.3762   6.3762
     6.7295   6.7295   7.9628   7.9628   8.4994   8.4994  10.0773  10.0773
    11.9609  11.9609  12.7966  12.7966  13.4273  13.4273  15.3295  15.3295
    17.2329  17.2329

          k = 0.0000-0.5000 0.5446 (  9574 PWs)   bands (ev):

   -60.6750 -60.6750 -30.9134 -30.9134 -30.6648 -30.6648 -30.5107 -30.5107
    -6.1845  -6.1845  -5.6961  -5.6961   5.7363   5.7363   6.1184   6.1184
     7.2972   7.2972   8.2108   8.2108   8.7905   8.7905   9.9067   9.9067
    11.4743  11.4743  12.5092  12.5092  13.7517  13.7517  14.8190  14.8190
    17.5552  17.5552

          k = 0.0000-0.5000-0.7262 (  9576 PWs)   bands (ev):

   -60.6736 -60.6736 -30.9125 -30.9125 -30.6889 -30.6889 -30.5062 -30.5062
    -6.2238  -6.2238  -5.5973  -5.5973   5.4732   5.4732   6.1578   6.1578
     7.6827   7.6827   8.4791   8.4791   8.5957   8.5957  10.0395  10.0395
    11.1465  11.1465  12.2674  12.2674  13.8895  13.8895  14.6906  14.6906
    17.7084  17.7084

          k = 0.1667 0.1667 0.0000 (  9585 PWs)   bands (ev):

   -60.6857 -60.6812 -30.9235 -30.9210 -30.5364 -30.5336 -30.5274 -30.5109
    -7.0675  -6.1986  -5.5866  -5.3521   4.5635   5.3325   6.1064   6.1328
     6.2284   7.6745   8.5205   8.5859   9.6405   9.6676  10.0366  10.8268
    11.4431  11.5071  12.1648  12.2815  12.3564  14.1938  14.8626  16.8584
    17.2282  18.1793

          k = 0.1667 0.1667 0.1815 (  9561 PWs)   bands (ev):

   -60.6841 -60.6799 -30.9214 -30.9195 -30.5525 -30.5386 -30.5301 -30.5297
    -6.9446  -6.1170  -5.6509  -5.4276   4.7377   5.4664   5.9887   6.2700
     6.4499   7.7883   8.0348   8.7338   8.8997   9.7676   9.8916  10.6415
    11.5076  11.6968  12.2796  12.4705  12.6340  14.0693  15.1047  16.4300
    16.9179  18.0479

          k = 0.1667 0.1667 0.3631 (  9574 PWs)   bands (ev):

   -60.6801 -60.6769 -30.9162 -30.9159 -30.6116 -30.6002 -30.5209 -30.5203
    -6.6334  -5.9590  -5.7676  -5.6057   5.1828   5.7110   6.0628   6.5184
     6.9797   6.9910   7.9004   8.3916   8.8658   9.2512   9.5708  10.4514
    11.3664  12.0833  12.5633  12.7947  13.0323  13.7957  15.3752  15.9314
    16.3430  17.6763

          k = 0.1667 0.1667 0.5446 (  9564 PWs)   bands (ev):

   -60.6759 -60.6742 -30.9126 -30.9110 -30.6693 -30.6627 -30.5109 -30.5106
    -6.3039  -5.9938  -5.7779  -5.6873   5.5923   5.8908   6.1017   6.2840
     7.0657   7.5531   7.6962   8.3068   8.5875   9.1701   9.3977   9.7319
    11.7096  12.1695  12.4980  12.9698  13.1266  13.8713  14.9255  15.9410
    16.1950  17.3557

          k = 0.1667 0.1667-0.7262 (  9596 PWs)   bands (ev):

   -60.6736 -60.6736 -30.9114 -30.9089 -30.6923 -30.6890 -30.5070 -30.5063
    -6.1965  -5.9932  -5.8476  -5.6329   5.5637   5.8657   6.1972   6.4338
     6.7995   7.9855   8.1280   8.3741   8.3892   8.9269   9.0440   9.5806
    12.0329  12.2316  12.2481  12.6580  13.3158  14.0196  14.7380  15.8175
    16.2701  17.2900

          k = 0.1667 0.3333 0.0000 (  9585 PWs)   bands (ev):

   -60.6848 -60.6821 -30.9232 -30.9206 -30.5373 -30.5345 -30.5239 -30.5143
    -6.8454  -6.2674  -5.7108  -5.4486   4.7702   5.7255   6.1218   6.2477
     6.6600   7.2204   8.1728   8.5432   9.0669   9.2789   9.7460  10.4783
    11.7609  11.7839  12.3883  12.5002  12.7286  13.8304  15.6029  16.7193
    17.1090  17.5281

          k = 0.1667 0.3333 0.1815 (  9578 PWs)   bands (ev):

   -60.6832 -60.6808 -30.9212 -30.9193 -30.5497 -30.5417 -30.5310 -30.5299
    -6.7331  -6.1707  -5.7749  -5.5171   4.9365   5.9353   6.0371   6.0971
     6.9111   7.5410   7.8039   8.2768   8.7832   9.2551   9.8248  10.3355
    11.8190  11.9197  12.3617  12.7748  12.8473  13.7194  15.7134  16.2694
    16.7956  17.5545

          k = 0.1667 0.3333 0.3631 (  9570 PWs)   bands (ev):

   -60.6795 -60.6776 -30.9164 -30.9161 -30.6091 -30.6024 -30.5212 -30.5206
    -6.4620  -5.9746  -5.8853  -5.6703   5.3466   5.9607   6.0534   6.4320
     6.7687   7.4334   7.6619   8.1603   8.8568   8.9963   9.6490  10.2788
    11.5656  12.2011  12.4865  12.8676  13.1843  13.5692  15.2902  15.9128
    16.5318  17.5374

          k = 0.1667 0.3333 0.5446 (  9580 PWs)   bands (ev):

   -60.6755 -60.6745 -30.9134 -30.9118 -30.6677 -30.6633 -30.5110 -30.5107
    -6.2422  -6.0593  -5.7708  -5.6867   5.6835   5.8144   6.0516   6.1808
     6.8899   7.5785   7.9962   8.4503   8.5402   9.1158   9.4669  10.1406
    11.3859  12.2541  12.3677  12.5399  13.3449  13.8289  14.7650  15.5037
    16.8141  17.5610

          k = 0.1667 0.3333-0.7262 (  9580 PWs)   bands (ev):

   -60.6736 -60.6736 -30.9125 -30.9100 -30.6916 -30.6883 -30.5069 -30.5062
    -6.2270  -6.0772  -5.7549  -5.5938   5.4876   5.8209   6.1088   6.1661
     6.9495   7.8957   8.1732   8.3981   8.6000   9.2716   9.4119   9.7831
    11.5263  12.1024  12.2564  12.2671  13.4351  13.9831  14.6251  15.3387
    16.9303  17.6104

          k = 0.1667-0.5000 0.0000 (  9580 PWs)   bands (ev):

   -60.6834 -60.6834 -30.9217 -30.9217 -30.5363 -30.5363 -30.5191 -30.5191
    -6.5383  -6.5383  -5.6146  -5.6146   5.2917   5.2917   6.1900   6.1900
     7.3268   7.3268   8.0372   8.0372   8.8235   8.8235  10.0299  10.0299
    12.1687  12.1687  12.2650  12.2650  13.3123  13.3123  16.5959  16.5959
    16.8567  16.8567

          k = 0.1667-0.5000 0.1815 (  9582 PWs)   bands (ev):

   -60.6820 -60.6820 -30.9201 -30.9201 -30.5458 -30.5458 -30.5307 -30.5307
    -6.4386  -6.4386  -5.6732  -5.6732   5.4472   5.4472   6.1171   6.1171
     7.4511   7.4511   8.1079   8.1079   8.4454   8.4454  10.0682  10.0682
    12.0721  12.0721  12.5723  12.5723  13.2593  13.2593  16.2615  16.2615
    16.8802  16.8802

          k = 0.1667-0.5000 0.3631 (  9578 PWs)   bands (ev):

   -60.6785 -60.6785 -30.9164 -30.9164 -30.6057 -30.6057 -30.5211 -30.5211
    -6.2236  -6.2236  -5.7791  -5.7791   5.7123   5.7123   6.1952   6.1952
     7.0367   7.0367   8.2235   8.2235   8.6076   8.6076   9.9029   9.9029
    12.0323  12.0323  12.6554  12.6554  13.3419  13.3419  15.5408  15.5408
    17.0983  17.0983

          k = 0.1667-0.5000 0.5446 (  9592 PWs)   bands (ev):

   -60.6750 -60.6750 -30.9130 -30.9130 -30.6652 -30.6652 -30.5108 -30.5108
    -6.1542  -6.1542  -5.7243  -5.7243   5.7129   5.7129   6.1274   6.1274
     7.1369   7.1369   8.3178   8.3178   8.8150   8.8150   9.9652   9.9652
    11.6432  11.6432  12.4461  12.4461  13.6178  13.6178  15.0181  15.0181
    17.3700  17.3700

          k = 0.1667-0.5000-0.7262 (  9580 PWs)   bands (ev):

   -60.6736 -60.6736 -30.9118 -30.9118 -30.6895 -30.6895 -30.5066 -30.5066
    -6.1823  -6.1823  -5.6398  -5.6398   5.5530   5.5530   6.1326   6.1326
     7.4458   7.4458   8.1989   8.1989   8.9572   8.9572  10.0852  10.0852
    11.3856  11.3856  12.2719  12.2719  13.7496  13.7496  14.8570  14.8570
    17.4957  17.4957

          k = 0.3333 0.3333 0.0000 (  9575 PWs)   bands (ev):

   -60.6842 -60.6827 -30.9245 -30.9220 -30.5363 -30.5336 -30.5218 -30.5163
    -6.7591  -6.4215  -5.6424  -5.4213   4.5719   5.3018   6.0642   6.1779
     7.0905   7.7697   8.4378   8.7913   9.1201   9.3961   9.4440  10.2360
    11.4360  11.5250  12.1841  12.2737  13.1655  13.7547  15.8069  16.8540
    16.9694  17.2213

          k = 0.3333 0.3333 0.1815 (  9579 PWs)   bands (ev):

   -60.6827 -60.6813 -30.9223 -30.9204 -30.5479 -30.5425 -30.5307 -30.5298
    -6.6498  -6.3254  -5.7021  -5.4939   4.7481   5.4585   5.9765   6.1069
     7.3442   8.0036   8.0819   8.5539   8.8257   9.4734   9.5427   9.8127
    11.6385  11.8145  12.2422  12.5488  13.1134  13.6102  15.9312  16.3904
    16.9166  17.1070

          k = 0.3333 0.3333 0.3631 (  9596 PWs)   bands (ev):

   -60.6791 -60.6780 -30.9169 -30.9166 -30.6079 -30.6037 -30.5211 -30.5205
    -6.3822  -6.1187  -5.8095  -5.6653   5.2108   5.7174   5.9231   6.1822
     7.0965   7.8295   7.8560   8.5434   8.7648   9.1206   9.4439  10.0039
    11.8658  12.0285  12.4821  12.7214  13.0805  13.3901  15.5195  16.3370
    16.3482  17.2034

          k = 0.3333 0.3333 0.5446 (  9579 PWs)   bands (ev):

   -60.6753 -60.6747 -30.9131 -30.9116 -30.6676 -30.6642 -30.5112 -30.5109
    -6.1710  -6.0231  -5.8317  -5.7260   5.6858   5.7779   5.9975   6.1365
     6.7817   7.3870   8.1552   8.3655   8.6735   9.2274   9.6911  10.2554
    11.5925  12.2366  12.4371  12.6708  12.8613  13.6567  14.9872  15.9261
    16.4810  17.3419

          k = 0.3333 0.3333-0.7262 (  9562 PWs)   bands (ev):

   -60.6736 -60.6736 -30.9119 -30.9094 -30.6922 -30.6889 -30.5074 -30.5067
    -6.1827  -5.9314  -5.8992  -5.6367   5.5478   6.0635   6.0653   6.1272
     6.5095   7.6477   8.0059   8.1336   8.9465   9.3463   9.8312  10.1896
    11.5317  12.2669  12.2783  12.4304  12.9833  13.7988  14.8126  15.8019
    16.4818  17.4336

          k = 0.3333-0.5000 0.0000 (  9586 PWs)   bands (ev):

   -60.6834 -60.6834 -30.9239 -30.9239 -30.5345 -30.5345 -30.5191 -30.5191
    -6.6102  -6.6102  -5.5053  -5.5053   4.7753   4.7753   6.0889   6.0889
     7.7431   7.7431   8.7349   8.7349   9.1952   9.1952   9.6643   9.6643
    11.7602  11.7602  11.8000  11.8000  13.5258  13.5258  16.3174  16.3174
    17.1032  17.1032

          k = 0.3333-0.5000 0.1815 (  9600 PWs)   bands (ev):

   -60.6820 -60.6820 -30.9219 -30.9219 -30.5450 -30.5450 -30.5301 -30.5301
    -6.5075  -6.5075  -5.5721  -5.5721   4.9431   4.9431   6.0158   6.0158
     7.9202   7.9202   8.6180   8.6180   8.9499   8.9499   9.5263   9.5263
    11.8714  11.8714  12.1278  12.1278  13.3929  13.3929  16.3469  16.3469
    16.8465  16.8465

          k = 0.3333-0.5000 0.3631 (  9576 PWs)   bands (ev):

   -60.6785 -60.6785 -30.9170 -30.9170 -30.6058 -30.6058 -30.5208 -30.5208
    -6.2630  -6.2630  -5.7209  -5.7209   5.3573   5.3573   5.9713   5.9713
     7.5482   7.5482   8.4684   8.4684   8.9184   8.9184   9.5798   9.5798
    12.1859  12.1859  12.3720  12.3720  13.1644  13.1644  15.9719  15.9719
    16.7799  16.7799

          k = 0.3333-0.5000 0.5446 (  9560 PWs)   bands (ev):

   -60.6750 -60.6750 -30.9122 -30.9122 -30.6661 -30.6661 -30.5112 -30.5112
    -6.0764  -6.0764  -5.7977  -5.7977   5.7114   5.7114   6.0357   6.0357
     7.0215   7.0215   8.2750   8.2750   8.9974   8.9974  10.0634  10.0634
    12.0949  12.0949  12.3254  12.3254  13.2520  13.2520  15.5018  15.5018
    16.8992  16.8992

          k = 0.3333-0.5000-0.7262 (  9572 PWs)   bands (ev):

   -60.6736 -60.6736 -30.9103 -30.9103 -30.6908 -30.6908 -30.5072 -30.5072
    -6.0689  -6.0689  -5.7554  -5.7554   5.7667   5.7667   6.0808   6.0808
     6.9664   6.9664   8.0603   8.0603   9.1910   9.1910  10.2409  10.2409
    11.9189  11.9189  12.2792  12.2792  13.3588  13.3588  15.3319  15.3319
    16.9467  16.9467

          k =-0.5000-0.5000 0.0000 (  9652 PWs)   bands (ev):

   -60.6834 -60.6834 -30.9250 -30.9250 -30.5335 -30.5335 -30.5190 -30.5190
    -6.6415  -6.6415  -5.4549  -5.4549   4.5741   4.5741   6.0432   6.0432
     8.3190   8.3190   8.3686   8.3686   9.4182   9.4182   9.9370   9.9370
    11.4039  11.4039  11.5344  11.5344  13.6126  13.6126  16.1958  16.1958
    17.2179  17.2179

          k =-0.5000-0.5000 0.1815 (  9604 PWs)   bands (ev):

   -60.6820 -60.6820 -30.9228 -30.9228 -30.5446 -30.5446 -30.5298 -30.5298
    -6.5372  -6.5372  -5.5261  -5.5261   4.7503   4.7503   5.9657   5.9657
     8.4705   8.4705   8.6029   8.6029   8.8452   8.8452   9.6127   9.6127
    11.7151  11.7151  11.8729  11.8729  13.4494  13.4494  16.3050  16.3050
    16.9137  16.9137

          k =-0.5000-0.5000 0.3631 (  9544 PWs)   bands (ev):

   -60.6785 -60.6785 -30.9173 -30.9173 -30.6059 -30.6059 -30.5206 -30.5206
    -6.2799  -6.2799  -5.6945  -5.6945   5.2132   5.2132   5.8903   5.8903
     7.8401   7.8401   8.6788   8.6788   8.7457   8.7457   9.5882   9.5882
    12.0933  12.0933  12.4329  12.4329  13.0276  13.0276  16.3322  16.3322
    16.4635  16.4635

          k =-0.5000-0.5000 0.5446 (  9540 PWs)   bands (ev):

   -60.6750 -60.6750 -30.9118 -30.9118 -30.6665 -30.6665 -30.5114 -30.5114
    -6.0139  -6.0139  -5.8581  -5.8581   5.7541   5.7541   5.9205   5.9205
     7.0240   7.0240   8.2222   8.2222   9.0822   9.0822  10.1208  10.1208
    12.2565  12.2565  12.5467  12.5467  12.8568  12.8568  15.9175  15.9175
    16.4826  16.4826

          k =-0.5000-0.5000-0.7262 (  9536 PWs)   bands (ev):

   -60.6736 -60.6736 -30.9096 -30.9096 -30.6915 -30.6915 -30.5075 -30.5075
    -5.9245  -5.9245  -5.9008  -5.9008   5.9610   5.9610   6.0301   6.0301
     6.6881   6.6881   8.0185   8.0185   9.2507   9.2507  10.3415  10.3415
    12.2818  12.2818  12.3191  12.3191  13.0126  13.0126  15.7909  15.7909
    16.4541  16.4541

     the Fermi energy is    12.8307 ev

!    total energy              =    -504.99075771 Ry
     estimated scf accuracy    <          2.1E-09 Ry
     smearing contrib. (-TS)   =      -0.01017624 Ry
     internal energy E=F+TS    =    -504.98058147 Ry

     The total energy is F=E-TS. E is the sum of the following terms:
     one-electron contribution =    -167.39800928 Ry
     hartree contribution      =     113.71821121 Ry
     xc contribution           =     -67.39848342 Ry
     ewald contribution        =    -383.90229998 Ry

     convergence has been achieved in  10 iterations

     Forces acting on atoms (cartesian axes, Ry/au):

     atom    1 type  1   force =     0.00000000    0.00000000    0.00000000
     atom    2 type  1   force =     0.00000000    0.00000000    0.00000000
     atom    3 type  2   force =     0.00001034    0.00001034    0.00000000
     atom    4 type  2   force =    -0.00001034   -0.00001034    0.00000000
     atom    5 type  2   force =     0.00001034   -0.00001034    0.00000000
     atom    6 type  2   force =    -0.00001034    0.00001034    0.00000000

     Total force =     0.000029     Total SCF correction =     0.000005
     SCF correction compared to forces is large: reduce conv_thr to get better values


     Computing stress (Cartesian axis) and pressure

          total   stress  (Ry/bohr**3)                   (kbar)     P=        0.01
   0.00000067   0.00000000   0.00000000            0.10        0.00        0.00
   0.00000000   0.00000067   0.00000000            0.00        0.10        0.00
   0.00000000   0.00000000  -0.00000117            0.00        0.00       -0.17


     Writing all to output data dir ./Out/pwscf.save/
 
     init_run     :      1.73s CPU      2.26s WALL (       2 calls)
     electrons    :     22.71s CPU     23.64s WALL (       3 calls)
     update_pot   :      0.22s CPU      0.20s WALL (       1 calls)
     forces       :      1.60s CPU      1.62s WALL (       3 calls)
     stress       :      2.34s CPU      2.35s WALL (       3 calls)

     Called by init_run:
     wfcinit      :      1.05s CPU      1.33s WALL (       2 calls)
     potinit      :      0.04s CPU      0.04s WALL (       2 calls)
     hinit0       :      0.51s CPU      0.69s WALL (       2 calls)

     Called by electrons:
     c_bands      :     19.54s CPU     20.41s WALL (      23 calls)
     sum_band     :      2.80s CPU      2.88s WALL (      23 calls)
     v_of_rho     :      0.20s CPU      0.11s WALL (      25 calls)
     mix_rho      :      0.16s CPU      0.20s WALL (      23 calls)

     Called by c_bands:
     init_us_2    :      1.12s CPU      1.14s WALL (    2700 calls)
     init_us_2:gp :      1.05s CPU      1.07s WALL (    2700 calls)
     cegterg      :     16.62s CPU     17.12s WALL (    1175 calls)

     Called by *egterg:
     cdiaghg      :      6.10s CPU      6.40s WALL (    4791 calls)
                                        6.37s GPU  (    4791 calls)
     h_psi        :      7.82s CPU      8.14s WALL (    5016 calls)
                                        8.10s GPU  (    5016 calls)
     g_psi        :      0.01s CPU      0.13s WALL (    3741 calls)
                                        0.11s GPU  (    3741 calls)

     Called by h_psi:
     h_psi:calbec :      0.22s CPU      0.60s WALL (    5016 calls)
                                        0.56s GPU  (    5016 calls)
     vloc_psi     :      6.10s CPU      6.31s WALL (    5016 calls)
                                        6.27s GPU  (    5016 calls)
     add_vuspsi   :      0.84s CPU      1.01s WALL (    5016 calls)
                                        0.98s GPU  (    5016 calls)

     General routines
     calbec       :      0.19s CPU      0.27s WALL (    5766 calls)
     fft          :      0.01s CPU      0.04s WALL (     273 calls)
                                        0.04s GPU  (     273 calls)
     ffts         :      0.00s CPU      0.00s WALL (      23 calls)
                                        0.00s GPU  (      23 calls)
     fftw         :      0.24s CPU      4.21s WALL (   27160 calls)
                                        4.02s GPU  (   27160 calls)
 
 
     PWSCF        :     28.96s CPU     30.63s WALL

 
   This run was terminated on:  12:22:57  23Jul2026            

=------------------------------------------------------------------------------=
   JOB DONE.
=------------------------------------------------------------------------------=
