
     Program PWSCF v.7.1 starts on 13Jul2026 at 13:58:19 

     This program is part of the open-source Quantum ESPRESSO suite
     for quantum simulation of materials; please cite
         "P. Giannozzi et al., J. Phys.:Condens. Matter 21 395502 (2009);
         "P. Giannozzi et al., J. Phys.:Condens. Matter 29 465901 (2017);
         "P. Giannozzi et al., J. Chem. Phys. 152 154105 (2020);
          URL http://www.quantum-espresso.org", 
     in publications or presentations arising from this work. More details at
     http://www.quantum-espresso.org/quote

     Parallel version (MPI), running on    36 processors

     MPI processes distributed on     1 nodes
     169481 MiB available memory on the printing compute node when the environment starts
 
     Waiting for input...
     Reading input from standard input

     Current dimensions of program PWSCF are:
     Max number of different atomic species (ntypx) = 10
     Max number of k-points (npk) =  40000
     Max angular momentum in pseudopotentials (lmaxx) =  4
     Message from routine setup:
     using ibrav=0 with symmetry is DISCOURAGED, use correct ibrav instead
 
     K-points division:     npool     =       3
     R & G space division:  proc/nbgrp/npool/nimage =      12
     Subspace diagonalization in iterative solution of the eigenvalue problem:
     a serial algorithm will be used

 
     Parallelization info
     --------------------
     sticks:   dense  smooth     PW     G-vecs:    dense   smooth      PW
     Min         114     114     34                 2214     2214     359
     Max         115     115     36                 2217     2217     360
     Sum        1369    1369    421                26589    26589    4315
 
     Using Slab Decomposition
 


     bravais-lattice index     =            0
     lattice parameter (alat)  =       8.4977  a.u.
     unit-cell volume          =     423.6931 (a.u.)^3
     number of atoms/cell      =            6
     number of atomic types    =            2
     number of electrons       =        56.00
     number of Kohn-Sham states=           28
     kinetic-energy cutoff     =      60.0000  Ry
     charge density cutoff     =     240.0000  Ry
     scf convergence threshold =      1.0E-06
     mixing beta               =       0.7000
     number of iterations used =            8  plain     mixing
     Exchange-correlation= PBE
                           (   1   4   3   4   0   0   0)

     celldm(1)=   8.497720  celldm(2)=   0.000000  celldm(3)=   0.000000
     celldm(4)=   0.000000  celldm(5)=   0.000000  celldm(6)=   0.000000

     crystal axes: (cart. coord. in units of alat)
               a(1) = (   1.000000   0.000000   0.000000 )  
               a(2) = (   0.000000   1.000000   0.000000 )  
               a(3) = (   0.000000   0.000000   0.690469 )  

     reciprocal axes: (cart. coord. in units 2 pi/alat)
               b(1) = (  1.000000  0.000000  0.000000 )  
               b(2) = (  0.000000  1.000000  0.000000 )  
               b(3) = (  0.000000  0.000000  1.448291 )  


     PseudoPot. # 1 for Ru read from file:
     ./Ru_ONCV_PBE-1.2.upf
     MD5 check sum: 197966c748556f6a714a34a8c7eb0781
     Pseudo is Norm-conserving, Zval = 16.0
     Generated using ONCVPSP code by D. R. Hamann
     Using radial grid of  602 points,  6 beta functions with: 
                l(1) =   0
                l(2) =   0
                l(3) =   1
                l(4) =   1
                l(5) =   2
                l(6) =   2

     PseudoPot. # 2 for O  read from file:
     ./O_ONCV_PBE-1.2.upf
     MD5 check sum: e36c48deb68f4e355fffe4602be2c42c
     Pseudo is Norm-conserving, Zval =  6.0
     Generated using ONCVPSP code by D. R. Hamann
     Using radial grid of  602 points,  4 beta functions with: 
                l(1) =   0
                l(2) =   0
                l(3) =   1
                l(4) =   1

     atomic species   valence    mass     pseudopotential
        Ru            16.00   101.07000     Ru( 1.00)
        O              6.00    15.99900     O ( 1.00)

     16 Sym. Ops., with inversion, found ( 8 have fractional translation)



   Cartesian axes

     site n.     atom                  positions (alat units)
         1           Ru  tau(   1) = (   0.0000000   0.0000000   0.0000000  )
         2           Ru  tau(   2) = (   0.5000000   0.5000000   0.3452344  )
         3           O   tau(   3) = (   0.3053000   0.3053000   0.0000000  )
         4           O   tau(   4) = (   0.6947000   0.6947000   0.0000000  )
         5           O   tau(   5) = (   0.8053000   0.1947000   0.3452344  )
         6           O   tau(   6) = (   0.1947000   0.8053000   0.3452344  )

     number of k points=    80
                       cart. coord. in units 2pi/alat
        k(    1) = (   0.0000000   0.0000000   0.0000000), wk =   0.0037037
        k(    2) = (   0.0000000   0.0000000   0.0965528), wk =   0.0074074
        k(    3) = (   0.0000000   0.0000000   0.1931055), wk =   0.0074074
        k(    4) = (   0.0000000   0.0000000   0.2896583), wk =   0.0074074
        k(    5) = (   0.0000000   0.0000000   0.3862110), wk =   0.0074074
        k(    6) = (   0.0000000   0.0000000   0.4827638), wk =   0.0074074
        k(    7) = (   0.0000000   0.0000000   0.5793166), wk =   0.0074074
        k(    8) = (   0.0000000   0.0000000   0.6758693), wk =   0.0074074
        k(    9) = (   0.0000000   0.1666667   0.0000000), wk =   0.0148148
        k(   10) = (   0.0000000   0.1666667   0.0965528), wk =   0.0296296
        k(   11) = (   0.0000000   0.1666667   0.1931055), wk =   0.0296296
        k(   12) = (   0.0000000   0.1666667   0.2896583), wk =   0.0296296
        k(   13) = (   0.0000000   0.1666667   0.3862110), wk =   0.0296296
        k(   14) = (   0.0000000   0.1666667   0.4827638), wk =   0.0296296
        k(   15) = (   0.0000000   0.1666667   0.5793166), wk =   0.0296296
        k(   16) = (   0.0000000   0.1666667   0.6758693), wk =   0.0296296
        k(   17) = (   0.0000000   0.3333333   0.0000000), wk =   0.0148148
        k(   18) = (   0.0000000   0.3333333   0.0965528), wk =   0.0296296
        k(   19) = (   0.0000000   0.3333333   0.1931055), wk =   0.0296296
        k(   20) = (   0.0000000   0.3333333   0.2896583), wk =   0.0296296
        k(   21) = (   0.0000000   0.3333333   0.3862110), wk =   0.0296296
        k(   22) = (   0.0000000   0.3333333   0.4827638), wk =   0.0296296
        k(   23) = (   0.0000000   0.3333333   0.5793166), wk =   0.0296296
        k(   24) = (   0.0000000   0.3333333   0.6758693), wk =   0.0296296
        k(   25) = (   0.0000000  -0.5000000   0.0000000), wk =   0.0074074
        k(   26) = (   0.0000000  -0.5000000   0.0965528), wk =   0.0148148
        k(   27) = (   0.0000000  -0.5000000   0.1931055), wk =   0.0148148
        k(   28) = (   0.0000000  -0.5000000   0.2896583), wk =   0.0148148
        k(   29) = (   0.0000000  -0.5000000   0.3862110), wk =   0.0148148
        k(   30) = (   0.0000000  -0.5000000   0.4827638), wk =   0.0148148
        k(   31) = (   0.0000000  -0.5000000   0.5793166), wk =   0.0148148
        k(   32) = (   0.0000000  -0.5000000   0.6758693), wk =   0.0148148
        k(   33) = (   0.1666667   0.1666667   0.0000000), wk =   0.0148148
        k(   34) = (   0.1666667   0.1666667   0.0965528), wk =   0.0296296
        k(   35) = (   0.1666667   0.1666667   0.1931055), wk =   0.0296296
        k(   36) = (   0.1666667   0.1666667   0.2896583), wk =   0.0296296
        k(   37) = (   0.1666667   0.1666667   0.3862110), wk =   0.0296296
        k(   38) = (   0.1666667   0.1666667   0.4827638), wk =   0.0296296
        k(   39) = (   0.1666667   0.1666667   0.5793166), wk =   0.0296296
        k(   40) = (   0.1666667   0.1666667   0.6758693), wk =   0.0296296
        k(   41) = (   0.1666667   0.3333333   0.0000000), wk =   0.0296296
        k(   42) = (   0.1666667   0.3333333   0.0965528), wk =   0.0592593
        k(   43) = (   0.1666667   0.3333333   0.1931055), wk =   0.0592593
        k(   44) = (   0.1666667   0.3333333   0.2896583), wk =   0.0592593
        k(   45) = (   0.1666667   0.3333333   0.3862110), wk =   0.0592593
        k(   46) = (   0.1666667   0.3333333   0.4827638), wk =   0.0592593
        k(   47) = (   0.1666667   0.3333333   0.5793166), wk =   0.0592593
        k(   48) = (   0.1666667   0.3333333   0.6758693), wk =   0.0592593
        k(   49) = (   0.1666667  -0.5000000   0.0000000), wk =   0.0148148
        k(   50) = (   0.1666667  -0.5000000   0.0965528), wk =   0.0296296
        k(   51) = (   0.1666667  -0.5000000   0.1931055), wk =   0.0296296
        k(   52) = (   0.1666667  -0.5000000   0.2896583), wk =   0.0296296
        k(   53) = (   0.1666667  -0.5000000   0.3862110), wk =   0.0296296
        k(   54) = (   0.1666667  -0.5000000   0.4827638), wk =   0.0296296
        k(   55) = (   0.1666667  -0.5000000   0.5793166), wk =   0.0296296
        k(   56) = (   0.1666667  -0.5000000   0.6758693), wk =   0.0296296
        k(   57) = (   0.3333333   0.3333333   0.0000000), wk =   0.0148148
        k(   58) = (   0.3333333   0.3333333   0.0965528), wk =   0.0296296
        k(   59) = (   0.3333333   0.3333333   0.1931055), wk =   0.0296296
        k(   60) = (   0.3333333   0.3333333   0.2896583), wk =   0.0296296
        k(   61) = (   0.3333333   0.3333333   0.3862110), wk =   0.0296296
        k(   62) = (   0.3333333   0.3333333   0.4827638), wk =   0.0296296
        k(   63) = (   0.3333333   0.3333333   0.5793166), wk =   0.0296296
        k(   64) = (   0.3333333   0.3333333   0.6758693), wk =   0.0296296
        k(   65) = (   0.3333333  -0.5000000   0.0000000), wk =   0.0148148
        k(   66) = (   0.3333333  -0.5000000   0.0965528), wk =   0.0296296
        k(   67) = (   0.3333333  -0.5000000   0.1931055), wk =   0.0296296
        k(   68) = (   0.3333333  -0.5000000   0.2896583), wk =   0.0296296
        k(   69) = (   0.3333333  -0.5000000   0.3862110), wk =   0.0296296
        k(   70) = (   0.3333333  -0.5000000   0.4827638), wk =   0.0296296
        k(   71) = (   0.3333333  -0.5000000   0.5793166), wk =   0.0296296
        k(   72) = (   0.3333333  -0.5000000   0.6758693), wk =   0.0296296
        k(   73) = (  -0.5000000  -0.5000000   0.0000000), wk =   0.0037037
        k(   74) = (  -0.5000000  -0.5000000   0.0965528), wk =   0.0074074
        k(   75) = (  -0.5000000  -0.5000000   0.1931055), wk =   0.0074074
        k(   76) = (  -0.5000000  -0.5000000   0.2896583), wk =   0.0074074
        k(   77) = (  -0.5000000  -0.5000000   0.3862110), wk =   0.0074074
        k(   78) = (  -0.5000000  -0.5000000   0.4827638), wk =   0.0074074
        k(   79) = (  -0.5000000  -0.5000000   0.5793166), wk =   0.0074074
        k(   80) = (  -0.5000000  -0.5000000   0.6758693), wk =   0.0074074

     Dense  grid:    26589 G-vectors     FFT dimensions: (  48,  48,  30)

     Estimated max dynamical RAM per process >       8.20 MB

     Estimated total dynamical RAM >     282.18 MB

     Initial potential from superposition of free atoms

     starting charge      55.8739, renormalised to      56.0000
     Starting wfcs are random

     total cpu time spent up to now is        0.1 secs

     per-process dynamical memory:   114.0 Mb

     Self-consistent Calculation

     iteration #  1     ecut=    60.00 Ry     beta= 0.70
     Davidson diagonalization with overlap
     ethr =  1.00E-02,  avg # of iterations = 10.2

     total cpu time spent up to now is        0.9 secs

     total energy              =    -504.24087292 Ry
     estimated scf accuracy    <       0.94674723 Ry

     iteration #  2     ecut=    60.00 Ry     beta= 0.70
     Davidson diagonalization with overlap
     ethr =  1.69E-03,  avg # of iterations =  6.5

     total cpu time spent up to now is        1.5 secs

     total energy              =    -504.19709266 Ry
     estimated scf accuracy    <       4.11246061 Ry

     iteration #  3     ecut=    60.00 Ry     beta= 0.70
     Davidson diagonalization with overlap
     ethr =  1.69E-03,  avg # of iterations =  6.0

     total cpu time spent up to now is        1.9 secs

     total energy              =    -504.88389975 Ry
     estimated scf accuracy    <       0.02494948 Ry

     iteration #  4     ecut=    60.00 Ry     beta= 0.70
     Davidson diagonalization with overlap
     ethr =  4.46E-05,  avg # of iterations =  4.5

     total cpu time spent up to now is        2.3 secs

     total energy              =    -504.89224269 Ry
     estimated scf accuracy    <       0.01386587 Ry

     iteration #  5     ecut=    60.00 Ry     beta= 0.70
     Davidson diagonalization with overlap
     ethr =  2.48E-05,  avg # of iterations =  5.1

     total cpu time spent up to now is        2.7 secs

     total energy              =    -504.89637161 Ry
     estimated scf accuracy    <       0.00089482 Ry

     iteration #  6     ecut=    60.00 Ry     beta= 0.70
     Davidson diagonalization with overlap
     ethr =  1.60E-06,  avg # of iterations =  5.6

     total cpu time spent up to now is        3.1 secs

     total energy              =    -504.89669544 Ry
     estimated scf accuracy    <       0.00007453 Ry

     iteration #  7     ecut=    60.00 Ry     beta= 0.70
     Davidson diagonalization with overlap
     ethr =  1.33E-07,  avg # of iterations =  5.8

     total cpu time spent up to now is        3.5 secs

     total energy              =    -504.89672231 Ry
     estimated scf accuracy    <       0.00000541 Ry

     iteration #  8     ecut=    60.00 Ry     beta= 0.70
     Davidson diagonalization with overlap
     ethr =  9.66E-09,  avg # of iterations =  7.3

     total cpu time spent up to now is        4.0 secs

     End of self-consistent calculation

          k = 0.0000 0.0000 0.0000 (  3363 PWs)   bands (ev):

   -60.3161 -60.3093 -30.5980 -30.5980 -30.1591 -30.1591 -30.1568 -30.1325
    -7.0455  -6.0120  -5.0460  -5.0460   4.7058   4.8473   5.9628   6.3771
     6.3771   8.9420   8.9585   8.9585  10.4149  10.8461  10.8461  11.3788
    11.6482  11.7558  11.8449  11.8449

          k = 0.0000 0.0000 0.0966 (  3359 PWs)   bands (ev):

   -60.3155 -60.3089 -30.5973 -30.5973 -30.1646 -30.1579 -30.1579 -30.1408
    -7.0056  -5.9904  -5.0698  -5.0698   4.7525   4.9081   6.0091   6.3903
     6.3903   8.7945   9.0103   9.0103  10.1564  10.6181  10.6181  11.3387
    11.7488  11.8412  12.0678  12.0678

          k = 0.0000 0.0000 0.1931 (  3351 PWs)   bands (ev):

   -60.3140 -60.3078 -30.5955 -30.5955 -30.1863 -30.1643 -30.1544 -30.1544
    -6.8922  -5.9289  -5.1366  -5.1366   4.8821   5.0862   6.1495   6.4341
     6.4341   8.4293   9.1488   9.1488   9.6178  10.1874  10.1874  11.1538
    11.7890  12.1811  12.3421  12.4847

          k = 0.0000 0.0000 0.2897 (  3327 PWs)   bands (ev):

   -60.3118 -60.3063 -30.5927 -30.5927 -30.2181 -30.1987 -30.1493 -30.1493
    -6.7151  -5.8437  -5.2337  -5.2337   5.0791   5.3571   6.3793   6.5159
     6.5159   7.9604   9.0391   9.3153   9.3153   9.7564   9.7564  10.8055
    11.9182  12.3603  12.4890  12.9196

          k = 0.0000 0.0000 0.3862 (  3318 PWs)   bands (ev):

   -60.3091 -60.3046 -30.5896 -30.5896 -30.2542 -30.2383 -30.1434 -30.1434
    -6.4975  -5.7573  -5.3432  -5.3432   5.3112   5.6730   6.6362   6.6362
     6.6932   7.5149   8.4979   9.2020   9.2020   9.6289   9.6289  10.3374
    12.1184  12.3585  12.7119  13.3200

          k = 0.0000 0.0000 0.4828 (  3330 PWs)   bands (ev):

   -60.3065 -60.3031 -30.5865 -30.5865 -30.2881 -30.2763 -30.1377 -30.1377
    -6.2639  -5.6965  -5.4464  -5.4464   5.5374   5.9412   6.7885   6.7885
     7.0866   7.2067   8.0492   8.8353   8.8353   9.7629   9.7629   9.7949
    12.3618  12.3733  12.8213  13.6577

          k = 0.0000 0.0000 0.5793 (  3334 PWs)   bands (ev):

   -60.3042 -60.3021 -30.5842 -30.5842 -30.3137 -30.3065 -30.1333 -30.1333
    -6.0424  -5.6856  -5.5248  -5.5248   5.7222   6.0315   6.9511   6.9511
     7.1503   7.5507   7.7222   8.5170   8.5170   9.2177   9.8669   9.8669
    12.4076  12.6724  12.8019  13.6963

          k = 0.0000 0.0000 0.6759 (  3326 PWs)   bands (ev):

   -60.3026 -60.3019 -30.5829 -30.5829 -30.3266 -30.3242 -30.1308 -30.1308
    -5.8599  -5.7377  -5.5674  -5.5674   5.8568   5.9642   7.0703   7.0703
     7.2934   7.4870   8.0727   8.3223   8.3223   8.6357   9.9189   9.9189
    12.5195  12.6757  13.0028  13.3488

          k = 0.0000 0.1667 0.0000 (  3327 PWs)   bands (ev):

   -60.3156 -60.3097 -30.5974 -30.5973 -30.1601 -30.1601 -30.1552 -30.1341
    -6.9416  -5.9854  -5.1751  -5.1073   4.9116   5.0842   6.1563   6.4012
     6.4140   8.5883   8.7063   8.8570  10.0149  10.1738  10.5258  11.2707
    11.9381  12.0708  12.1686  12.2332

          k = 0.0000 0.1667 0.0966 (  3331 PWs)   bands (ev):

   -60.3151 -60.3093 -30.5968 -30.5967 -30.1633 -30.1590 -30.1585 -30.1422
    -6.9041  -5.9619  -5.1971  -5.1300   4.9550   5.1373   6.1704   6.4098
     6.4648   8.6312   8.6427   8.8172   9.7365  10.2026  10.4154  11.2275
    11.9417  12.1354  12.1809  12.4508

          k = 0.0000 0.1667 0.1931 (  3333 PWs)   bands (ev):

   -60.3136 -60.3082 -30.5951 -30.5950 -30.1849 -30.1666 -30.1550 -30.1543
    -6.7956  -5.8976  -5.2584  -5.1921   5.0800   5.2904   6.2245   6.4425
     6.6069   8.2665   8.6855   8.9495   9.3243  10.0556  10.1259  11.1214
    11.8108  12.4012  12.4457  12.6857

          k = 0.0000 0.1667 0.2897 (  3330 PWs)   bands (ev):

   -60.3114 -60.3066 -30.5926 -30.5925 -30.2167 -30.2003 -30.1497 -30.1495
    -6.6286  -5.8122  -5.3432  -5.2806   5.2643   5.5160   6.3298   6.5125
     6.8365   7.7962   8.4408   9.1385   9.2299   9.7591   9.7604  10.9151
    11.7625  12.6264  12.6742  12.8493

          k = 0.0000 0.1667 0.3862 (  3335 PWs)   bands (ev):

   -60.3088 -60.3049 -30.5898 -30.5897 -30.2529 -30.2393 -30.1437 -30.1435
    -6.4271  -5.7374  -5.4244  -5.3764   5.4729   5.7695   6.4594   6.6229
     7.1251   7.4263   8.0022   9.1916   9.3507   9.4386   9.5032  10.5461
    11.8803  12.6023  12.8414  13.1293

          k = 0.0000 0.1667 0.4828 (  3322 PWs)   bands (ev):

   -60.3062 -60.3033 -30.5871 -30.5870 -30.2868 -30.2768 -30.1378 -30.1377
    -6.2189  -5.7217  -5.4611  -5.4571   5.6597   5.9903   6.4693   6.7439
     7.2700   7.5792   7.6617   8.8729   9.0482   9.5439   9.6019  10.0775
    12.1056  12.5427  12.8879  13.2929

          k = 0.0000 0.1667 0.5793 (  3327 PWs)   bands (ev):

   -60.3040 -60.3022 -30.5850 -30.5850 -30.3126 -30.3065 -30.1332 -30.1332
    -6.0397  -5.7684  -5.5014  -5.4616   5.7883   6.0565   6.4387   6.7816
     7.5049   7.5511   8.0017   8.5362   8.7270   9.4827   9.7069   9.7296
    12.3834  12.5119  12.8197  13.2207

          k = 0.0000 0.1667 0.6759 (  3338 PWs)   bands (ev):

   -60.3025 -60.3019 -30.5839 -30.5839 -30.3257 -30.3237 -30.1307 -30.1307
    -5.9150  -5.8335  -5.4993  -5.4739   5.8695   5.9575   6.5627   6.6976
     7.6593   7.7213   8.3083   8.4449   8.4986   8.9887   9.7541   9.7577
    12.5572  12.6723  12.6923  12.9796

          k = 0.0000 0.3333 0.0000 (  3319 PWs)   bands (ev):

   -60.3143 -60.3109 -30.5961 -30.5961 -30.1621 -30.1620 -30.1507 -30.1386
    -6.6544  -5.9841  -5.4290  -5.2660   5.4485   5.6320   6.4574   6.4830
     6.7486   7.8716   7.9700   8.7720   8.9799   9.3826  10.3873  10.9632
    12.3761  12.5474  12.7519  12.7964

          k = 0.0000 0.3333 0.0966 (  3316 PWs)   bands (ev):

   -60.3138 -60.3105 -30.5957 -30.5956 -30.1622 -30.1613 -30.1570 -30.1461
    -6.6203  -5.9547  -5.4508  -5.2843   5.4921   5.6761   6.4258   6.4454
     6.8564   7.9282   8.0351   8.5802   8.8457   9.3783  10.4099  10.9593
    12.3612  12.5011  12.6918  12.9106

          k = 0.0000 0.3333 0.1931 (  3322 PWs)   bands (ev):

   -60.3125 -60.3093 -30.5943 -30.5942 -30.1813 -30.1715 -30.1560 -30.1549
    -6.5245  -5.8726  -5.5117  -5.3346   5.6118   5.7880   6.3855   6.4382
     7.0552   7.9778   8.1457   8.2148   8.5818   9.4034  10.3606  10.8892
    12.2605  12.5373  12.7664  13.0503

          k = 0.0000 0.3333 0.2897 (  3321 PWs)   bands (ev):

   -60.3104 -60.3076 -30.5923 -30.5922 -30.2132 -30.2041 -30.1506 -30.1502
    -6.3833  -5.7529  -5.5997  -5.4020   5.7652   5.9135   6.4452   6.4904
     7.2347   7.6995   7.7569   8.4355   8.6038   9.4313  10.1787  10.7577
    12.0468  12.6597  12.9587  13.0879

          k = 0.0000 0.3333 0.3862 (  3325 PWs)   bands (ev):

   -60.3080 -60.3057 -30.5901 -30.5900 -30.2496 -30.2420 -30.1441 -30.1439
    -6.2278  -5.7078  -5.6110  -5.4612   5.8900   6.0224   6.4564   6.6125
     7.2717   7.3165   7.7786   8.6417   8.7905   9.3814   9.9382  10.6400
    11.8193  12.7244  13.0108  13.0608

          k = 0.0000 0.3333 0.4828 (  3340 PWs)   bands (ev):

   -60.3056 -60.3039 -30.5881 -30.5880 -30.2839 -30.2783 -30.1379 -30.1378
    -6.0988  -5.8050  -5.4896  -5.4811   5.9318   6.1257   6.2282   6.6228
     7.2313   7.5132   8.0147   8.7970   8.9605   9.2357   9.7280  10.4866
    11.7052  12.6423  12.8628  13.0049

          k = 0.0000 0.3333 0.5793 (  3333 PWs)   bands (ev):

   -60.3036 -60.3026 -30.5866 -30.5865 -30.3102 -30.3068 -30.1331 -30.1330
    -6.0234  -5.8875  -5.4471  -5.4025   5.8743   5.9578   6.2553   6.5099
     7.4777   7.8981   8.1405   8.9401   8.9830   9.1679   9.6056  10.2190
    11.7742  12.4475  12.7104  12.8466

          k = 0.0000 0.3333 0.6759 (  3333 PWs)   bands (ev):

   -60.3024 -60.3020 -30.5859 -30.5858 -30.3239 -30.3227 -30.1304 -30.1304
    -5.9851  -5.9468  -5.3935  -5.3705   5.7966   5.8106   6.3595   6.4381
     7.7721   8.0081   8.3223   8.6688   9.2051   9.2386   9.6221   9.8833
    11.9651  12.2056  12.6330  12.6881

          k = 0.0000-0.5000 0.0000 (  3312 PWs)   bands (ev):

   -60.3126 -60.3126 -30.5955 -30.5955 -30.1631 -30.1631 -30.1446 -30.1446
    -6.2617  -6.2617  -5.4351  -5.4351   5.9406   5.9406   6.5049   6.5049
     7.4320   7.4320   7.7465   7.7465   8.9273   8.9273  10.6035  10.6035
    12.6966  12.6966  12.8797  12.8797

          k = 0.0000-0.5000 0.0966 (  3318 PWs)   bands (ev):

   -60.3122 -60.3122 -30.5950 -30.5950 -30.1626 -30.1626 -30.1517 -30.1517
    -6.2314  -6.2314  -5.4527  -5.4527   6.0025   6.0025   6.4404   6.4404
     7.4988   7.4988   7.7848   7.7848   8.7796   8.7796  10.6468  10.6468
    12.5967  12.5967  13.0129  13.0129

          k = 0.0000-0.5000 0.1931 (  3322 PWs)   bands (ev):

   -60.3109 -60.3109 -30.5938 -30.5938 -30.1766 -30.1766 -30.1560 -30.1560
    -6.1478  -6.1478  -5.4987  -5.4987   6.1831   6.1831   6.3255   6.3255
     7.4795   7.4795   7.9488   7.9488   8.5545   8.5545  10.6507  10.6507
    12.5249  12.5249  13.1419  13.1419

          k = 0.0000-0.5000 0.2897 (  3336 PWs)   bands (ev):

   -60.3090 -60.3090 -30.5921 -30.5921 -30.2087 -30.2087 -30.1508 -30.1508
    -6.0363  -6.0363  -5.5520  -5.5520   6.2410   6.2410   6.4553   6.4553
     7.1978   7.1978   8.1270   8.1270   8.6040   8.6040  10.5276  10.5276
    12.4462  12.4462  13.1962  13.1962

          k = 0.0000-0.5000 0.3862 (  3324 PWs)   bands (ev):

   -60.3068 -60.3068 -30.5902 -30.5902 -30.2457 -30.2457 -30.1442 -30.1442
    -5.9504  -5.9504  -5.5644  -5.5644   6.2009   6.2009   6.5979   6.5979
     7.0067   7.0067   8.2666   8.2666   8.8466   8.8466  10.3523  10.3523
    12.2609  12.2609  13.1732  13.1732

          k = 0.0000-0.5000 0.4828 (  3334 PWs)   bands (ev):

   -60.3047 -60.3047 -30.5885 -30.5885 -30.2808 -30.2808 -30.1379 -30.1379
    -5.9425  -5.9425  -5.4976  -5.4976   6.1026   6.1026   6.3806   6.3806
     7.3423   7.3423   8.4003   8.4003   9.0431   9.0431  10.2253  10.2253
    11.9963  11.9963  13.0284  13.0284

          k = 0.0000-0.5000 0.5793 (  3330 PWs)   bands (ev):

   -60.3031 -60.3031 -30.5874 -30.5874 -30.3079 -30.3079 -30.1330 -30.1330
    -5.9754  -5.9754  -5.4019  -5.4019   5.8600   5.8600   6.3645   6.3645
     7.7131   7.7131   8.5378   8.5378   9.0758   9.0758  10.2323  10.2323
    11.7203  11.7203  12.8235  12.8235

          k = 0.0000-0.5000 0.6759 (  3330 PWs)   bands (ev):

   -60.3022 -60.3022 -30.5868 -30.5868 -30.3226 -30.3226 -30.1303 -30.1303
    -6.0008  -6.0008  -5.3406  -5.3406   5.7034   5.7034   6.3899   6.3899
     7.9422   7.9422   8.7039   8.7039   8.9475   8.9475  10.3229  10.3229
    11.5210  11.5210  12.6751  12.6751

          k = 0.1667 0.1667 0.0000 (  3329 PWs)   bands (ev):

   -60.3152 -60.3101 -30.5985 -30.5958 -30.1621 -30.1591 -30.1538 -30.1355
    -6.8586  -5.9674  -5.3370  -5.0830   4.7705   5.5771   6.3319   6.3545
     6.4841   7.9512   8.7923   8.8735   9.9503   9.9647  10.3547  11.1484
    11.8076  11.8540  12.5167  12.6668

          k = 0.1667 0.1667 0.0966 (  3332 PWs)   bands (ev):

   -60.3147 -60.3097 -30.5979 -30.5954 -30.1629 -30.1596 -30.1579 -30.1435
    -6.8223  -5.9424  -5.3564  -5.1066   4.8221   5.6178   6.2482   6.4915
     6.4954   8.0186   8.5883   8.9196   9.6117  10.1647  10.2838  11.0515
    11.8878  11.8891  12.6078  12.6157

          k = 0.1667 0.1667 0.1931 (  3327 PWs)   bands (ev):

   -60.3132 -60.3086 -30.5960 -30.5940 -30.1838 -30.1681 -30.1552 -30.1545
    -6.7168  -5.8724  -5.4109  -5.1721   4.9710   5.7237   6.2128   6.5398
     6.7040   8.0158   8.3168   9.0412   9.1328  10.0390  10.1969  10.9612
    11.8259  12.0913  12.6722  12.8819

          k = 0.1667 0.1667 0.2897 (  3344 PWs)   bands (ev):

   -60.3111 -60.3069 -30.5932 -30.5920 -30.2157 -30.2014 -30.1503 -30.1494
    -6.5568  -5.7810  -5.4814  -5.2680   5.1969   5.8541   6.2352   6.6747
     6.9699   7.5371   8.4957   8.6021   9.1733   9.7020  10.0544  10.8969
    11.7142  12.3274  12.8179  13.1444

          k = 0.1667 0.1667 0.3862 (  3330 PWs)   bands (ev):

   -60.3085 -60.3051 -30.5899 -30.5898 -30.2520 -30.2401 -30.1440 -30.1435
    -6.3658  -5.7185  -5.5173  -5.3748   5.4672   5.9747   6.3128   6.7505
     7.2403   7.2964   8.0667   8.7313   9.0935   9.5687   9.8265  10.6691
    11.7492  12.4906  12.9700  13.2112

          k = 0.1667 0.1667 0.4828 (  3337 PWs)   bands (ev):

   -60.3060 -60.3035 -30.5879 -30.5869 -30.2862 -30.2771 -30.1379 -30.1378
    -6.1773  -5.7407  -5.4759  -5.4696   5.7139   6.0805   6.4281   6.4640
     7.4305   7.6761   7.7141   8.7819   8.8647   9.5972   9.6641  10.2720
    11.9343  12.5483  12.9600  13.3831

          k = 0.1667 0.1667 0.5793 (  3331 PWs)   bands (ev):

   -60.3039 -60.3023 -30.5864 -30.5845 -30.3124 -30.3062 -30.1335 -30.1329
    -6.0361  -5.7702  -5.5533  -5.4073   5.8266   6.1138   6.3360   6.5535
     7.2569   7.9894   8.0962   8.5037   8.8672   9.4321   9.6551   9.9068
    12.1725  12.5542  12.8332  13.2838

          k = 0.1667 0.1667 0.6759 (  3325 PWs)   bands (ev):

   -60.3025 -60.3020 -30.5857 -30.5832 -30.3263 -30.3224 -30.1310 -30.1303
    -5.9800  -5.7614  -5.5955  -5.3743   5.7893   6.0915   6.4218   6.6404
     7.0978   8.3107   8.3501   8.5348   8.7266   9.2822   9.3629   9.8875
    12.3739  12.5833  12.6847  13.0873

          k = 0.1667 0.3333 0.0000 (  3320 PWs)   bands (ev):

   -60.3141 -60.3112 -30.5982 -30.5955 -30.1631 -30.1601 -30.1499 -30.1394
    -6.6283  -6.0282  -5.4742  -5.1868   4.9879   5.9860   6.3706   6.5046
     6.8771   7.4811   8.4410   8.8122   9.3699   9.5755  10.0454  10.7927
    12.1346  12.1451  12.7797  12.8963

          k = 0.1667 0.3333 0.0966 (  3323 PWs)   bands (ev):

   -60.3136 -60.3107 -30.5976 -30.5950 -30.1629 -30.1593 -30.1565 -30.1470
    -6.5948  -5.9985  -5.4938  -5.2083   5.0369   6.0486   6.3291   6.4413
     6.9679   7.6028   8.3750   8.6517   9.3006   9.5393  10.1079  10.7401
    12.1468  12.2052  12.7247  13.0391

          k = 0.1667 0.3333 0.1931 (  3328 PWs)   bands (ev):

   -60.3122 -60.3095 -30.5958 -30.5938 -30.1807 -30.1716 -30.1560 -30.1547
    -6.4987  -5.9149  -5.5493  -5.2675   5.1775   6.2211   6.2700   6.3363
     7.1683   7.8156   8.0305   8.5290   9.0568   9.5613  10.1225  10.6429
    12.1671  12.3056  12.7543  13.1774

          k = 0.1667 0.3333 0.2897 (  3319 PWs)   bands (ev):

   -60.3102 -60.3078 -30.5932 -30.5921 -30.2127 -30.2044 -30.1508 -30.1497
    -6.3567  -5.7955  -5.6236  -5.3506   5.3890   6.2275   6.2598   6.5189
     7.2644   7.5586   8.1677   8.2723   9.0473   9.4768  10.0326  10.5952
    12.0541  12.4599  12.8335  13.2806

          k = 0.1667 0.3333 0.3862 (  3325 PWs)   bands (ev):

   -60.3078 -60.3058 -30.5903 -30.5902 -30.2494 -30.2423 -30.1442 -30.1438
    -6.1978  -5.7433  -5.6209  -5.4377   5.6302   6.1892   6.2999   6.6545
     7.0261   7.7122   7.8948   8.5055   9.1786   9.2322   9.9410  10.5950
    11.8626  12.6004  12.8710  13.2385

          k = 0.1667 0.3333 0.4828 (  3331 PWs)   bands (ev):

   -60.3055 -60.3040 -30.5885 -30.5875 -30.2841 -30.2785 -30.1380 -30.1379
    -6.0653  -5.8051  -5.5041  -5.4938   5.8411   6.1319   6.3376   6.3914
     7.1687   7.6892   8.1225   8.6840   8.9401   9.3388   9.8344  10.5434
    11.7407  12.6483  12.8207  13.0674

          k = 0.1667 0.3333 0.5793 (  3331 PWs)   bands (ev):

   -60.3036 -60.3027 -30.5874 -30.5854 -30.3109 -30.3065 -30.1335 -30.1330
    -6.0074  -5.8391  -5.5193  -5.3919   5.8585   6.0255   6.2881   6.4182
     7.1665   7.9996   8.3179   8.7467   8.8058   9.4475   9.7583  10.3444
    11.7737  12.6024  12.7008  12.8493

          k = 0.1667 0.3333 0.6759 (  3329 PWs)   bands (ev):

   -60.3024 -60.3021 -30.5868 -30.5843 -30.3254 -30.3218 -30.1310 -30.1303
    -6.0068  -5.8466  -5.5052  -5.3354   5.7189   6.0386   6.3341   6.4072
     7.2048   8.1927   8.4331   8.7094   8.8536   9.5381   9.7290  10.1109
    11.8711  12.4933  12.6385  12.6867

          k = 0.1667-0.5000 0.0000 (  3326 PWs)   bands (ev):

   -60.3126 -60.3126 -30.5967 -30.5967 -30.1621 -30.1621 -30.1446 -30.1446
    -6.3093  -6.3093  -5.3679  -5.3679   5.5303   5.5303   6.4432   6.4432
     7.5695   7.5695   8.3181   8.3181   9.1016   9.1016  10.3315  10.3315
    12.5538  12.5538  12.6493  12.6493

          k = 0.1667-0.5000 0.0966 (  3322 PWs)   bands (ev):

   -60.3122 -60.3122 -30.5961 -30.5961 -30.1615 -30.1615 -30.1518 -30.1518
    -6.2789  -6.2789  -5.3860  -5.3860   5.5781   5.5781   6.4098   6.4098
     7.6291   7.6291   8.3520   8.3520   8.9368   8.9368  10.3736  10.3736
    12.4604  12.4604  12.8104  12.8104

          k = 0.1667-0.5000 0.1931 (  3324 PWs)   bands (ev):

   -60.3109 -60.3109 -30.5947 -30.5947 -30.1762 -30.1762 -30.1556 -30.1556
    -6.1942  -6.1942  -5.4353  -5.4353   5.7046   5.7046   6.3607   6.3607
     7.6950   7.6950   8.3910   8.3910   8.7127   8.7127  10.3724  10.3724
    12.4462  12.4462  12.9796  12.9796

          k = 0.1667-0.5000 0.2897 (  3316 PWs)   bands (ev):

   -60.3090 -60.3090 -30.5927 -30.5927 -30.2086 -30.2086 -30.1505 -30.1505
    -6.0762  -6.0762  -5.4974  -5.4974   5.8589   5.8589   6.3766   6.3766
     7.5178   7.5178   8.4042   8.4042   8.7927   8.7927  10.2833  10.2833
    12.4547  12.4547  13.0549  13.0549

          k = 0.1667-0.5000 0.3862 (  3322 PWs)   bands (ev):

   -60.3068 -60.3068 -30.5904 -30.5904 -30.2458 -30.2458 -30.1441 -30.1441
    -5.9673  -5.9673  -5.5383  -5.5383   5.9634   5.9634   6.4493   6.4493
     7.2500   7.2500   8.5262   8.5262   8.9335   8.9335  10.2084  10.2084
    12.3497  12.3497  13.0349  13.0349

          k = 0.1667-0.5000 0.4828 (  3320 PWs)   bands (ev):

   -60.3047 -60.3047 -30.5884 -30.5884 -30.2811 -30.2811 -30.1380 -30.1380
    -5.9234  -5.9234  -5.5114  -5.5114   5.9806   5.9806   6.4062   6.4062
     7.2752   7.2752   8.6174   8.6174   9.0301   9.0301  10.2298  10.2298
    12.1394  12.1394  12.9291  12.9291

          k = 0.1667-0.5000 0.5793 (  3338 PWs)   bands (ev):

   -60.3031 -60.3031 -30.5869 -30.5869 -30.3084 -30.3084 -30.1332 -30.1332
    -5.9382  -5.9382  -5.4387  -5.4387   5.8823   5.8823   6.3564   6.3564
     7.5070   7.5070   8.5853   8.5853   9.1392   9.1392  10.3121  10.3121
    11.9106  11.9106  12.7812  12.7812

          k = 0.1667-0.5000 0.6759 (  3336 PWs)   bands (ev):

   -60.3022 -60.3022 -30.5861 -30.5861 -30.3233 -30.3233 -30.1306 -30.1306
    -5.9574  -5.9574  -5.3856  -5.3856   5.7800   5.7800   6.3659   6.3659
     7.6946   7.6946   8.5155   8.5155   9.2244   9.2244  10.3825  10.3825
    11.7571  11.7571  12.6740  12.6740

          k = 0.3333 0.3333 0.0000 (  3331 PWs)   bands (ev):

   -60.3135 -60.3118 -30.5996 -30.5969 -30.1620 -30.1591 -30.1477 -30.1416
    -6.5426  -6.1911  -5.3978  -5.1559   4.7825   5.5407   6.3105   6.4301
     7.3195   8.0500   8.7094   9.0710   9.3944   9.7070   9.7508  10.5447
    11.8016  11.8733  12.5699  12.6591

          k = 0.3333 0.3333 0.0966 (  3338 PWs)   bands (ev):

   -60.3130 -60.3113 -30.5989 -30.5964 -30.1616 -30.1579 -30.1549 -30.1494
    -6.5096  -6.1619  -5.4164  -5.1790   4.8345   5.5882   6.2732   6.3993
     7.4029   8.1500   8.7422   8.7435   9.4226   9.7259   9.7560  10.3899
    11.8656  11.9878  12.5567  12.7830

          k = 0.3333 0.3333 0.1931 (  3325 PWs)   bands (ev):

   -60.3117 -60.3101 -30.5969 -30.5950 -30.1786 -30.1728 -30.1556 -30.1545
    -6.4155  -6.0795  -5.4663  -5.2418   4.9858   5.7169   6.2062   6.3517
     7.6126   8.2086   8.3941   8.8408   9.0714   9.7716   9.8719  10.0815
    12.0285  12.1845  12.6372  12.9620

          k = 0.3333 0.3333 0.2897 (  3314 PWs)   bands (ev):

   -60.3097 -60.3083 -30.5940 -30.5929 -30.2110 -30.2058 -30.1505 -30.1495
    -6.2753  -5.9650  -5.5302  -5.3331   5.2195   5.8703   6.1596   6.3653
     7.6840   7.8875   8.4450   8.7791   8.9707   9.6390   9.7498  10.1557
    12.2438  12.2668  12.7692  13.0825

          k = 0.3333 0.3333 0.3862 (  3328 PWs)   bands (ev):

   -60.3074 -60.3062 -30.5907 -30.5906 -30.2482 -30.2436 -30.1442 -30.1437
    -6.1154  -5.8629  -5.5681  -5.4373   5.5070   5.9662   6.1531   6.4436
     7.2834   8.0035   8.1825   8.8500   9.0349   9.3865   9.7747  10.3748
    12.1803  12.4463  12.8863  13.1187

          k = 0.3333 0.3333 0.4828 (  3321 PWs)   bands (ev):

   -60.3052 -60.3043 -30.5885 -30.5875 -30.2835 -30.2795 -30.1382 -30.1381
    -5.9792  -5.8211  -5.5344  -5.5221   5.8061   5.9806   6.1850   6.4162
     7.1389   7.6794   8.4263   8.7681   8.9133   9.4368   9.9179  10.5337
    12.0255  12.5785  12.8923  13.1684

          k = 0.3333 0.3333 0.5793 (  3317 PWs)   bands (ev):

   -60.3034 -60.3028 -30.5870 -30.5851 -30.3110 -30.3073 -30.1339 -30.1333
    -5.9443  -5.7601  -5.6093  -5.4370   5.8699   6.0961   6.2343   6.3601
     6.9776   7.7237   8.4224   8.6054   8.9983   9.5565  10.0683  10.5604
    11.9221  12.6345  12.7802  12.9774

          k = 0.3333 0.3333 0.6759 (  3322 PWs)   bands (ev):

   -60.3023 -60.3021 -30.5862 -30.5837 -30.3260 -30.3224 -30.1315 -30.1307
    -5.9579  -5.7013  -5.6499  -5.3818   5.7751   6.2710   6.2762   6.3601
     6.8033   7.8950   8.3292   8.4671   9.1749   9.6253  10.1501  10.5027
    11.8983  12.6495  12.6823  12.8337

          k = 0.3333-0.5000 0.0000 (  3340 PWs)   bands (ev):

   -60.3126 -60.3126 -30.5990 -30.5990 -30.1601 -30.1601 -30.1446 -30.1446
    -6.3892  -6.3892  -5.2475  -5.2475   4.9934   4.9934   6.3351   6.3351
     7.9932   7.9932   9.0299   9.0299   9.4898   9.4898   9.9612   9.9612
    12.1338  12.1338  12.1620  12.1620

          k = 0.3333-0.5000 0.0966 (  3328 PWs)   bands (ev):

   -60.3122 -60.3122 -30.5984 -30.5984 -30.1592 -30.1592 -30.1522 -30.1522
    -6.3577  -6.3577  -5.2679  -5.2679   5.0437   5.0437   6.3073   6.3073
     8.0587   8.0587   9.0784   9.0784   9.2963   9.2963   9.9437   9.9437
    12.1213  12.1214  12.3194  12.3194

          k = 0.3333-0.5000 0.1931 (  3312 PWs)   bands (ev):

   -60.3109 -60.3109 -30.5965 -30.5965 -30.1755 -30.1755 -30.1549 -30.1549
    -6.2692  -6.2692  -5.3249  -5.3249   5.1870   5.1870   6.2504   6.2504
     8.1912   8.1912   8.8577   8.8577   9.2796   9.2796   9.8035   9.8035
    12.2573  12.2573  12.5296  12.5296

          k = 0.3333-0.5000 0.2897 (  3310 PWs)   bands (ev):

   -60.3090 -60.3090 -30.5939 -30.5939 -30.2084 -30.2084 -30.1499 -30.1499
    -6.1400  -6.1400  -5.4061  -5.4061   5.4004   5.4004   6.2093   6.2093
     8.1101   8.1101   8.6568   8.6568   9.3706   9.3706   9.7146   9.7146
    12.4478  12.4478  12.6940  12.6940

          k = 0.3333-0.5000 0.3862 (  3310 PWs)   bands (ev):

   -60.3068 -60.3068 -30.5909 -30.5909 -30.2460 -30.2460 -30.1439 -30.1439
    -5.9971  -5.9971  -5.4896  -5.4896   5.6437   5.6437   6.2066   6.2066
     7.7284   7.7284   8.7687   8.7687   9.1702   9.1702   9.9672   9.9672
    12.5709  12.5709  12.7583  12.7583

          k = 0.3333-0.5000 0.4828 (  3310 PWs)   bands (ev):

   -60.3047 -60.3047 -30.5880 -30.5880 -30.2817 -30.2817 -30.1382 -30.1382
    -5.8821  -5.8821  -5.5431  -5.5431   5.8522   5.8522   6.2397   6.2397
     7.4090   7.4090   8.7051   8.7051   9.1668   9.1668  10.2497  10.2497
    12.5410  12.5410  12.7357  12.7357

          k = 0.3333-0.5000 0.5793 (  3312 PWs)   bands (ev):

   -60.3031 -60.3031 -30.5859 -30.5859 -30.3094 -30.3094 -30.1338 -30.1338
    -5.8366  -5.8366  -5.5372  -5.5372   5.9620   5.9620   6.2832   6.2832
     7.2576   7.2576   8.5091   8.5091   9.3315   9.3315  10.4553  10.4553
    12.4033  12.4033  12.6999  12.6999

          k = 0.3333-0.5000 0.6759 (  3328 PWs)   bands (ev):

   -60.3022 -60.3022 -30.5847 -30.5847 -30.3245 -30.3245 -30.1313 -30.1313
    -5.8376  -5.8376  -5.5076  -5.5076   5.9823   5.9823   6.3144   6.3144
     7.2303   7.2303   8.3858   8.3858   9.4462   9.4462  10.5547  10.5547
    12.2975  12.2975  12.6706  12.6706

          k =-0.5000-0.5000 0.0000 (  3308 PWs)   bands (ev):

   -60.3126 -60.3126 -30.6002 -30.6002 -30.1591 -30.1591 -30.1446 -30.1446
    -6.4228  -6.4228  -5.1909  -5.1909   4.7878   4.7878   6.2867   6.2867
     8.5947   8.5947   8.6337   8.6337   9.7222   9.7222  10.2601  10.2601
    11.7686  11.7686  11.8835  11.8835

          k =-0.5000-0.5000 0.0966 (  3308 PWs)   bands (ev):

   -60.3122 -60.3122 -30.5995 -30.5995 -30.1579 -30.1579 -30.1526 -30.1526
    -6.3906  -6.3906  -5.2136  -5.2136   4.8393   4.8393   6.2568   6.2568
     8.6635   8.6635   8.6888   8.6888   9.5348   9.5348  10.1470  10.1470
    11.8819  11.8819  11.9987  11.9987

          k =-0.5000-0.5000 0.1931 (  3296 PWs)   bands (ev):

   -60.3109 -60.3109 -30.5975 -30.5975 -30.1752 -30.1752 -30.1545 -30.1545
    -6.3004  -6.3004  -5.2751  -5.2751   4.9901   4.9901   6.1968   6.1968
     8.7501   8.7501   8.9147   8.9147   9.0848   9.0848   9.9056   9.9056
    12.1177  12.1177  12.2653  12.2653

          k =-0.5000-0.5000 0.2897 (  3320 PWs)   bands (ev):

   -60.3090 -60.3090 -30.5945 -30.5945 -30.2083 -30.2083 -30.1496 -30.1496
    -6.1671  -6.1671  -5.3660  -5.3660   5.2222   5.2222   6.1413   6.1413
     8.5364   8.5364   8.8848   8.8848   9.0684   9.0684   9.7734   9.7734
    12.3436  12.3436  12.5740  12.5740

          k =-0.5000-0.5000 0.3862 (  3328 PWs)   bands (ev):

   -60.3068 -60.3068 -30.5911 -30.5911 -30.2461 -30.2461 -30.1438 -30.1438
    -6.0113  -6.0113  -5.4675  -5.4675   5.5113   5.5113   6.1161   6.1161
     7.9958   7.9958   8.9158   8.9158   9.0579   9.0579   9.9795   9.9795
    12.5100  12.5100  12.8675  12.8675

          k =-0.5000-0.5000 0.4828 (  3296 PWs)   bands (ev):

   -60.3047 -60.3047 -30.5879 -30.5879 -30.2820 -30.2820 -30.1384 -30.1384
    -5.8576  -5.8576  -5.5621  -5.5621   5.8154   5.8154   6.1241   6.1241
     7.5324   7.5324   8.6672   8.6672   9.2455   9.2455  10.2902  10.2902
    12.6100  12.6100  13.0800  13.0800

          k =-0.5000-0.5000 0.5793 (  3308 PWs)   bands (ev):

   -60.3031 -60.3031 -30.5854 -30.5854 -30.3099 -30.3099 -30.1340 -30.1340
    -5.7362  -5.7362  -5.6365  -5.6365   6.0810   6.0810   6.1490   6.1490
     7.1800   7.1800   8.4593   8.4593   9.4086   9.4086  10.5309  10.5309
    12.6548  12.6548  12.8502  12.8502

          k =-0.5000-0.5000 0.6759 (  3300 PWs)   bands (ev):

   -60.3022 -60.3022 -30.5840 -30.5840 -30.3251 -30.3251 -30.1317 -30.1317
    -5.6758  -5.6758  -5.6690  -5.6690   6.1713   6.1713   6.2517   6.2517
     6.9776   6.9776   8.3438   8.3438   9.5091   9.5091  10.6603  10.6603
    12.6678  12.6678  12.7164  12.7164

     highest occupied level (ev):    13.6963

!    total energy              =    -504.89672519 Ry
     estimated scf accuracy    <       0.00000053 Ry

     The total energy is the sum of the following terms:
     one-electron contribution =    -163.53657190 Ry
     hartree contribution      =     112.47053233 Ry
     xc contribution           =     -67.47415641 Ry
     ewald contribution        =    -386.35652921 Ry

     convergence has been achieved in   8 iterations

     Forces acting on atoms (cartesian axes, Ry/au):

     atom    1 type  1   force =     0.00000000    0.00000000   -0.00000000
     atom    2 type  1   force =     0.00000000    0.00000000    0.00000000
     atom    3 type  2   force =     0.00234934    0.00234934    0.00000000
     atom    4 type  2   force =    -0.00234934   -0.00234934    0.00000000
     atom    5 type  2   force =     0.00234934   -0.00234934   -0.00000000
     atom    6 type  2   force =    -0.00234934    0.00234934   -0.00000000

     Total force =     0.006645     Total SCF correction =     0.000206
 
     init_run     :      0.08s CPU      0.09s WALL (       1 calls)
     electrons    :      3.73s CPU      3.90s WALL (       1 calls)
     forces       :      0.02s CPU      0.03s WALL (       1 calls)

     Called by init_run:
     wfcinit      :      0.06s CPU      0.07s WALL (       1 calls)
     potinit      :      0.00s CPU      0.01s WALL (       1 calls)
     hinit0       :      0.01s CPU      0.01s WALL (       1 calls)

     Called by electrons:
     c_bands      :      3.48s CPU      3.63s WALL (       8 calls)
     sum_band     :      0.23s CPU      0.23s WALL (       8 calls)
     v_of_rho     :      0.01s CPU      0.02s WALL (       9 calls)
     mix_rho      :      0.00s CPU      0.00s WALL (       8 calls)

     Called by c_bands:
     init_us_2    :      0.03s CPU      0.03s WALL (     486 calls)
     init_us_2:cp :      0.03s CPU      0.03s WALL (     486 calls)
     cegterg      :      2.92s CPU      3.00s WALL (     216 calls)

     Called by *egterg:
     cdiaghg      :      1.00s CPU      1.01s WALL (    1618 calls)
     h_psi        :      1.59s CPU      1.65s WALL (    1645 calls)
     g_psi        :      0.01s CPU      0.01s WALL (    1402 calls)

     Called by h_psi:
     h_psi:calbec :      0.10s CPU      0.10s WALL (    1645 calls)
     vloc_psi     :      1.42s CPU      1.47s WALL (    1645 calls)
     add_vuspsi   :      0.07s CPU      0.07s WALL (    1645 calls)

     General routines
     calbec       :      0.11s CPU      0.11s WALL (    1753 calls)
     fft          :      0.01s CPU      0.01s WALL (      91 calls)
     ffts         :      0.00s CPU      0.00s WALL (       8 calls)
     fftw         :      1.39s CPU      1.44s WALL (   52700 calls)
 
     Parallel routines
 
     PWSCF        :      3.86s CPU      4.08s WALL

 
   This run was terminated on:  13:58:23  13Jul2026            

=------------------------------------------------------------------------------=
   JOB DONE.
=------------------------------------------------------------------------------=
