../04-vc-relax-with-consistent-param/output final structure
1.0
   4.641577898   0.000000000   0.000000000
   0.000000000   4.641577898   0.000000000
   0.000000000   0.000000000   2.968675875
Ti O
2  4
Cartesian
            0.0000000000        0.0000000000       -0.0000000000
            2.3207889491        2.3207889491        1.4843379377
            1.4157865023        1.4157865023        0.0000000000
            3.2257913961        3.2257913961        0.0000000000
            3.7365754513        0.9050024470        1.4843379377
            0.9050024470        3.7365754513        1.4843379377
