
     Program PWSCF v.7.2 starts on 23Jul2026 at 13:42:58 
        Git branch: krg.prod
        Last git commit: daa121e36ad33d2e2c57a5cfc9f193e3f68d7ebf
        Last git commit date: Wed Feb 25 11:53:28 2026 -0600
        Last git commit subject: use krg software repo instead

     This program is part of the open-source Quantum ESPRESSO suite
     for quantum simulation of materials; please cite
         "P. Giannozzi et al., J. Phys.:Condens. Matter 21 395502 (2009);
         "P. Giannozzi et al., J. Phys.:Condens. Matter 29 465901 (2017);
         "P. Giannozzi et al., J. Chem. Phys. 152 154105 (2020);
          URL http://www.quantum-espresso.org", 
     in publications or presentations arising from this work. More details at
     http://www.quantum-espresso.org/quote

     Serial multi-threaded version, running on    8 processor cores
     181000 MiB available memory on the printing compute node when the environment starts
 
     Waiting for input...
     Reading input from standard input
Warning: card &FCP ignored
Warning: card / ignored
Warning: card &RISM ignored
Warning: card / ignored

     Current dimensions of program PWSCF are:
     Max number of different atomic species (ntypx) = 10
     Max number of k-points (npk) =  40000
     Max angular momentum in pseudopotentials (lmaxx) =  4
     Message from routine setup:
     using ibrav=0 with symmetry is DISCOURAGED, use correct ibrav instead
 
 
     G-vector sticks info
     --------------------
     sticks:   dense  smooth     PW     G-vecs:    dense   smooth      PW
     Sum        2623    2623    733               807147   807147  117303
 
     Using Slab Decomposition
 


     bravais-lattice index     =            0
     lattice parameter (alat)  =      12.2884  a.u.
     unit-cell volume          =    4545.0406 (a.u.)^3
     number of atoms/cell      =           24
     number of atomic types    =            2
     number of electrons       =       192.00
     number of Kohn-Sham states=          115
     kinetic-energy cutoff     =     120.0000  Ry
     charge density cutoff     =     480.0000  Ry
     scf convergence threshold =      1.0E-06
     mixing beta               =       0.4000
     number of iterations used =           20  plain     mixing
     energy convergence thresh.=      1.0E-04
     force convergence thresh. =      1.0E-03
     press convergence thresh. =      5.0E-01
     Exchange-correlation= PBE
                           (   1   4   3   4   0   0   0)
     nstep                     =          500


     GPU acceleration is ACTIVE.


     celldm(1)=  12.288448  celldm(2)=   0.000000  celldm(3)=   0.000000
     celldm(4)=   0.000000  celldm(5)=   0.000000  celldm(6)=   0.000000

     crystal axes: (cart. coord. in units of alat)
               a(1) = (   1.000000   0.000000   0.000000 )  
               a(2) = (   0.000000   0.455421   0.000000 )  
               a(3) = (   0.000000   0.000000   5.378164 )  

     reciprocal axes: (cart. coord. in units 2 pi/alat)
               b(1) = (  1.000000  0.000000  0.000000 )  
               b(2) = (  0.000000  2.195772  0.000000 )  
               b(3) = (  0.000000  0.000000  0.185937 )  


     PseudoPot. # 1 for Ti read from file:
     /cm/shared/apps/KO/pseudo/sg15/Ti_ONCV_PBE-1.2.upf
     MD5 check sum: 1aea57736bd12dcfee93c97d0b9b5968
     Pseudo is Norm-conserving, Zval = 12.0
     Generated using ONCVPSP code by D. R. Hamann
     Using radial grid of  602 points,  6 beta functions with: 
                l(1) =   0
                l(2) =   0
                l(3) =   1
                l(4) =   1
                l(5) =   2
                l(6) =   2

     PseudoPot. # 2 for O  read from file:
     /cm/shared/apps/KO/pseudo/sg15/O_ONCV_PBE-1.2.upf
     MD5 check sum: e36c48deb68f4e355fffe4602be2c42c
     Pseudo is Norm-conserving, Zval =  6.0
     Generated using ONCVPSP code by D. R. Hamann
     Using radial grid of  602 points,  4 beta functions with: 
                l(1) =   0
                l(2) =   0
                l(3) =   1
                l(4) =   1

     atomic species   valence    mass     pseudopotential
     Ti               12.00    47.86700     Ti( 1.00)
     O                 6.00    15.99900     O ( 1.00)

      4 Sym. Ops. (no inversion) found



   Cartesian axes

     site n.     atom                  positions (alat units)
         1        Ti     tau(   1) = (   0.5000000   0.0000000   2.0525182  )
         2        Ti     tau(   2) = (   0.0000000   0.2277103   1.9713411  )
         3        Ti     tau(   3) = (   0.0000000   0.0000000   2.4843014  )
         4        Ti     tau(   4) = (   0.5000000   0.2277103   2.5538656  )
         5        Ti     tau(   5) = (   0.5000000   0.0000000   3.0891592  )
         6        Ti     tau(   6) = (   0.0000000   0.2277103   3.0189089  )
         7        Ti     tau(   7) = (   0.0000000   0.0000000   3.5201488  )
         8        Ti     tau(   8) = (   0.5000000   0.2277103   3.6018979  )
         9        O      tau(   9) = (   0.0000000   0.0000000   1.8074709  )
        10        O      tau(  10) = (   0.5000000   0.0000000   2.3284233  )
        11        O      tau(  11) = (   0.0000000   0.0000000   2.2056814  )
        12        O      tau(  12) = (   0.3110794   0.2277103   1.9946316  )
        13        O      tau(  13) = (   0.6889206   0.2277103   1.9946316  )
        14        O      tau(  14) = (   0.0000000   0.0000000   2.8445198  )
        15        O      tau(  15) = (   0.5000000   0.0000000   2.7282282  )
        16        O      tau(  16) = (   0.8037987   0.2277103   2.5226305  )
        17        O      tau(  17) = (   0.1962012   0.2277103   2.5226305  )
        18        O      tau(  18) = (   0.5000000   0.0000000   3.3676604  )
        19        O      tau(  19) = (   0.0000000   0.0000000   3.2440922  )
        20        O      tau(  20) = (   0.3037304   0.2277103   3.0512709  )
        21        O      tau(  21) = (   0.6962696   0.2277103   3.0512709  )
        22        O      tau(  22) = (   0.5000000   0.0000000   3.7657382  )
        23        O      tau(  23) = (   0.8112117   0.2277103   3.5786558  )
        24        O      tau(  24) = (   0.1887883   0.2277103   3.5786558  )

     number of k points=    15  Gaussian smearing, width (Ry)=  0.0200
                       cart. coord. in units 2pi/alat
        k(    1) = (   0.0000000   0.0000000   0.0000000), wk =   0.0555556
        k(    2) = (   0.0000000   0.2439747   0.0000000), wk =   0.1111111
        k(    3) = (   0.0000000   0.4879494   0.0000000), wk =   0.1111111
        k(    4) = (   0.0000000   0.7319241   0.0000000), wk =   0.1111111
        k(    5) = (   0.0000000   0.9758988   0.0000000), wk =   0.1111111
        k(    6) = (   0.2500000   0.0000000   0.0000000), wk =   0.1111111
        k(    7) = (   0.2500000   0.2439747   0.0000000), wk =   0.2222222
        k(    8) = (   0.2500000   0.4879494   0.0000000), wk =   0.2222222
        k(    9) = (   0.2500000   0.7319241   0.0000000), wk =   0.2222222
        k(   10) = (   0.2500000   0.9758988   0.0000000), wk =   0.2222222
        k(   11) = (  -0.5000000   0.0000000   0.0000000), wk =   0.0555556
        k(   12) = (  -0.5000000   0.2439747   0.0000000), wk =   0.1111111
        k(   13) = (  -0.5000000   0.4879494   0.0000000), wk =   0.1111111
        k(   14) = (  -0.5000000   0.7319241   0.0000000), wk =   0.1111111
        k(   15) = (  -0.5000000   0.9758988   0.0000000), wk =   0.1111111

     Dense  grid:   807147 G-vectors     FFT dimensions: (  90,  40, 480)

     Estimated max dynamical RAM per process >       4.63 GB

     Initial potential from superposition of free atoms

     starting charge     191.1069, renormalised to     192.0000

     negative rho (up, down):  9.844E-04 0.000E+00
     Starting wfcs are random

     total cpu time spent up to now is        8.1 secs

     Self-consistent Calculation

     iteration #  1     ecut=   120.00 Ry     beta= 0.40
     Davidson diagonalization with overlap
     c_bands:  1 eigenvalues not converged
     ethr =  1.00E-02,  avg # of iterations = 16.5

     negative rho (up, down):  3.318E-05 0.000E+00

     total cpu time spent up to now is       20.2 secs

     total energy              =   -1434.47957574 Ry
     estimated scf accuracy    <       9.57720333 Ry

     iteration #  2     ecut=   120.00 Ry     beta= 0.40
     Davidson diagonalization with overlap
     ethr =  4.99E-03,  avg # of iterations =  4.0

     negative rho (up, down):  1.177E-06 0.000E+00

     total cpu time spent up to now is       24.9 secs

     total energy              =   -1436.47716591 Ry
     estimated scf accuracy    <       2.27652213 Ry

     iteration #  3     ecut=   120.00 Ry     beta= 0.40
     Davidson diagonalization with overlap
     ethr =  1.19E-03,  avg # of iterations =  4.3

     negative rho (up, down):  2.440E-07 0.000E+00

     total cpu time spent up to now is       29.5 secs

     total energy              =   -1437.10787359 Ry
     estimated scf accuracy    <       0.65101036 Ry

     iteration #  4     ecut=   120.00 Ry     beta= 0.40
     Davidson diagonalization with overlap
     ethr =  3.39E-04,  avg # of iterations = 10.0

     negative rho (up, down):  1.010E-07 0.000E+00

     total cpu time spent up to now is       34.9 secs

     total energy              =   -1437.21483377 Ry
     estimated scf accuracy    <       0.09032369 Ry

     iteration #  5     ecut=   120.00 Ry     beta= 0.40
     Davidson diagonalization with overlap
     ethr =  4.70E-05,  avg # of iterations = 13.3

     negative rho (up, down):  1.397E-08 0.000E+00

     total cpu time spent up to now is       41.7 secs

     total energy              =   -1437.24411062 Ry
     estimated scf accuracy    <       0.04115772 Ry

     iteration #  6     ecut=   120.00 Ry     beta= 0.40
     Davidson diagonalization with overlap
     c_bands:  2 eigenvalues not converged
     c_bands:  1 eigenvalues not converged
     ethr =  2.14E-05,  avg # of iterations = 14.5

     total cpu time spent up to now is       47.9 secs

     total energy              =   -1437.24878237 Ry
     estimated scf accuracy    <       0.01724175 Ry

     iteration #  7     ecut=   120.00 Ry     beta= 0.40
     Davidson diagonalization with overlap
     ethr =  8.98E-06,  avg # of iterations =  6.9

     total cpu time spent up to now is       52.7 secs

     total energy              =   -1437.24929244 Ry
     estimated scf accuracy    <       0.00315788 Ry

     iteration #  8     ecut=   120.00 Ry     beta= 0.40
     Davidson diagonalization with overlap
     c_bands:  3 eigenvalues not converged
     c_bands:  1 eigenvalues not converged
     ethr =  1.64E-06,  avg # of iterations = 15.1

     total cpu time spent up to now is       59.7 secs

     total energy              =   -1437.25027880 Ry
     estimated scf accuracy    <       0.00152011 Ry

     iteration #  9     ecut=   120.00 Ry     beta= 0.40
     Davidson diagonalization with overlap
     c_bands:  1 eigenvalues not converged
     ethr =  7.92E-07,  avg # of iterations =  3.4

     total cpu time spent up to now is       64.1 secs

     total energy              =   -1437.25022834 Ry
     estimated scf accuracy    <       0.00041811 Ry

     iteration # 10     ecut=   120.00 Ry     beta= 0.40
     Davidson diagonalization with overlap
     ethr =  2.18E-07,  avg # of iterations =  5.9

     total cpu time spent up to now is       69.3 secs

     total energy              =   -1437.25034196 Ry
     estimated scf accuracy    <       0.00014642 Ry

     iteration # 11     ecut=   120.00 Ry     beta= 0.40
     Davidson diagonalization with overlap
     ethr =  7.63E-08,  avg # of iterations =  4.7

     total cpu time spent up to now is       73.9 secs

     total energy              =   -1437.25036772 Ry
     estimated scf accuracy    <       0.00000443 Ry

     iteration # 12     ecut=   120.00 Ry     beta= 0.40
     Davidson diagonalization with overlap
     ethr =  2.31E-09,  avg # of iterations =  7.7

     total cpu time spent up to now is       79.7 secs

     total energy              =   -1437.25037106 Ry
     estimated scf accuracy    <       0.00000434 Ry

     iteration # 13     ecut=   120.00 Ry     beta= 0.40
     Davidson diagonalization with overlap
     ethr =  2.26E-09,  avg # of iterations =  5.0

     total cpu time spent up to now is       84.1 secs

     End of self-consistent calculation

          k = 0.0000 0.0000 0.0000 (100911 PWs)   bands (ev):

   -58.0421 -58.0393 -57.9286 -57.9271 -57.8058 -57.8034 -57.5162 -57.5146
   -34.3636 -34.3610 -34.2673 -34.2631 -34.2580 -34.2572 -34.1881 -34.1867
   -34.1519 -34.1491 -34.0695 -34.0660 -34.0415 -34.0390 -34.0038 -34.0025
   -33.9125 -33.9103 -33.8035 -33.8017 -33.7665 -33.7654 -33.5832 -33.5815
   -19.0725 -18.8590 -18.6426 -18.5692 -18.4243 -18.1764 -17.8737 -17.8618
   -17.7355 -17.6672 -17.4247 -17.3958 -17.3663 -17.3557 -17.1040 -17.0992
    -6.6088  -6.4903  -6.4594  -6.4530  -6.2298  -6.2036  -5.6345  -5.3123
    -5.2808  -5.2741  -5.0142  -4.9863  -4.6847  -4.6744  -4.6506  -4.6394
    -4.5290  -4.4760  -4.4725  -4.2953  -4.0618  -3.7757  -3.6729  -3.6728
    -3.5538  -3.5281  -3.4698  -3.3319  -3.2047  -3.1482  -3.0852  -3.0263
    -2.8600  -2.7848  -2.7466  -2.7200  -2.5189  -2.4684  -2.4512  -2.3112
    -2.1370  -2.1245  -2.1021  -2.0893  -1.6542  -1.6165  -1.4320  -1.2393
     0.9330   0.9627   1.0366   1.0431   1.4200   1.4260   1.4921   1.5480
     1.6305   1.8286   1.8468   1.8479   2.0944   2.2372   2.2654   2.4034
     2.5351   2.5416   2.5530

          k = 0.0000 0.2440 0.0000 (100941 PWs)   bands (ev):

   -58.0374 -58.0345 -57.9240 -57.9225 -57.8012 -57.7989 -57.5113 -57.5096
   -34.3519 -34.3494 -34.2625 -34.2616 -34.2594 -34.2553 -34.1990 -34.1963
   -34.1757 -34.1743 -34.0651 -34.0616 -34.0565 -34.0552 -34.0338 -34.0314
   -33.9642 -33.9619 -33.7972 -33.7954 -33.7635 -33.7624 -33.6385 -33.6369
   -18.9532 -18.7507 -18.5415 -18.4707 -18.3332 -18.1030 -17.8102 -17.7771
   -17.7504 -17.7065 -17.4703 -17.4427 -17.4129 -17.4029 -17.1322 -17.1280
    -6.4496  -6.3505  -6.3122  -6.3058  -6.1060  -6.0673  -5.5182  -5.3094
    -5.2990  -5.2616  -5.1916  -5.1366  -5.0696  -4.9205  -4.9157  -4.7823
    -4.4867  -4.3990  -4.1849  -4.0872  -4.0001  -3.6560  -3.5719  -3.5458
    -3.4350  -3.3834  -3.2733  -3.2102  -3.1884  -3.1716  -3.1423  -3.1255
    -3.0030  -2.9785  -2.8610  -2.7878  -2.7856  -2.5432  -2.5415  -2.4714
    -2.3312  -2.2819  -2.2167  -2.1223  -1.8739  -1.8416  -1.4651  -1.3052
     1.0223   1.0282   1.1290   1.1549   1.3308   1.3410   1.4672   1.5449
     1.6536   1.7764   2.0389   2.0920   2.1196   2.1470   2.4022   2.4393
     2.4660   2.6003   2.7729

          k = 0.0000 0.4879 0.0000 (100905 PWs)   bands (ev):

   -58.0253 -58.0224 -57.9122 -57.9108 -57.7897 -57.7873 -57.4987 -57.4971
   -34.3617 -34.3587 -34.3168 -34.3152 -34.2399 -34.2372 -34.2362 -34.2359
   -34.1840 -34.1830 -34.1438 -34.1424 -34.0966 -34.0942 -34.0505 -34.0469
   -34.0137 -34.0115 -33.8236 -33.8219 -33.7563 -33.7553 -33.7331 -33.7314
   -18.6374 -18.4756 -18.2862 -18.2199 -18.1042 -17.9791 -17.8135 -17.8019
   -17.5940 -17.5866 -17.5827 -17.5621 -17.5316 -17.5231 -17.1838 -17.1822
    -6.0370  -5.9980  -5.9276  -5.9239  -5.8276  -5.7575  -5.5653  -5.4779
    -5.3111  -5.2988  -5.2104  -5.2029  -5.1880  -5.0877  -5.0295  -4.8551
    -4.6472  -4.6440  -4.1167  -4.0336  -3.9481  -3.8919  -3.8526  -3.6903
    -3.6546  -3.5214  -3.4413  -3.3111  -3.2350  -3.2197  -3.1062  -3.0385
    -3.0043  -2.9480  -2.7806  -2.7611  -2.6469  -2.6137  -2.5657  -2.5441
    -2.5294  -2.5011  -2.4840  -2.4144  -2.2556  -2.1654  -1.5873  -1.5467
     1.0982   1.1146   1.2907   1.3517   1.3697   1.4517   1.6194   1.6594
     1.7155   1.9108   2.0378   2.1680   2.2147   2.3333   2.3503   2.4187
     2.5757   2.6044   2.7947

          k = 0.0000 0.7319 0.0000 (100882 PWs)   bands (ev):

   -58.0115 -58.0086 -57.8989 -57.8974 -57.7765 -57.7741 -57.4844 -57.4827
   -34.5080 -34.5049 -34.3404 -34.3393 -34.2811 -34.2795 -34.2397 -34.2372
   -34.2240 -34.2200 -34.2187 -34.2153 -34.1068 -34.1052 -34.0435 -34.0401
   -33.9896 -33.9877 -33.9612 -33.9594 -33.7486 -33.7476 -33.7241 -33.7223
   -18.2360 -18.1940 -18.0886 -17.9375 -17.9350 -17.8674 -17.8355 -17.7200
   -17.6989 -17.6947 -17.6675 -17.6604 -17.4964 -17.4840 -17.1296 -17.1294
    -5.7056  -5.7035  -5.6834  -5.6172  -5.5462  -5.5110  -5.4972  -5.3789
    -5.3610  -5.3336  -5.2750  -5.2517  -5.2453  -5.1986  -5.1353  -4.9089
    -4.5459  -4.5238  -4.5138  -4.3135  -4.2929  -4.2750  -4.1521  -4.0974
    -3.7168  -3.5263  -3.5084  -3.4214  -3.3213  -3.2667  -3.1354  -3.1043
    -3.0323  -2.9878  -2.9819  -2.8349  -2.7662  -2.5760  -2.5640  -2.5032
    -2.4250  -2.3929  -2.3894  -2.2157  -2.2110  -2.1999  -2.0078  -1.9401
     1.3985   1.4158   1.4566   1.5186   1.5728   1.6938   1.7495   1.8420
     1.8474   1.9069   2.0492   2.0512   2.1603   2.2495   2.4374   2.5479
     2.6250   2.6402   2.6883

          k = 0.0000 0.9759 0.0000 (100884 PWs)   bands (ev):

   -58.0024 -57.9995 -57.8901 -57.8886 -57.7678 -57.7655 -57.4750 -57.4734
   -34.6044 -34.6012 -34.4329 -34.4319 -34.3315 -34.3289 -34.2495 -34.2488
   -34.2270 -34.2242 -34.2053 -34.2021 -34.0821 -34.0809 -34.0804 -34.0786
   -34.0165 -34.0134 -33.9733 -33.9714 -33.7440 -33.7429 -33.7075 -33.7057
   -18.1436 -18.1333 -17.8806 -17.8077 -17.7886 -17.7694 -17.7567 -17.7535
   -17.7503 -17.7175 -17.6948 -17.6817 -17.5175 -17.5094 -17.0071 -17.0065
    -6.0110  -5.7910  -5.7000  -5.5861  -5.5660  -5.4860  -5.3367  -5.2936
    -5.2694  -5.2591  -5.2210  -5.1824  -5.1265  -5.1174  -5.1118  -4.9645
    -4.7409  -4.6315  -4.5288  -4.4655  -4.3069  -4.2174  -3.8578  -3.7890
    -3.7769  -3.7694  -3.7050  -3.6258  -3.5781  -3.4515  -3.3475  -3.3289
    -3.1235  -2.9170  -2.8970  -2.7194  -2.6365  -2.6249  -2.4816  -2.3784
    -2.3503  -2.3137  -2.2860  -2.2716  -2.2372  -2.2050  -2.1920  -2.0595
     1.2969   1.6143   1.6691   1.7906   1.8285   1.8574   1.9537   1.9673
     2.0134   2.0281   2.1579   2.1769   2.2994   2.3144   2.3152   2.5088
     2.5156   2.5260   2.5523

          k = 0.2500 0.0000 0.0000 (100949 PWs)   bands (ev):

   -58.0421 -58.0392 -57.9286 -57.9271 -57.8058 -57.8035 -57.5163 -57.5146
   -34.3637 -34.3613 -34.2584 -34.2576 -34.2543 -34.2503 -34.1826 -34.1812
   -34.1518 -34.1489 -34.0695 -34.0661 -34.0544 -34.0522 -34.0038 -34.0024
   -33.9126 -33.9104 -33.8034 -33.8016 -33.7724 -33.7714 -33.5833 -33.5816
   -18.9779 -18.7744 -18.5377 -18.5016 -18.4323 -18.2247 -17.9460 -17.9399
   -17.7247 -17.6737 -17.4937 -17.4706 -17.4173 -17.4136 -17.0998 -17.0972
    -6.4250  -6.2700  -6.2182  -6.2019  -6.1812  -6.1054  -5.4334  -5.2788
    -5.2739  -5.1387  -5.0137  -4.9928  -4.6369  -4.6316  -4.6123  -4.5976
    -4.5101  -4.4748  -4.4717  -4.3368  -4.3053  -4.0449  -3.9517  -3.7643
    -3.7160  -3.6650  -3.3435  -3.2929  -3.1831  -3.1773  -3.0648  -3.0305
    -2.8864  -2.8428  -2.8251  -2.7426  -2.6238  -2.5459  -2.5023  -2.4152
    -2.3536  -2.2220  -2.2174  -2.2068  -2.0466  -1.9396  -1.5607  -1.3986
     1.2132   1.2432   1.3360   1.3389   1.4658   1.5397   1.5878   1.5904
     1.8300   1.8308   1.8424   1.9599   2.2480   2.3136   2.4329   2.5046
     2.5441   2.5497   2.6207

          k = 0.2500 0.2440 0.0000 (100908 PWs)   bands (ev):

   -58.0373 -58.0345 -57.9239 -57.9225 -57.8013 -57.7989 -57.5113 -57.5096
   -34.3520 -34.3497 -34.2627 -34.2618 -34.2487 -34.2452 -34.1991 -34.1964
   -34.1708 -34.1693 -34.0649 -34.0614 -34.0570 -34.0557 -34.0453 -34.0431
   -33.9634 -33.9612 -33.7971 -33.7954 -33.7683 -33.7672 -33.6385 -33.6368
   -18.8637 -18.6714 -18.4412 -18.4065 -18.3390 -18.1462 -17.8657 -17.8635
   -17.7545 -17.7122 -17.5347 -17.5146 -17.4545 -17.4505 -17.1278 -17.1256
    -6.2714  -6.1419  -6.0768  -6.0564  -6.0336  -5.9677  -5.4059  -5.3176
    -5.3061  -5.2452  -5.0846  -5.0523  -4.9879  -4.8544  -4.8499  -4.7649
    -4.5539  -4.4028  -4.3137  -4.1123  -3.9290  -3.9143  -3.7532  -3.6576
    -3.5623  -3.4981  -3.4754  -3.4040  -3.2166  -3.1912  -3.1421  -3.1230
    -3.0295  -3.0266  -2.9031  -2.8753  -2.8404  -2.8031  -2.6514  -2.5948
    -2.4384  -2.3919  -2.1463  -2.0643  -2.0563  -1.9569  -1.5722  -1.4344
     1.2186   1.2230   1.3304   1.3585   1.4437   1.4826   1.5363   1.5818
     1.7436   1.7907   2.0736   2.1675   2.1839   2.2043   2.5348   2.5542
     2.5930   2.6646   2.6941

          k = 0.2500 0.4879 0.0000 (100862 PWs)   bands (ev):

   -58.0252 -58.0224 -57.9122 -57.9108 -57.7897 -57.7873 -57.4987 -57.4971
   -34.3617 -34.3588 -34.3170 -34.3154 -34.2386 -34.2373 -34.2364 -34.2333
   -34.1851 -34.1841 -34.1404 -34.1389 -34.0916 -34.0893 -34.0504 -34.0469
   -34.0206 -34.0186 -33.8236 -33.8219 -33.7586 -33.7576 -33.7329 -33.7311
   -18.5655 -18.4157 -18.2047 -18.1708 -18.1064 -18.0035 -17.8101 -17.7945
   -17.7146 -17.7122 -17.6262 -17.6201 -17.5107 -17.5067 -17.1795 -17.1787
    -5.8876  -5.8695  -5.7191  -5.7066  -5.6697  -5.6621  -5.4652  -5.4635
    -5.3400  -5.2701  -5.2345  -5.2111  -5.1135  -5.0627  -4.8941  -4.8369
    -4.7144  -4.3369  -4.2125  -4.1062  -4.0493  -4.0107  -3.9143  -3.8808
    -3.7718  -3.6621  -3.5755  -3.4853  -3.4436  -3.3524  -3.2282  -3.2190
    -3.0740  -3.0688  -2.9571  -2.9295  -2.8306  -2.7661  -2.6310  -2.6217
    -2.3757  -2.3579  -2.2516  -2.2253  -2.1876  -2.0409  -1.6562  -1.5955
     1.1472   1.1523   1.2699   1.3123   1.5052   1.5962   1.7180   1.7417
     1.7556   1.7778   2.0664   2.1167   2.3308   2.3814   2.4188   2.4481
     2.6847   2.7237   2.7774

          k = 0.2500 0.7319 0.0000 (100901 PWs)   bands (ev):

   -58.0114 -58.0086 -57.8989 -57.8974 -57.7765 -57.7741 -57.4844 -57.4827
   -34.5083 -34.5052 -34.3422 -34.3412 -34.2816 -34.2796 -34.2638 -34.2614
   -34.2242 -34.2229 -34.1891 -34.1865 -34.1062 -34.1046 -34.0432 -34.0397
   -33.9924 -33.9905 -33.9605 -33.9586 -33.7483 -33.7472 -33.7240 -33.7223
   -18.2090 -18.1773 -18.0748 -17.9542 -17.9370 -17.9156 -17.8435 -17.7639
   -17.7016 -17.6981 -17.6618 -17.6317 -17.4869 -17.4791 -17.1296 -17.1294
    -5.7182  -5.6655  -5.6193  -5.5510  -5.5308  -5.4698  -5.4114  -5.3544
    -5.3475  -5.3063  -5.2085  -5.2067  -5.1447  -5.1337  -5.0869  -5.0245
    -4.6838  -4.5095  -4.4472  -4.3841  -4.2960  -4.1949  -4.0316  -3.9616
    -3.8267  -3.6178  -3.5832  -3.4748  -3.4453  -3.2998  -3.2779  -3.2627
    -3.1466  -3.0681  -3.0670  -2.8485  -2.6526  -2.6257  -2.5628  -2.5278
    -2.5092  -2.4082  -2.3663  -2.2754  -2.1071  -2.0350  -1.9437  -1.9014
     1.2244   1.2835   1.3223   1.3574   1.6092   1.7360   1.7409   1.8513
     1.9037   1.9391   1.9915   2.0563   2.2342   2.3342   2.4673   2.4779
     2.6226   2.6338   2.8062

          k = 0.2500 0.9759 0.0000 (100928 PWs)   bands (ev):

   -58.0024 -57.9995 -57.8901 -57.8886 -57.7678 -57.7655 -57.4750 -57.4734
   -34.6047 -34.6016 -34.4348 -34.4338 -34.3426 -34.3402 -34.2495 -34.2490
   -34.2270 -34.2247 -34.1927 -34.1899 -34.0941 -34.0922 -34.0690 -34.0670
   -34.0161 -34.0130 -33.9733 -33.9714 -33.7418 -33.7408 -33.7075 -33.7057
   -18.1405 -18.1341 -17.9849 -17.9647 -17.9181 -17.9131 -17.7811 -17.7174
   -17.6104 -17.6088 -17.5579 -17.5440 -17.5126 -17.5078 -17.0074 -17.0070
    -5.9603  -5.9390  -5.7855  -5.7238  -5.5945  -5.5896  -5.5825  -5.3732
    -5.2452  -5.2191  -5.1798  -5.0617  -5.0373  -5.0370  -4.9426  -4.9276
    -4.6097  -4.4631  -4.3229  -4.3202  -4.2409  -4.1916  -3.9078  -3.8606
    -3.8508  -3.7616  -3.7090  -3.6677  -3.4861  -3.4815  -3.3641  -3.2081
    -3.1021  -2.9981  -2.8847  -2.7754  -2.5988  -2.5546  -2.4868  -2.4579
    -2.4403  -2.4247  -2.3445  -2.3385  -2.3179  -2.2879  -2.0265  -1.9361
     1.2353   1.3333   1.4025   1.5119   1.5476   1.7513   1.9480   1.9771
     2.0739   2.0779   2.0931   2.2440   2.2493   2.3465   2.3939   2.4190
     2.5614   2.7025   2.7067

          k =-0.5000 0.0000 0.0000 (100818 PWs)   bands (ev):

   -58.0421 -58.0392 -57.9286 -57.9271 -57.8059 -57.8035 -57.5163 -57.5146
   -34.3637 -34.3617 -34.2584 -34.2579 -34.2392 -34.2364 -34.1770 -34.1755
   -34.1517 -34.1488 -34.0706 -34.0693 -34.0677 -34.0648 -34.0037 -34.0024
   -33.9128 -33.9105 -33.8032 -33.8015 -33.7786 -33.7776 -33.5833 -33.5817
   -18.7796 -18.7754 -18.4356 -18.4340 -18.2984 -18.2966 -18.0888 -18.0877
   -17.6926 -17.6908 -17.5740 -17.5734 -17.4512 -17.4499 -17.0972 -17.0962
    -6.3166  -6.3108  -5.8590  -5.8569  -5.8511  -5.8463  -5.2962  -5.2923
    -5.0090  -5.0024  -4.9387  -4.9356  -4.7465  -4.7420  -4.5920  -4.5862
    -4.5611  -4.5585  -4.4728  -4.4702  -4.1509  -4.1486  -3.9269  -3.9257
    -3.8612  -3.8600  -3.8070  -3.8062  -3.2799  -3.2767  -3.0877  -3.0830
    -2.9656  -2.9635  -2.8425  -2.8407  -2.6391  -2.6367  -2.5036  -2.5022
    -2.2996  -2.2979  -2.2880  -2.2825  -1.9030  -1.9015  -1.8016  -1.7977
     1.4430   1.4488   1.4934   1.4958   1.5703   1.5707   1.7216   1.7218
     1.8383   1.8400   2.1850   2.1866   2.3610   2.3625   2.4008   2.4080
     2.5657   2.6387   2.6425

          k =-0.5000 0.2440 0.0000 (100834 PWs)   bands (ev):

   -58.0373 -58.0344 -57.9239 -57.9225 -57.8013 -57.7989 -57.5113 -57.5096
   -34.3520 -34.3500 -34.2628 -34.2620 -34.2366 -34.2338 -34.1994 -34.1967
   -34.1657 -34.1642 -34.0639 -34.0606 -34.0584 -34.0575 -34.0567 -34.0562
   -33.9629 -33.9606 -33.7971 -33.7953 -33.7731 -33.7721 -33.6385 -33.6368
   -18.6761 -18.6720 -18.3436 -18.3424 -18.2083 -18.2066 -18.0137 -18.0131
   -17.7244 -17.7229 -17.6162 -17.6161 -17.4765 -17.4757 -17.1250 -17.1242
    -6.1755  -6.1699  -5.7176  -5.7124  -5.6973  -5.6960  -5.3373  -5.3369
    -5.2769  -5.2752  -4.8908  -4.8887  -4.7994  -4.7949  -4.7304  -4.7268
    -4.6161  -4.6126  -4.3468  -4.3451  -3.9720  -3.9697  -3.8758  -3.8754
    -3.6747  -3.6731  -3.6175  -3.6138  -3.4989  -3.4976  -3.3611  -3.3602
    -3.1345  -3.1290  -3.0087  -3.0076  -2.9044  -2.9011  -2.6480  -2.6436
    -2.2342  -2.2337  -2.1128  -2.1109  -1.8555  -1.8532  -1.7693  -1.7665
     1.3231   1.3258   1.4380   1.4453   1.6239   1.6273   1.6570   1.6598
     1.7730   1.7738   2.2298   2.2326   2.3259   2.3305   2.4855   2.4871
     2.7224   2.7228   2.7769

          k =-0.5000 0.4879 0.0000 (100756 PWs)   bands (ev):

   -58.0252 -58.0224 -57.9122 -57.9107 -57.7897 -57.7874 -57.4988 -57.4971
   -34.3618 -34.3589 -34.3172 -34.3157 -34.2386 -34.2378 -34.2341 -34.2319
   -34.1860 -34.1850 -34.1372 -34.1357 -34.0852 -34.0829 -34.0504 -34.0469
   -34.0291 -34.0271 -33.8236 -33.8219 -33.7608 -33.7598 -33.7327 -33.7309
   -18.4160 -18.4124 -18.1360 -18.1353 -17.9899 -17.9889 -17.8922 -17.8900
   -17.7727 -17.7719 -17.7115 -17.7101 -17.4990 -17.4972 -17.1762 -17.1761
    -5.8539  -5.8491  -5.5399  -5.5377  -5.4036  -5.4025  -5.3170  -5.3167
    -5.2498  -5.2494  -5.0952  -5.0946  -4.9201  -4.9187  -4.8971  -4.8955
    -4.6102  -4.6091  -4.2715  -4.2675  -4.2104  -4.2064  -3.9836  -3.9832
    -3.8404  -3.8351  -3.6568  -3.6526  -3.5031  -3.5012  -3.4056  -3.4054
    -3.2831  -3.2819  -3.2068  -3.2010  -2.9408  -2.9365  -2.6078  -2.6068
    -2.1514  -2.1491  -2.0621  -2.0616  -1.9318  -1.9297  -1.7835  -1.7820
     1.1692   1.1738   1.2644   1.2651   1.5992   1.6002   1.6585   1.6588
     1.8567   1.8593   2.2313   2.2380   2.3641   2.3650   2.5907   2.5911
     2.6695   2.6714   2.8440

          k =-0.5000 0.7319 0.0000 (100896 PWs)   bands (ev):

   -58.0114 -58.0086 -57.8989 -57.8974 -57.7765 -57.7741 -57.4844 -57.4827
   -34.5085 -34.5055 -34.3441 -34.3430 -34.2821 -34.2818 -34.2750 -34.2736
   -34.2242 -34.2230 -34.1725 -34.1699 -34.1057 -34.1041 -34.0429 -34.0394
   -33.9955 -33.9935 -33.9597 -33.9579 -33.7479 -33.7469 -33.7240 -33.7222
   -18.1654 -18.1629 -18.0413 -18.0379 -17.9301 -17.9263 -17.8245 -17.8225
   -17.7169 -17.7164 -17.6299 -17.6286 -17.4772 -17.4731 -17.1296 -17.1293
    -5.6674  -5.6656  -5.5885  -5.5877  -5.4834  -5.4833  -5.3540  -5.3506
    -5.2383  -5.2366  -5.1762  -5.1748  -5.0953  -5.0944  -4.8277  -4.8267
    -4.6781  -4.6734  -4.5592  -4.5579  -4.2010  -4.1978  -3.8719  -3.8696
    -3.7907  -3.7867  -3.6375  -3.6350  -3.4897  -3.4878  -3.2989  -3.2951
    -3.1876  -3.1859  -3.0600  -3.0542  -2.9127  -2.9103  -2.5208  -2.5203
    -2.3642  -2.3604  -2.2653  -2.2651  -1.9432  -1.9431  -1.8653  -1.8653
     1.0702   1.0709   1.1754   1.1783   1.6840   1.6864   1.7988   1.8006
     1.9855   1.9886   2.1455   2.1485   2.3345   2.3359   2.4590   2.4596
     2.5940   2.5945   2.9042

          k =-0.5000 0.9759 0.0000 (100940 PWs)   bands (ev):

   -58.0024 -57.9995 -57.8901 -57.8886 -57.7678 -57.7655 -57.4750 -57.4734
   -34.6049 -34.6019 -34.4367 -34.4357 -34.3522 -34.3500 -34.2494 -34.2491
   -34.2270 -34.2250 -34.1820 -34.1793 -34.0993 -34.0975 -34.0640 -34.0619
   -34.0157 -34.0126 -33.9734 -33.9715 -33.7397 -33.7387 -33.7075 -33.7058
   -18.1385 -18.1353 -18.0509 -18.0492 -17.9803 -17.9750 -17.7524 -17.7491
   -17.5469 -17.5466 -17.5246 -17.5207 -17.4588 -17.4576 -17.0078 -17.0074
    -6.0005  -5.9981  -5.8353  -5.8342  -5.7311  -5.7286  -5.4252  -5.4228
    -5.2731  -5.2723  -5.0247  -5.0225  -4.9748  -4.9735  -4.7414  -4.7378
    -4.6587  -4.6579  -4.2847  -4.2836  -4.0239  -4.0235  -3.8944  -3.8903
    -3.7893  -3.7864  -3.7489  -3.7453  -3.3826  -3.3815  -3.1160  -3.1142
    -3.0266  -3.0198  -2.9742  -2.9734  -2.7690  -2.7662  -2.5985  -2.5976
    -2.5248  -2.5247  -2.3214  -2.3198  -2.0819  -2.0807  -2.0185  -2.0170
     1.0213   1.0225   1.2747   1.2750   1.6830   1.6833   1.9610   1.9632
     2.0606   2.0649   2.1086   2.1122   2.2707   2.2717   2.4290   2.4305
     2.6605   2.6614   2.7683

     the Fermi energy is    -0.1610 ev

!    total energy              =   -1437.25037170 Ry
     estimated scf accuracy    <       0.00000044 Ry
     smearing contrib. (-TS)   =      -0.00000000 Ry
     internal energy E=F+TS    =   -1437.25037170 Ry

     The total energy is F=E-TS. E is the sum of the following terms:
     one-electron contribution =  -28824.61302501 Ry
     hartree contribution      =   14430.93316583 Ry
     xc contribution           =    -226.73976928 Ry
     ewald contribution        =   13183.16925676 Ry

     convergence has been achieved in  13 iterations

     Forces acting on atoms (cartesian axes, Ry/au):

     atom    1 type  1   force =     0.00000000    0.00000000    0.00014720
     atom    2 type  1   force =     0.00000000    0.00000000    0.00017945
     atom    3 type  1   force =     0.00000000    0.00000000   -0.00030737
     atom    4 type  1   force =     0.00000000    0.00000000    0.00017567
     atom    5 type  1   force =     0.00000000    0.00000000    0.00004483
     atom    6 type  1   force =     0.00000000    0.00000000    0.00019380
     atom    7 type  1   force =     0.00000000    0.00000000    0.00025745
     atom    8 type  1   force =     0.00000000    0.00000000   -0.00003964
     atom    9 type  2   force =     0.00000000    0.00000000    0.00014012
     atom   10 type  2   force =     0.00000000    0.00000000    0.00013985
     atom   11 type  2   force =     0.00000000    0.00000000   -0.00008430
     atom   12 type  2   force =    -0.00011067    0.00000000   -0.00023729
     atom   13 type  2   force =     0.00011067    0.00000000   -0.00023729
     atom   14 type  2   force =     0.00000000    0.00000000    0.00032000
     atom   15 type  2   force =     0.00000000    0.00000000    0.00006648
     atom   16 type  2   force =     0.00002433    0.00000000   -0.00000059
     atom   17 type  2   force =    -0.00002433    0.00000000   -0.00000059
     atom   18 type  2   force =     0.00000000    0.00000000   -0.00015342
     atom   19 type  2   force =     0.00000000    0.00000000    0.00053733
     atom   20 type  2   force =    -0.00000243    0.00000000   -0.00049598
     atom   21 type  2   force =     0.00000243    0.00000000   -0.00049598
     atom   22 type  2   force =     0.00000000    0.00000000    0.00017221
     atom   23 type  2   force =    -0.00038818    0.00000000   -0.00016097
     atom   24 type  2   force =     0.00038818    0.00000000   -0.00016097

     Total force =     0.001329     Total SCF correction =     0.002153
     SCF correction compared to forces is large: reduce conv_thr to get better values


     Computing stress (Cartesian axis) and pressure

          total   stress  (Ry/bohr**3)                   (kbar)     P=       -0.16
  -0.00000100   0.00000000   0.00000000           -0.15        0.00        0.00
   0.00000000  -0.00000086   0.00000000            0.00       -0.13        0.00
   0.00000000   0.00000000  -0.00000143            0.00        0.00       -0.21


     BFGS Geometry Optimization
     Energy error            =      0.0E+00 Ry
     Gradient error          =      5.4E-04 Ry/Bohr
     Cell gradient error     =      1.5E-01 kbar

     bfgs converged in   1 scf cycles and   0 bfgs steps
     (criteria: energy <  1.0E-04 Ry, force <  1.0E-03 Ry/Bohr, cell <  5.0E-01 kbar)

     End of BFGS Geometry Optimization

     Final enthalpy           =   -1437.2503717002 Ry
Begin final coordinates
     new unit-cell volume =   4545.04059 a.u.^3 (   673.50553 Ang^3 )
     density =      1.57527 g/cm^3

CELL_PARAMETERS (angstrom)
   6.502766464   0.000000000   0.000000000
   0.000000000   2.961493854   0.000000000
   0.000000000   0.000000000  34.972942352

ATOMIC_POSITIONS (angstrom)
Ti               3.2513830380        0.0000000000       13.3470461998
Ti               0.0000000000        1.4807468392       12.8191708959
Ti               0.0000000000        0.0000000000       16.1548315287
Ti               3.2513830380        1.4807468392       16.6071917999
Ti               3.2513830380        0.0000000000       20.0880811136
Ti               0.0000000000        1.4807468392       19.6312593093
Ti               0.0000000000        0.0000000000       22.8907052689
Ti               3.2513830380        1.4807468392       23.4223009798
O                0.0000000000        0.0000000000       11.7535613790
O                3.2513830380        0.0000000000       15.1411926766
O                0.0000000000        0.0000000000       14.3430311025
O                2.0228766407        1.4807468392       12.9706235683
O                4.4798896294        1.4807468392       12.9706235683
O                0.0000000000        0.0000000000       18.4972480004
O                3.2513830380        0.0000000000       17.7410308901
O                5.2269155552        1.4807469272       16.4040769497
O                1.2758509081        1.4807469272       16.4040769497
O                3.2513830380        0.0000000000       21.8991088646
O                0.0000000000        0.0000000000       21.0955737467
O                1.9750875505        1.4807468392       19.8417019316
O                4.5276787196        1.4807468392       19.8417019316
O                3.2513830380        0.0000000000       24.4877159895
O                5.2751201865        1.4807469272       23.2711632322
O                1.2276462768        1.4807469272       23.2711632322
End final coordinates



     Writing config-only to output data dir ./Out/pwscf.save/

     Final scf calculation at the relaxed structure.
     The G-vectors are recalculated for the final unit cell
     Results may differ from those at the preceding step.
 
     G-vector sticks info
     --------------------
     sticks:   dense  smooth     PW     G-vecs:    dense   smooth      PW
     Sum        2623    2623    733               807147   807147  117303
 
     Using Slab Decomposition
 


     bravais-lattice index     =            0
     lattice parameter (alat)  =      12.2884  a.u.
     unit-cell volume          =    4545.0406 (a.u.)^3
     number of atoms/cell      =           24
     number of atomic types    =            2
     number of electrons       =       192.00
     number of Kohn-Sham states=          115
     kinetic-energy cutoff     =     120.0000  Ry
     charge density cutoff     =     480.0000  Ry
     scf convergence threshold =      1.0E-06
     mixing beta               =       0.4000
     number of iterations used =           20  plain     mixing
     press convergence thresh. =      5.0E-01
     Exchange-correlation= PBE
                           (   1   4   3   4   0   0   0)

     GPU acceleration is ACTIVE.


     celldm(1)=  12.288448  celldm(2)=   0.000000  celldm(3)=   0.000000
     celldm(4)=   0.000000  celldm(5)=   0.000000  celldm(6)=   0.000000

     crystal axes: (cart. coord. in units of alat)
               a(1) = (   1.000000   0.000000   0.000000 )  
               a(2) = (   0.000000   0.455421   0.000000 )  
               a(3) = (   0.000000   0.000000   5.378164 )  

     reciprocal axes: (cart. coord. in units 2 pi/alat)
               b(1) = (  1.000000  0.000000  0.000000 )  
               b(2) = (  0.000000  2.195772  0.000000 )  
               b(3) = (  0.000000  0.000000  0.185937 )  


     PseudoPot. # 1 for Ti read from file:
     /cm/shared/apps/KO/pseudo/sg15/Ti_ONCV_PBE-1.2.upf
     MD5 check sum: 1aea57736bd12dcfee93c97d0b9b5968
     Pseudo is Norm-conserving, Zval = 12.0
     Generated using ONCVPSP code by D. R. Hamann
     Using radial grid of  602 points,  6 beta functions with: 
                l(1) =   0
                l(2) =   0
                l(3) =   1
                l(4) =   1
                l(5) =   2
                l(6) =   2

     PseudoPot. # 2 for O  read from file:
     /cm/shared/apps/KO/pseudo/sg15/O_ONCV_PBE-1.2.upf
     MD5 check sum: e36c48deb68f4e355fffe4602be2c42c
     Pseudo is Norm-conserving, Zval =  6.0
     Generated using ONCVPSP code by D. R. Hamann
     Using radial grid of  602 points,  4 beta functions with: 
                l(1) =   0
                l(2) =   0
                l(3) =   1
                l(4) =   1

     atomic species   valence    mass     pseudopotential
     Ti               12.00    47.86700     Ti( 1.00)
     O                 6.00    15.99900     O ( 1.00)

      4 Sym. Ops. (no inversion) found



   Cartesian axes

     site n.     atom                  positions (alat units)
         1        Ti     tau(   1) = (   0.5000000   0.0000000   2.0525182  )
         2        Ti     tau(   2) = (   0.0000000   0.2277103   1.9713411  )
         3        Ti     tau(   3) = (   0.0000000   0.0000000   2.4843014  )
         4        Ti     tau(   4) = (   0.5000000   0.2277103   2.5538656  )
         5        Ti     tau(   5) = (   0.5000000   0.0000000   3.0891592  )
         6        Ti     tau(   6) = (   0.0000000   0.2277103   3.0189089  )
         7        Ti     tau(   7) = (   0.0000000   0.0000000   3.5201488  )
         8        Ti     tau(   8) = (   0.5000000   0.2277103   3.6018979  )
         9        O      tau(   9) = (   0.0000000   0.0000000   1.8074709  )
        10        O      tau(  10) = (   0.5000000   0.0000000   2.3284233  )
        11        O      tau(  11) = (   0.0000000   0.0000000   2.2056814  )
        12        O      tau(  12) = (   0.3110794   0.2277103   1.9946316  )
        13        O      tau(  13) = (   0.6889206   0.2277103   1.9946316  )
        14        O      tau(  14) = (   0.0000000   0.0000000   2.8445198  )
        15        O      tau(  15) = (   0.5000000   0.0000000   2.7282282  )
        16        O      tau(  16) = (   0.8037987   0.2277103   2.5226305  )
        17        O      tau(  17) = (   0.1962012   0.2277103   2.5226305  )
        18        O      tau(  18) = (   0.5000000   0.0000000   3.3676604  )
        19        O      tau(  19) = (   0.0000000   0.0000000   3.2440922  )
        20        O      tau(  20) = (   0.3037304   0.2277103   3.0512709  )
        21        O      tau(  21) = (   0.6962696   0.2277103   3.0512709  )
        22        O      tau(  22) = (   0.5000000   0.0000000   3.7657382  )
        23        O      tau(  23) = (   0.8112117   0.2277103   3.5786558  )
        24        O      tau(  24) = (   0.1887883   0.2277103   3.5786558  )

     number of k points=    15  Gaussian smearing, width (Ry)=  0.0200
                       cart. coord. in units 2pi/alat
        k(    1) = (   0.0000000   0.0000000   0.0000000), wk =   0.0555556
        k(    2) = (   0.0000000   0.2439747   0.0000000), wk =   0.1111111
        k(    3) = (   0.0000000   0.4879494   0.0000000), wk =   0.1111111
        k(    4) = (   0.0000000   0.7319241   0.0000000), wk =   0.1111111
        k(    5) = (   0.0000000   0.9758988   0.0000000), wk =   0.1111111
        k(    6) = (   0.2500000   0.0000000   0.0000000), wk =   0.1111111
        k(    7) = (   0.2500000   0.2439747   0.0000000), wk =   0.2222222
        k(    8) = (   0.2500000   0.4879494   0.0000000), wk =   0.2222222
        k(    9) = (   0.2500000   0.7319241   0.0000000), wk =   0.2222222
        k(   10) = (   0.2500000   0.9758988   0.0000000), wk =   0.2222222
        k(   11) = (  -0.5000000   0.0000000   0.0000000), wk =   0.0555556
        k(   12) = (  -0.5000000   0.2439747   0.0000000), wk =   0.1111111
        k(   13) = (  -0.5000000   0.4879494   0.0000000), wk =   0.1111111
        k(   14) = (  -0.5000000   0.7319241   0.0000000), wk =   0.1111111
        k(   15) = (  -0.5000000   0.9758988   0.0000000), wk =   0.1111111

     Dense  grid:   807147 G-vectors     FFT dimensions: (  90,  40, 480)

     Estimated max dynamical RAM per process >       4.64 GB

     Initial potential from superposition of free atoms

     starting charge     191.1069, renormalised to     192.0000

     negative rho (up, down):  9.844E-04 0.000E+00
     Starting wfcs are random

     total cpu time spent up to now is       97.3 secs

     Self-consistent Calculation

     iteration #  1     ecut=   120.00 Ry     beta= 0.40
     Davidson diagonalization with overlap
     c_bands:  3 eigenvalues not converged
     c_bands:  2 eigenvalues not converged
     c_bands:  2 eigenvalues not converged
     c_bands:  3 eigenvalues not converged
     c_bands:  3 eigenvalues not converged
     c_bands:  2 eigenvalues not converged
     c_bands:  1 eigenvalues not converged
     c_bands:  1 eigenvalues not converged
     c_bands:  3 eigenvalues not converged
     c_bands:  2 eigenvalues not converged
     c_bands:  1 eigenvalues not converged
     c_bands:  1 eigenvalues not converged
     ethr =  1.00E-06,  avg # of iterations = 59.7

     negative rho (up, down):  5.468E-04 0.000E+00

     total cpu time spent up to now is      129.0 secs

     total energy              =   -1434.00142251 Ry
     estimated scf accuracy    <      10.77180847 Ry

     iteration #  2     ecut=   120.00 Ry     beta= 0.40
     Davidson diagonalization with overlap
     ethr =  5.61E-03,  avg # of iterations =  4.1

     negative rho (up, down):  3.777E-04 0.000E+00

     total cpu time spent up to now is      133.7 secs

     total energy              =   -1435.73743294 Ry
     estimated scf accuracy    <       5.71531993 Ry

     iteration #  3     ecut=   120.00 Ry     beta= 0.40
     Davidson diagonalization with overlap
     ethr =  2.98E-03,  avg # of iterations =  4.0

     negative rho (up, down):  2.957E-04 0.000E+00

     total cpu time spent up to now is      138.2 secs

     total energy              =   -1437.07254369 Ry
     estimated scf accuracy    <       1.28716633 Ry

     iteration #  4     ecut=   120.00 Ry     beta= 0.40
     Davidson diagonalization with overlap
     ethr =  6.70E-04,  avg # of iterations =  2.8

     negative rho (up, down):  1.910E-04 0.000E+00

     total cpu time spent up to now is      142.4 secs

     total energy              =   -1437.19787330 Ry
     estimated scf accuracy    <       0.22391441 Ry

     iteration #  5     ecut=   120.00 Ry     beta= 0.40
     Davidson diagonalization with overlap
     ethr =  1.17E-04,  avg # of iterations =  7.9

     negative rho (up, down):  7.521E-05 0.000E+00

     total cpu time spent up to now is      147.6 secs

     total energy              =   -1437.23567097 Ry
     estimated scf accuracy    <       0.05487131 Ry

     iteration #  6     ecut=   120.00 Ry     beta= 0.40
     Davidson diagonalization with overlap
     c_bands:  1 eigenvalues not converged
     ethr =  2.86E-05,  avg # of iterations = 13.9

     negative rho (up, down):  1.715E-05 0.000E+00

     total cpu time spent up to now is      153.9 secs

     total energy              =   -1437.24894080 Ry
     estimated scf accuracy    <       0.02940149 Ry

     iteration #  7     ecut=   120.00 Ry     beta= 0.40
     Davidson diagonalization with overlap
     ethr =  1.53E-05,  avg # of iterations =  2.0

     negative rho (up, down):  4.241E-06 0.000E+00

     total cpu time spent up to now is      158.0 secs

     total energy              =   -1437.24925436 Ry
     estimated scf accuracy    <       0.00835396 Ry

     iteration #  8     ecut=   120.00 Ry     beta= 0.40
     Davidson diagonalization with overlap
     c_bands:  2 eigenvalues not converged
     ethr =  4.35E-06,  avg # of iterations = 11.6

     negative rho (up, down):  2.248E-06 0.000E+00

     total cpu time spent up to now is      163.6 secs

     total energy              =   -1437.25001785 Ry
     estimated scf accuracy    <       0.00183713 Ry

     iteration #  9     ecut=   120.00 Ry     beta= 0.40
     Davidson diagonalization with overlap
     ethr =  9.57E-07,  avg # of iterations =  9.2

     negative rho (up, down):  9.248E-07 0.000E+00

     total cpu time spent up to now is      169.0 secs

     total energy              =   -1437.25028470 Ry
     estimated scf accuracy    <       0.00028874 Ry

     iteration # 10     ecut=   120.00 Ry     beta= 0.40
     Davidson diagonalization with overlap
     ethr =  1.50E-07,  avg # of iterations =  6.0

     negative rho (up, down):  3.871E-07 0.000E+00

     total cpu time spent up to now is      174.1 secs

     total energy              =   -1437.25035542 Ry
     estimated scf accuracy    <       0.00015284 Ry

     iteration # 11     ecut=   120.00 Ry     beta= 0.40
     Davidson diagonalization with overlap
     ethr =  7.96E-08,  avg # of iterations =  3.5

     negative rho (up, down):  6.724E-08 0.000E+00

     total cpu time spent up to now is      178.5 secs

     total energy              =   -1437.25035917 Ry
     estimated scf accuracy    <       0.00002987 Ry

     iteration # 12     ecut=   120.00 Ry     beta= 0.40
     Davidson diagonalization with overlap
     ethr =  1.56E-08,  avg # of iterations =  6.0

     total cpu time spent up to now is      183.8 secs

     total energy              =   -1437.25037039 Ry
     estimated scf accuracy    <       0.00002184 Ry

     iteration # 13     ecut=   120.00 Ry     beta= 0.40
     Davidson diagonalization with overlap
     ethr =  1.14E-08,  avg # of iterations =  2.5

     negative rho (up, down):  1.991E-08 0.000E+00

     total cpu time spent up to now is      188.0 secs

     total energy              =   -1437.25037038 Ry
     estimated scf accuracy    <       0.00000520 Ry

     iteration # 14     ecut=   120.00 Ry     beta= 0.40
     Davidson diagonalization with overlap
     ethr =  2.71E-09,  avg # of iterations =  5.9

     negative rho (up, down):  1.641E-08 0.000E+00

     total cpu time spent up to now is      193.1 secs

     total energy              =   -1437.25037192 Ry
     estimated scf accuracy    <       0.00000155 Ry

     iteration # 15     ecut=   120.00 Ry     beta= 0.40
     Davidson diagonalization with overlap
     ethr =  8.05E-10,  avg # of iterations =  2.5

     total cpu time spent up to now is      197.1 secs

     End of self-consistent calculation

          k = 0.0000 0.0000 0.0000 (100911 PWs)   bands (ev):

   -58.0414 -58.0391 -57.9288 -57.9274 -57.8057 -57.8045 -57.5164 -57.5159
   -34.3633 -34.3609 -34.2668 -34.2629 -34.2580 -34.2574 -34.1882 -34.1871
   -34.1513 -34.1489 -34.0694 -34.0669 -34.0414 -34.0397 -34.0039 -34.0028
   -33.9124 -33.9113 -33.8036 -33.8029 -33.7665 -33.7665 -33.5833 -33.5828
   -19.0727 -18.8592 -18.6427 -18.5693 -18.4246 -18.1766 -17.8738 -17.8619
   -17.7360 -17.6676 -17.4247 -17.3958 -17.3665 -17.3557 -17.1042 -17.0992
    -6.6090  -6.4903  -6.4597  -6.4531  -6.2300  -6.2038  -5.6346  -5.3125
    -5.2810  -5.2743  -5.0145  -4.9866  -4.6848  -4.6745  -4.6508  -4.6395
    -4.5292  -4.4763  -4.4727  -4.2956  -4.0621  -3.7758  -3.6730  -3.6728
    -3.5540  -3.5282  -3.4700  -3.3321  -3.2050  -3.1483  -3.0853  -3.0266
    -2.8602  -2.7850  -2.7469  -2.7201  -2.5190  -2.4684  -2.4513  -2.3113
    -2.1371  -2.1246  -2.1023  -2.0895  -1.6543  -1.6166  -1.4321  -1.2394
     0.9329   0.9625   1.0364   1.0428   1.4204   1.4261   1.4921   1.5481
     1.6304   1.8284   1.8468   1.8470   2.0941   2.2370   2.2651   2.4031
     2.5346   2.5412   2.5528

          k = 0.0000 0.2440 0.0000 (100941 PWs)   bands (ev):

   -58.0367 -58.0343 -57.9241 -57.9228 -57.8012 -57.7999 -57.5114 -57.5109
   -34.3516 -34.3493 -34.2624 -34.2617 -34.2589 -34.2552 -34.1984 -34.1961
   -34.1758 -34.1746 -34.0650 -34.0625 -34.0566 -34.0555 -34.0338 -34.0321
   -33.9641 -33.9629 -33.7973 -33.7966 -33.7636 -33.7636 -33.6387 -33.6381
   -18.9534 -18.7509 -18.5416 -18.4708 -18.3334 -18.1033 -17.8105 -17.7772
   -17.7507 -17.7069 -17.4703 -17.4427 -17.4131 -17.4030 -17.1323 -17.1280
    -6.4497  -6.3505  -6.3124  -6.3059  -6.1063  -6.0676  -5.5184  -5.3097
    -5.2993  -5.2617  -5.1919  -5.1367  -5.0698  -4.9207  -4.9158  -4.7824
    -4.4869  -4.3992  -4.1851  -4.0874  -4.0003  -3.6563  -3.5721  -3.5460
    -3.4351  -3.3836  -3.2735  -3.2103  -3.1887  -3.1718  -3.1425  -3.1257
    -3.0031  -2.9786  -2.8612  -2.7880  -2.7857  -2.5432  -2.5418  -2.4715
    -2.3313  -2.2821  -2.2168  -2.1224  -1.8740  -1.8417  -1.4652  -1.3054
     1.0221   1.0279   1.1288   1.1547   1.3310   1.3410   1.4672   1.5450
     1.6536   1.7762   2.0386   2.0917   2.1193   2.1467   2.4019   2.4391
     2.4658   2.6002   2.7738

          k = 0.0000 0.4879 0.0000 (100905 PWs)   bands (ev):

   -58.0246 -58.0222 -57.9124 -57.9111 -57.7896 -57.7884 -57.4989 -57.4984
   -34.3611 -34.3585 -34.3165 -34.3152 -34.2394 -34.2370 -34.2360 -34.2360
   -34.1841 -34.1832 -34.1440 -34.1427 -34.0965 -34.0952 -34.0504 -34.0479
   -34.0136 -34.0124 -33.8237 -33.8231 -33.7564 -33.7564 -33.7333 -33.7326
   -18.6376 -18.4758 -18.2863 -18.2200 -18.1045 -17.9794 -17.8139 -17.8023
   -17.5940 -17.5866 -17.5829 -17.5621 -17.5317 -17.5232 -17.1840 -17.1821
    -6.0371  -5.9981  -5.9278  -5.9240  -5.8278  -5.7578  -5.5654  -5.4781
    -5.3113  -5.2989  -5.2106  -5.2030  -5.1883  -5.0879  -5.0298  -4.8553
    -4.6475  -4.6441  -4.1169  -4.0338  -3.9482  -3.8920  -3.8528  -3.6905
    -3.6547  -3.5217  -3.4415  -3.3113  -3.2354  -3.2198  -3.1063  -3.0386
    -3.0046  -2.9482  -2.7807  -2.7612  -2.6471  -2.6138  -2.5658  -2.5443
    -2.5295  -2.5012  -2.4841  -2.4146  -2.2558  -2.1655  -1.5874  -1.5469
     1.0981   1.1144   1.2908   1.3517   1.3694   1.4515   1.6193   1.6595
     1.7155   1.9106   2.0375   2.1678   2.2144   2.3331   2.3501   2.4187
     2.5755   2.6042   2.7945

          k = 0.0000 0.7319 0.0000 (100882 PWs)   bands (ev):

   -58.0108 -58.0084 -57.8990 -57.8977 -57.7764 -57.7752 -57.4845 -57.4841
   -34.5074 -34.5047 -34.3405 -34.3396 -34.2809 -34.2796 -34.2398 -34.2380
   -34.2239 -34.2201 -34.2181 -34.2151 -34.1070 -34.1055 -34.0435 -34.0411
   -33.9896 -33.9886 -33.9614 -33.9606 -33.7488 -33.7487 -33.7242 -33.7236
   -18.2362 -18.1943 -18.0890 -17.9376 -17.9352 -17.8678 -17.8356 -17.7200
   -17.6989 -17.6950 -17.6676 -17.6605 -17.4964 -17.4842 -17.1300 -17.1292
    -5.7058  -5.7037  -5.6835  -5.6174  -5.5463  -5.5111  -5.4975  -5.3791
    -5.3612  -5.3337  -5.2752  -5.2518  -5.2456  -5.1989  -5.1355  -4.9092
    -4.5461  -4.5239  -4.5140  -4.3137  -4.2931  -4.2751  -4.1522  -4.0976
    -3.7171  -3.5266  -3.5085  -3.4217  -3.3216  -3.2669  -3.1355  -3.1044
    -3.0324  -2.9879  -2.9821  -2.8351  -2.7664  -2.5762  -2.5641  -2.5033
    -2.4251  -2.3930  -2.3896  -2.2158  -2.2112  -2.2001  -2.0079  -1.9402
     1.3984   1.4157   1.4567   1.5185   1.5728   1.6937   1.7493   1.8417
     1.8472   1.9068   2.0489   2.0510   2.1599   2.2491   2.4373   2.5479
     2.6247   2.6400   2.6878

          k = 0.0000 0.9759 0.0000 (100884 PWs)   bands (ev):

   -58.0017 -57.9993 -57.8903 -57.8889 -57.7678 -57.7665 -57.4752 -57.4747
   -34.6038 -34.6010 -34.4330 -34.4322 -34.3315 -34.3297 -34.2496 -34.2490
   -34.2266 -34.2240 -34.2047 -34.2019 -34.0822 -34.0810 -34.0807 -34.0798
   -34.0165 -34.0144 -33.9732 -33.9724 -33.7441 -33.7440 -33.7076 -33.7070
   -18.1440 -18.1338 -17.8808 -17.8077 -17.7887 -17.7695 -17.7569 -17.7536
   -17.7504 -17.7177 -17.6950 -17.6819 -17.5176 -17.5096 -17.0075 -17.0063
    -6.0113  -5.7912  -5.7001  -5.5863  -5.5662  -5.4862  -5.3368  -5.2937
    -5.2695  -5.2593  -5.2212  -5.1826  -5.1266  -5.1176  -5.1119  -4.9647
    -4.7412  -4.6316  -4.5290  -4.4657  -4.3071  -4.2177  -3.8580  -3.7891
    -3.7771  -3.7695  -3.7051  -3.6261  -3.5783  -3.4517  -3.3478  -3.3291
    -3.1236  -2.9172  -2.8971  -2.7197  -2.6366  -2.6251  -2.4816  -2.3785
    -2.3503  -2.3138  -2.2861  -2.2718  -2.2375  -2.2051  -2.1922  -2.0596
     1.2968   1.6144   1.6690   1.7908   1.8287   1.8575   1.9533   1.9668
     2.0134   2.0280   2.1576   2.1765   2.2990   2.3139   2.3151   2.5086
     2.5154   2.5257   2.5521

          k = 0.2500 0.0000 0.0000 (100949 PWs)   bands (ev):

   -58.0414 -58.0390 -57.9287 -57.9274 -57.8058 -57.8045 -57.5164 -57.5159
   -34.3633 -34.3613 -34.2584 -34.2577 -34.2538 -34.2501 -34.1827 -34.1815
   -34.1511 -34.1487 -34.0695 -34.0671 -34.0544 -34.0530 -34.0039 -34.0027
   -33.9125 -33.9114 -33.8035 -33.8028 -33.7725 -33.7725 -33.5834 -33.5828
   -18.9782 -18.7747 -18.5378 -18.5019 -18.4323 -18.2249 -17.9461 -17.9400
   -17.7252 -17.6742 -17.4938 -17.4706 -17.4175 -17.4137 -17.1000 -17.0971
    -6.4252  -6.2703  -6.2183  -6.2021  -6.1813  -6.1056  -5.4336  -5.2790
    -5.2742  -5.1389  -5.0140  -4.9931  -4.6371  -4.6317  -4.6124  -4.5977
    -4.5103  -4.4751  -4.4719  -4.3369  -4.3055  -4.0452  -3.9520  -3.7645
    -3.7162  -3.6652  -3.3435  -3.2931  -3.1832  -3.1775  -3.0650  -3.0308
    -2.8866  -2.8430  -2.8252  -2.7428  -2.6239  -2.5461  -2.5025  -2.4154
    -2.3538  -2.2222  -2.2175  -2.2070  -2.0467  -1.9397  -1.5608  -1.3988
     1.2131   1.2429   1.3358   1.3387   1.4658   1.5398   1.5882   1.5905
     1.8296   1.8306   1.8419   1.9597   2.2478   2.3133   2.4326   2.5043
     2.5437   2.5491   2.6206

          k = 0.2500 0.2440 0.0000 (100908 PWs)   bands (ev):

   -58.0367 -58.0343 -57.9241 -57.9228 -57.8012 -57.8000 -57.5114 -57.5110
   -34.3516 -34.3496 -34.2626 -34.2620 -34.2482 -34.2450 -34.1985 -34.1963
   -34.1709 -34.1696 -34.0648 -34.0624 -34.0571 -34.0560 -34.0452 -34.0439
   -33.9633 -33.9622 -33.7973 -33.7966 -33.7684 -33.7683 -33.6386 -33.6381
   -18.8640 -18.6716 -18.4413 -18.4068 -18.3391 -18.1464 -17.8658 -17.8637
   -17.7549 -17.7126 -17.5347 -17.5146 -17.4546 -17.4506 -17.1280 -17.1255
    -6.2716  -6.1422  -6.0769  -6.0566  -6.0337  -5.9678  -5.4061  -5.3178
    -5.3063  -5.2454  -5.0848  -5.0525  -4.9881  -4.8546  -4.8500  -4.7650
    -4.5541  -4.4030  -4.3139  -4.1125  -3.9292  -3.9146  -3.7535  -3.6578
    -3.5625  -3.4982  -3.4757  -3.4042  -3.2167  -3.1913  -3.1422  -3.1233
    -3.0296  -3.0267  -2.9033  -2.8755  -2.8406  -2.8033  -2.6516  -2.5950
    -2.4386  -2.3921  -2.1464  -2.0644  -2.0564  -1.9571  -1.5723  -1.4345
     1.2186   1.2227   1.3303   1.3583   1.4436   1.4826   1.5363   1.5818
     1.7435   1.7904   2.0735   2.1673   2.1837   2.2040   2.5346   2.5539
     2.5928   2.6641   2.6939

          k = 0.2500 0.4879 0.0000 (100862 PWs)   bands (ev):

   -58.0246 -58.0222 -57.9124 -57.9111 -57.7896 -57.7884 -57.4989 -57.4984
   -34.3611 -34.3586 -34.3167 -34.3155 -34.2384 -34.2371 -34.2363 -34.2331
   -34.1852 -34.1843 -34.1406 -34.1392 -34.0915 -34.0903 -34.0504 -34.0479
   -34.0206 -34.0195 -33.8238 -33.8231 -33.7587 -33.7586 -33.7330 -33.7324
   -18.5658 -18.4159 -18.2048 -18.1711 -18.1065 -18.0038 -17.8105 -17.7948
   -17.7148 -17.7123 -17.6262 -17.6202 -17.5108 -17.5068 -17.1798 -17.1785
    -5.8878  -5.8698  -5.7192  -5.7067  -5.6699  -5.6623  -5.4653  -5.4638
    -5.3403  -5.2702  -5.2347  -5.2113  -5.1137  -5.0629  -4.8943  -4.8371
    -4.7146  -4.3371  -4.2127  -4.1064  -4.0494  -4.0108  -3.9145  -3.8810
    -3.7720  -3.6623  -3.5757  -3.4857  -3.4438  -3.3527  -3.2284  -3.2193
    -3.0739  -3.0690  -2.9572  -2.9297  -2.8307  -2.7662  -2.6313  -2.6219
    -2.3758  -2.3580  -2.2517  -2.2255  -2.1877  -2.0411  -1.6563  -1.5956
     1.1472   1.1521   1.2699   1.3123   1.5049   1.5959   1.7178   1.7417
     1.7556   1.7775   2.0663   2.1165   2.3305   2.3813   2.4185   2.4480
     2.6843   2.7228   2.7772

          k = 0.2500 0.7319 0.0000 (100901 PWs)   bands (ev):

   -58.0108 -58.0084 -57.8990 -57.8977 -57.7764 -57.7752 -57.4845 -57.4841
   -34.5076 -34.5050 -34.3424 -34.3414 -34.2814 -34.2796 -34.2636 -34.2619
   -34.2240 -34.2229 -34.1886 -34.1867 -34.1064 -34.1050 -34.0432 -34.0407
   -33.9924 -33.9914 -33.9606 -33.9598 -33.7484 -33.7483 -33.7242 -33.7235
   -18.2092 -18.1776 -18.0752 -17.9544 -17.9371 -17.9159 -17.8436 -17.7640
   -17.7018 -17.6982 -17.6618 -17.6318 -17.4869 -17.4793 -17.1299 -17.1292
    -5.7183  -5.6658  -5.6195  -5.5512  -5.5310  -5.4700  -5.4115  -5.3546
    -5.3476  -5.3064  -5.2088  -5.2069  -5.1449  -5.1339  -5.0871  -5.0247
    -4.6839  -4.5097  -4.4474  -4.3843  -4.2963  -4.1951  -4.0318  -3.9618
    -3.8270  -3.6180  -3.5833  -3.4751  -3.4455  -3.2999  -3.2779  -3.2629
    -3.1467  -3.0683  -3.0672  -2.8486  -2.6528  -2.6259  -2.5629  -2.5279
    -2.5093  -2.4084  -2.3664  -2.2756  -2.1072  -2.0352  -1.9438  -1.9015
     1.2245   1.2834   1.3221   1.3574   1.6090   1.7359   1.7407   1.8510
     1.9035   1.9389   1.9914   2.0561   2.2339   2.3338   2.4671   2.4777
     2.6222   2.6336   2.8052

          k = 0.2500 0.9759 0.0000 (100928 PWs)   bands (ev):

   -58.0017 -57.9993 -57.8903 -57.8889 -57.7678 -57.7665 -57.4752 -57.4747
   -34.6040 -34.6014 -34.4349 -34.4341 -34.3425 -34.3410 -34.2495 -34.2491
   -34.2266 -34.2246 -34.1921 -34.1897 -34.0942 -34.0929 -34.0692 -34.0677
   -34.0161 -34.0141 -33.9733 -33.9724 -33.7420 -33.7419 -33.7076 -33.7070
   -18.1409 -18.1346 -17.9850 -17.9648 -17.9182 -17.9132 -17.7815 -17.7178
   -17.6105 -17.6089 -17.5579 -17.5441 -17.5126 -17.5080 -17.0078 -17.0067
    -5.9605  -5.9391  -5.7857  -5.7240  -5.5947  -5.5897  -5.5827  -5.3734
    -5.2455  -5.2192  -5.1799  -5.0619  -5.0376  -5.0371  -4.9428  -4.9279
    -4.6099  -4.4633  -4.3232  -4.3205  -4.2411  -4.1917  -3.9079  -3.8608
    -3.8510  -3.7618  -3.7092  -3.6679  -3.4864  -3.4818  -3.3644  -3.2083
    -3.1022  -2.9983  -2.8850  -2.7754  -2.5989  -2.5548  -2.4870  -2.4580
    -2.4404  -2.4248  -2.3447  -2.3386  -2.3180  -2.2880  -2.0266  -1.9362
     1.2354   1.3333   1.4024   1.5115   1.5473   1.7510   1.9483   1.9773
     2.0738   2.0776   2.0929   2.2437   2.2489   2.3461   2.3935   2.4186
     2.5614   2.7030   2.7072

          k =-0.5000 0.0000 0.0000 (100818 PWs)   bands (ev):

   -58.0414 -58.0390 -57.9287 -57.9274 -57.8058 -57.8046 -57.5164 -57.5159
   -34.3633 -34.3616 -34.2584 -34.2580 -34.2385 -34.2363 -34.1771 -34.1758
   -34.1510 -34.1486 -34.0705 -34.0699 -34.0680 -34.0658 -34.0038 -34.0027
   -33.9126 -33.9115 -33.8034 -33.8027 -33.7788 -33.7787 -33.5835 -33.5829
   -18.7798 -18.7758 -18.4356 -18.4342 -18.2986 -18.2967 -18.0889 -18.0878
   -17.6930 -17.6912 -17.5742 -17.5732 -17.4513 -17.4500 -17.0975 -17.0961
    -6.3168  -6.3111  -5.8591  -5.8570  -5.8510  -5.8466  -5.2964  -5.2925
    -5.0092  -5.0027  -4.9389  -4.9358  -4.7466  -4.7422  -4.5923  -4.5864
    -4.5610  -4.5589  -4.4732  -4.4703  -4.1508  -4.1488  -3.9271  -3.9260
    -3.8614  -3.8602  -3.8072  -3.8063  -3.2800  -3.2769  -3.0879  -3.0834
    -2.9659  -2.9637  -2.8427  -2.8407  -2.6393  -2.6369  -2.5036  -2.5025
    -2.3000  -2.2978  -2.2881  -2.2827  -1.9030  -1.9019  -1.8015  -1.7980
     1.4432   1.4484   1.4935   1.4958   1.5702   1.5704   1.7217   1.7219
     1.8382   1.8395   2.1848   2.1867   2.3609   2.3618   2.4010   2.4075
     2.5654   2.6380   2.6423

          k =-0.5000 0.2440 0.0000 (100834 PWs)   bands (ev):

   -58.0366 -58.0342 -57.9241 -57.9228 -57.8012 -57.8000 -57.5114 -57.5110
   -34.3516 -34.3499 -34.2627 -34.2622 -34.2359 -34.2337 -34.1988 -34.1966
   -34.1659 -34.1645 -34.0639 -34.0616 -34.0584 -34.0576 -34.0576 -34.0565
   -33.9628 -33.9616 -33.7972 -33.7965 -33.7733 -33.7732 -33.6386 -33.6380
   -18.6763 -18.6724 -18.3436 -18.3426 -18.2084 -18.2067 -18.0137 -18.0133
   -17.7248 -17.7233 -17.6165 -17.6159 -17.4767 -17.4758 -17.1253 -17.1240
    -6.1757  -6.1702  -5.7175  -5.7128  -5.6975  -5.6961  -5.3376  -5.3371
    -5.2771  -5.2754  -4.8907  -4.8891  -4.7996  -4.7950  -4.7305  -4.7270
    -4.6163  -4.6128  -4.3471  -4.3452  -3.9721  -3.9699  -3.8757  -3.8757
    -3.6748  -3.6734  -3.6178  -3.6138  -3.4991  -3.4978  -3.3612  -3.3604
    -3.1347  -3.1291  -3.0089  -3.0079  -2.9045  -2.9014  -2.6481  -2.6437
    -2.2343  -2.2339  -2.1131  -2.1108  -1.8556  -1.8536  -1.7692  -1.7668
     1.3231   1.3257   1.4383   1.4450   1.6233   1.6275   1.6571   1.6597
     1.7729   1.7731   2.2301   2.2326   2.3259   2.3299   2.4854   2.4865
     2.7220   2.7224   2.7752

          k =-0.5000 0.4879 0.0000 (100756 PWs)   bands (ev):

   -58.0245 -58.0221 -57.9124 -57.9111 -57.7897 -57.7884 -57.4989 -57.4984
   -34.3611 -34.3587 -34.3169 -34.3158 -34.2384 -34.2377 -34.2336 -34.2317
   -34.1861 -34.1853 -34.1373 -34.1360 -34.0850 -34.0838 -34.0503 -34.0479
   -34.0290 -34.0281 -33.8238 -33.8231 -33.7610 -33.7609 -33.7328 -33.7322
   -18.4162 -18.4129 -18.1363 -18.1354 -17.9900 -17.9890 -17.8924 -17.8902
   -17.7730 -17.7722 -17.7115 -17.7104 -17.4990 -17.4975 -17.1767 -17.1758
    -5.8540  -5.8496  -5.5403  -5.5378  -5.4037  -5.4028  -5.3172  -5.3169
    -5.2499  -5.2496  -5.0951  -5.0948  -4.9203  -4.9189  -4.8973  -4.8957
    -4.6101  -4.6095  -4.2717  -4.2677  -4.2105  -4.2067  -3.9839  -3.9832
    -3.8405  -3.8355  -3.6570  -3.6528  -3.5034  -3.5014  -3.4058  -3.4056
    -3.2831  -3.2822  -3.2070  -3.2012  -2.9410  -2.9366  -2.6081  -2.6068
    -2.1515  -2.1493  -2.0624  -2.0615  -1.9318  -1.9301  -1.7834  -1.7823
     1.1692   1.1735   1.2647   1.2649   1.5991   1.5997   1.6582   1.6584
     1.8567   1.8592   2.2314   2.2377   2.3641   2.3647   2.5904   2.5908
     2.6695   2.6710   2.8451

          k =-0.5000 0.7319 0.0000 (100896 PWs)   bands (ev):

   -58.0107 -58.0084 -57.8990 -57.8977 -57.7764 -57.7752 -57.4845 -57.4841
   -34.5078 -34.5053 -34.3442 -34.3433 -34.2820 -34.2817 -34.2748 -34.2740
   -34.2240 -34.2231 -34.1721 -34.1701 -34.1059 -34.1044 -34.0428 -34.0404
   -33.9954 -33.9945 -33.9599 -33.9590 -33.7480 -33.7480 -33.7241 -33.7235
   -18.1654 -18.1634 -18.0417 -18.0382 -17.9303 -17.9264 -17.8246 -17.8228
   -17.7171 -17.7165 -17.6298 -17.6289 -17.4771 -17.4734 -17.1299 -17.1292
    -5.6677  -5.6657  -5.5886  -5.5880  -5.4836  -5.4835  -5.3544  -5.3507
    -5.2385  -5.2369  -5.1765  -5.1749  -5.0952  -5.0947  -4.8281  -4.8267
    -4.6780  -4.6737  -4.5595  -4.5580  -4.2011  -4.1981  -3.8722  -3.8699
    -3.7909  -3.7868  -3.6378  -3.6351  -3.4899  -3.4880  -3.2990  -3.2953
    -3.1878  -3.1861  -3.0602  -3.0544  -2.9129  -2.9104  -2.5208  -2.5207
    -2.3643  -2.3607  -2.2654  -2.2652  -1.9433  -1.9433  -1.8655  -1.8653
     1.0700   1.0712   1.1754   1.1778   1.6842   1.6861   1.7989   1.8002
     1.9855   1.9884   2.1456   2.1480   2.3343   2.3354   2.4583   2.4595
     2.5939   2.5945   2.9045

          k =-0.5000 0.9759 0.0000 (100940 PWs)   bands (ev):

   -58.0017 -57.9993 -57.8903 -57.8889 -57.7678 -57.7665 -57.4752 -57.4747
   -34.6043 -34.6017 -34.4368 -34.4360 -34.3520 -34.3508 -34.2494 -34.2493
   -34.2266 -34.2249 -34.1814 -34.1792 -34.0995 -34.0982 -34.0641 -34.0626
   -34.0157 -34.0137 -33.9733 -33.9725 -33.7398 -33.7397 -33.7076 -33.7070
   -18.1387 -18.1359 -18.0507 -18.0495 -17.9804 -17.9751 -17.7528 -17.7495
   -17.5470 -17.5467 -17.5247 -17.5210 -17.4586 -17.4579 -17.0082 -17.0071
    -6.0004  -5.9984  -5.8354  -5.8346  -5.7314  -5.7288  -5.4253  -5.4231
    -5.2732  -5.2727  -5.0245  -5.0228  -4.9749  -4.9740  -4.7417  -4.7379
    -4.6590  -4.6580  -4.2848  -4.2838  -4.0242  -4.0237  -3.8944  -3.8905
    -3.7896  -3.7864  -3.7492  -3.7453  -3.3828  -3.3818  -3.1161  -3.1144
    -3.0271  -3.0199  -2.9744  -2.9736  -2.7691  -2.7664  -2.5986  -2.5978
    -2.5251  -2.5247  -2.3210  -2.3203  -2.0821  -2.0806  -2.0186  -2.0171
     1.0216   1.0223   1.2741   1.2749   1.6830   1.6832   1.9614   1.9632
     2.0606   2.0644   2.1085   2.1119   2.2709   2.2709   2.4290   2.4297
     2.6603   2.6618   2.7661

     the Fermi energy is    -0.1606 ev

!    total energy              =   -1437.25037161 Ry
     estimated scf accuracy    <       0.00000046 Ry
     smearing contrib. (-TS)   =      -0.00000000 Ry
     internal energy E=F+TS    =   -1437.25037161 Ry

     The total energy is F=E-TS. E is the sum of the following terms:
     one-electron contribution =  -28824.60004275 Ry
     hartree contribution      =   14430.92044120 Ry
     xc contribution           =    -226.74002682 Ry
     ewald contribution        =   13183.16925676 Ry

     convergence has been achieved in  15 iterations

     Forces acting on atoms (cartesian axes, Ry/au):

     atom    1 type  1   force =     0.00000000    0.00000000    0.00009637
     atom    2 type  1   force =     0.00000000    0.00000000    0.00009245
     atom    3 type  1   force =     0.00000000    0.00000000   -0.00031382
     atom    4 type  1   force =     0.00000000    0.00000000    0.00018825
     atom    5 type  1   force =     0.00000000    0.00000000    0.00005861
     atom    6 type  1   force =     0.00000000    0.00000000    0.00022642
     atom    7 type  1   force =     0.00000000    0.00000000    0.00026123
     atom    8 type  1   force =     0.00000000    0.00000000    0.00004000
     atom    9 type  2   force =     0.00000000    0.00000000    0.00010393
     atom   10 type  2   force =     0.00000000    0.00000000    0.00017914
     atom   11 type  2   force =     0.00000000    0.00000000   -0.00014168
     atom   12 type  2   force =    -0.00014255    0.00000000   -0.00025155
     atom   13 type  2   force =     0.00014255    0.00000000   -0.00025155
     atom   14 type  2   force =     0.00000000    0.00000000    0.00030537
     atom   15 type  2   force =     0.00000000    0.00000000    0.00005840
     atom   16 type  2   force =     0.00003386    0.00000000   -0.00000572
     atom   17 type  2   force =    -0.00003386    0.00000000   -0.00000572
     atom   18 type  2   force =     0.00000000    0.00000000   -0.00010155
     atom   19 type  2   force =     0.00000000    0.00000000    0.00050801
     atom   20 type  2   force =    -0.00000920    0.00000000   -0.00050061
     atom   21 type  2   force =     0.00000920    0.00000000   -0.00050061
     atom   22 type  2   force =     0.00000000    0.00000000    0.00024097
     atom   23 type  2   force =    -0.00040941    0.00000000   -0.00014317
     atom   24 type  2   force =     0.00040941    0.00000000   -0.00014317

     Total force =     0.001345     Total SCF correction =     0.001494
     SCF correction compared to forces is large: reduce conv_thr to get better values


     Computing stress (Cartesian axis) and pressure

          total   stress  (Ry/bohr**3)                   (kbar)     P=       -0.16
  -0.00000090   0.00000000   0.00000000           -0.13        0.00        0.00
   0.00000000  -0.00000080   0.00000000            0.00       -0.12        0.00
   0.00000000   0.00000000  -0.00000155            0.00        0.00       -0.23


     Writing all to output data dir ./Out/pwscf.save/
 
     init_run     :     13.71s CPU     15.49s WALL (       2 calls)
     electrons    :    174.32s CPU    175.81s WALL (       2 calls)
     forces       :      2.62s CPU      2.47s WALL (       2 calls)
     stress       :      8.81s CPU      8.86s WALL (       2 calls)

     Called by init_run:
     wfcinit      :      8.44s CPU      9.89s WALL (       2 calls)
     potinit      :      0.12s CPU      0.10s WALL (       2 calls)
     hinit0       :      4.38s CPU      4.32s WALL (       2 calls)

     Called by electrons:
     c_bands      :    143.48s CPU    144.78s WALL (      28 calls)
     sum_band     :     27.28s CPU     27.37s WALL (      28 calls)
     v_of_rho     :      0.79s CPU      0.64s WALL (      30 calls)
     mix_rho      :      2.30s CPU      2.51s WALL (      28 calls)

     Called by c_bands:
     init_us_2    :      1.25s CPU      1.25s WALL (     930 calls)
     init_us_2:gp :      1.21s CPU      1.22s WALL (     930 calls)
     cegterg      :    112.81s CPU    113.94s WALL (     451 calls)

     Called by *egterg:
     cdiaghg      :     13.70s CPU     14.37s WALL (    4212 calls)
                                       14.34s GPU  (    4212 calls)
     h_psi        :     79.50s CPU     80.44s WALL (    4272 calls)
                                       80.31s GPU  (    4272 calls)
     g_psi        :      0.01s CPU      1.30s WALL (    3791 calls)
                                        1.27s GPU  (    3791 calls)

     Called by h_psi:
     h_psi:calbec :      0.22s CPU      3.89s WALL (    4272 calls)
                                        3.86s GPU  (    4272 calls)
     vloc_psi     :     69.15s CPU     69.97s WALL (    4272 calls)
                                       69.94s GPU  (    4272 calls)
     add_vuspsi   :      2.64s CPU      5.93s WALL (    4272 calls)
                                        5.90s GPU  (    4272 calls)

     General routines
     calbec       :      0.18s CPU      0.24s WALL (    4422 calls)
     fft          :      0.04s CPU      0.14s WALL (     314 calls)
                                        0.14s GPU  (     314 calls)
     ffts         :      0.00s CPU      0.00s WALL (      28 calls)
                                        0.00s GPU  (      28 calls)
     fftw         :      0.31s CPU     59.78s WALL (   32760 calls)
                                       59.56s GPU  (   32760 calls)
 
 
     PWSCF        :   3m20.38s CPU   3m24.93s WALL

 
   This run was terminated on:  13:46:23  23Jul2026            

=------------------------------------------------------------------------------=
   JOB DONE.
=------------------------------------------------------------------------------=
