../relax_1L_RuO2_both_side_on-6-layer-R-TiO2_101.vasp/output final
1.0
        5.4640631676         0.0000000000         0.0000000000
        0.0000000000         4.5936999321         0.0000000000
        0.0000000000         0.0000000000        41.6286010742
    O   Ru
    4    2
Cartesian
              2.6309367919        3.2429641653       11.6620815660
              5.3629687009        3.6475849117       11.6620815660
              4.9595785391        1.3599426841       13.1333598092
              2.2275471181        0.9369072139       13.1333585682
              3.8466633349       -0.1617014744       12.4062132747
              1.1146319139        2.4585511664       12.4062132747
