../relax_2L_RuO2_top_side_on-6-layer-R-TiO2_101.vasp/output final
1.0
        5.4640631676         0.0000000000         0.0000000000
        0.0000000000         4.5936999321         0.0000000000
        0.0000000000         0.0000000000        41.6286010742
    O   Ru
    8    4
Cartesian
              4.1206560395        3.2139760669       26.7291128465
              1.3886251065        3.6765730101       26.7291128465
              0.9292440065        1.3877483764       28.2481709032
              2.3742072739        3.2158777500       29.2851540406
              3.6612752645        0.9091015216       28.2481659402
              5.1062395099        3.6746716010       29.2851590026
              4.6795756802        1.3224354720       30.7402796047
              1.9475439332        0.9744144260       30.7402746417
              5.2533126245       -0.0249595648       27.5162175953
              2.5212812035        2.3218092568       27.5162175953
              3.4380767784        0.1270274245       30.0166176387
              0.7060455204        2.1698222675       30.0166176387
