
     Program PWSCF v.7.2 starts on 26Jul2026 at 15: 7:49 
        Git branch: krg.prod
        Last git commit: daa121e36ad33d2e2c57a5cfc9f193e3f68d7ebf
        Last git commit date: Wed Feb 25 11:53:28 2026 -0600
        Last git commit subject: use krg software repo instead

     This program is part of the open-source Quantum ESPRESSO suite
     for quantum simulation of materials; please cite
         "P. Giannozzi et al., J. Phys.:Condens. Matter 21 395502 (2009);
         "P. Giannozzi et al., J. Phys.:Condens. Matter 29 465901 (2017);
         "P. Giannozzi et al., J. Chem. Phys. 152 154105 (2020);
          URL http://www.quantum-espresso.org", 
     in publications or presentations arising from this work. More details at
     http://www.quantum-espresso.org/quote

     Serial multi-threaded version, running on    8 processor cores
     131441 MiB available memory on the printing compute node when the environment starts
 
     Waiting for input...
     Reading input from standard input
Warning: card &FCP ignored
Warning: card / ignored
Warning: card &RISM ignored
Warning: card / ignored

     Current dimensions of program PWSCF are:
     Max number of different atomic species (ntypx) = 10
     Max number of k-points (npk) =  40000
     Max angular momentum in pseudopotentials (lmaxx) =  4
     Message from routine setup:
     using ibrav=0 with symmetry is DISCOURAGED, use correct ibrav instead
 
 
     G-vector sticks info
     --------------------
     sticks:   dense  smooth     PW     G-vecs:    dense   smooth      PW
     Sum        3493    3493    931              1200515  1200515  168267
 
     Using Slab Decomposition
 


     bravais-lattice index     =            0
     lattice parameter (alat)  =      10.4226  a.u.
     unit-cell volume          =    6758.7230 (a.u.)^3
     number of atoms/cell      =           42
     number of atomic types    =            2
     number of electrons       =       336.00
     number of Kohn-Sham states=          202
     kinetic-energy cutoff     =     120.0000  Ry
     charge density cutoff     =     480.0000  Ry
     scf convergence threshold =      1.0E-06
     mixing beta               =       0.4000
     number of iterations used =           20  plain     mixing
     energy convergence thresh.=      1.0E-04
     force convergence thresh. =      1.0E-03
     press convergence thresh. =      5.0E-01
     Exchange-correlation= PBE
                           (   1   4   3   4   0   0   0)
     nstep                     =          500


     GPU acceleration is ACTIVE.


     celldm(1)=  10.422577  celldm(2)=   0.000000  celldm(3)=   0.000000
     celldm(4)=   0.000000  celldm(5)=   0.000000  celldm(6)=   0.000000

     crystal axes: (cart. coord. in units of alat)
               a(1) = (   1.000000   0.000000   0.000000 )  
               a(2) = (   0.000000   0.841166   0.000000 )  
               a(3) = (   0.000000   0.000000   7.096721 )  

     reciprocal axes: (cart. coord. in units 2 pi/alat)
               b(1) = (  1.000000  0.000000  0.000000 )  
               b(2) = (  0.000000  1.188827  0.000000 )  
               b(3) = (  0.000000  0.000000  0.140910 )  


     PseudoPot. # 1 for Ti read from file:
     /cm/shared/apps/KO/pseudo/sg15/Ti_ONCV_PBE-1.2.upf
     MD5 check sum: 1aea57736bd12dcfee93c97d0b9b5968
     Pseudo is Norm-conserving, Zval = 12.0
     Generated using ONCVPSP code by D. R. Hamann
     Using radial grid of  602 points,  6 beta functions with: 
                l(1) =   0
                l(2) =   0
                l(3) =   1
                l(4) =   1
                l(5) =   2
                l(6) =   2

     PseudoPot. # 2 for O  read from file:
     /cm/shared/apps/KO/pseudo/sg15/O_ONCV_PBE-1.2.upf
     MD5 check sum: e36c48deb68f4e355fffe4602be2c42c
     Pseudo is Norm-conserving, Zval =  6.0
     Generated using ONCVPSP code by D. R. Hamann
     Using radial grid of  602 points,  4 beta functions with: 
                l(1) =   0
                l(2) =   0
                l(3) =   1
                l(4) =   1

     atomic species   valence    mass     pseudopotential
     Ti               12.00    47.86700     Ti( 1.00)
     O                 6.00    15.99900     O ( 1.00)

      2 Sym. Ops. (no inversion) found ( 1 have fractional translation)



   Cartesian axes

     site n.     atom                  positions (alat units)
         1        Ti     tau(   1) = (   0.7206323  -0.0421148   2.2705520  )
         2        Ti     tau(   2) = (   0.2206323   0.4626976   2.2705520  )
         3        Ti     tau(   3) = (   0.3984828   0.0229575   2.6993335  )
         4        Ti     tau(   4) = (   0.8984828   0.3976252   2.6993335  )
         5        Ti     tau(   5) = (   0.1389976  -0.0055648   3.1692898  )
         6        Ti     tau(   6) = (   0.6389975   0.4261476   3.1692898  )
         7        Ti     tau(   7) = (   0.8274665   0.0000566   3.6172661  )
         8        Ti     tau(   8) = (   0.3274666   0.4205262   3.6172661  )
         9        Ti     tau(   9) = (   0.5158400   0.0055346   4.0651636  )
        10        Ti     tau(  10) = (   0.0158401   0.4150482   4.0651636  )
        11        Ti     tau(  11) = (   0.2556977  -0.0229217   4.5347078  )
        12        Ti     tau(  12) = (   0.7556976   0.4435045   4.5347078  )
        13        Ti     tau(  13) = (   0.9336253   0.0420408   4.9634030  )
        14        Ti     tau(  14) = (   0.4336254   0.3785420   4.9634030  )
        15        O      tau(  15) = (   0.4756655   0.6066917   2.1242609  )
        16        O      tau(  16) = (   0.9756655   0.6550566   2.1242609  )
        17        O      tau(  17) = (   0.9102582   0.2525522   2.3905686  )
        18        O      tau(  18) = (   0.1934104   0.5891249   2.5751966  )
        19        O      tau(  19) = (   0.4102582   0.1680306   2.3905683  )
        20        O      tau(  20) = (   0.6934103   0.6726234   2.5751964  )
        21        O      tau(  21) = (   0.6236730   0.2555894   2.8471898  )
        22        O      tau(  22) = (   0.9008648   0.5824398   3.0233873  )
        23        O      tau(  23) = (   0.1236731   0.1649934   2.8471902  )
        24        O      tau(  24) = (   0.4008647   0.6793085   3.0233871  )
        25        O      tau(  25) = (   0.3322663   0.2556469   3.3043547  )
        26        O      tau(  26) = (   0.6101796   0.5862876   3.4793424  )
        27        O      tau(  27) = (   0.8322663   0.1649358   3.3043547  )
        28        O      tau(  28) = (   0.1101797   0.6754607   3.4793424  )
        29        O      tau(  29) = (   0.0441985   0.2548696   3.7550270  )
        30        O      tau(  30) = (   0.3219824   0.5853121   3.9302972  )
        31        O      tau(  31) = (   0.5441983   0.1657132   3.7550266  )
        32        O      tau(  32) = (   0.8219824   0.6764362   3.9302976  )
        33        O      tau(  33) = (   0.7534410   0.2590275   4.2110088  )
        34        O      tau(  34) = (   0.0306420   0.5855498   4.3868403  )
        35        O      tau(  35) = (   0.2534410   0.1615553   4.2110080  )
        36        O      tau(  36) = (   0.5306419   0.6761985   4.3868399  )
        37        O      tau(  37) = (   0.4610910   0.2517411   4.6589205  )
        38        O      tau(  38) = (   0.7435430   0.5891708   4.8432476  )
        39        O      tau(  39) = (   0.9610909   0.1688416   4.6589205  )
        40        O      tau(  40) = (   0.2435431   0.6725774   4.8432476  )
        41        O      tau(  41) = (   0.1788735   0.2340684   5.1094831  )
        42        O      tau(  42) = (   0.6788734   0.1865144   5.1094826  )

     number of k points=    12  Gaussian smearing, width (Ry)=  0.0200
                       cart. coord. in units 2pi/alat
        k(    1) = (   0.0000000   0.0000000   0.0000000), wk =   0.0666667
        k(    2) = (   0.0000000   0.1981378   0.0000000), wk =   0.1333333
        k(    3) = (   0.0000000   0.3962755   0.0000000), wk =   0.1333333
        k(    4) = (   0.0000000  -0.5944133   0.0000000), wk =   0.0666667
        k(    5) = (   0.2000000   0.0000000   0.0000000), wk =   0.1333333
        k(    6) = (   0.2000000   0.1981378   0.0000000), wk =   0.2666667
        k(    7) = (   0.2000000   0.3962755   0.0000000), wk =   0.2666667
        k(    8) = (   0.2000000  -0.5944133   0.0000000), wk =   0.1333333
        k(    9) = (   0.4000000   0.0000000   0.0000000), wk =   0.1333333
        k(   10) = (   0.4000000   0.1981378   0.0000000), wk =   0.2666667
        k(   11) = (   0.4000000   0.3962755   0.0000000), wk =   0.2666667
        k(   12) = (   0.4000000  -0.5944133   0.0000000), wk =   0.1333333

     Dense  grid:  1200515 G-vectors     FFT dimensions: (  80,  64, 540)

     Estimated max dynamical RAM per process >       9.90 GB

     Initial potential from superposition of free atoms

     starting charge     334.4371, renormalised to     336.0000

     negative rho (up, down):  1.385E-03 0.000E+00
     Starting wfcs are random

     total cpu time spent up to now is       14.6 secs

     Self-consistent Calculation

     iteration #  1     ecut=   120.00 Ry     beta= 0.40
     Davidson diagonalization with overlap
     c_bands:  1 eigenvalues not converged
     ethr =  1.00E-02,  avg # of iterations = 17.3

     negative rho (up, down):  3.195E-05 0.000E+00

     total cpu time spent up to now is       43.4 secs

     total energy              =   -2510.17948815 Ry
     estimated scf accuracy    <      17.04806324 Ry

     iteration #  2     ecut=   120.00 Ry     beta= 0.40
     Davidson diagonalization with overlap
     ethr =  5.07E-03,  avg # of iterations =  4.0

     negative rho (up, down):  1.098E-07 0.000E+00

     total cpu time spent up to now is       55.0 secs

     total energy              =   -2513.93490654 Ry
     estimated scf accuracy    <       3.23143716 Ry

     iteration #  3     ecut=   120.00 Ry     beta= 0.40
     Davidson diagonalization with overlap
     ethr =  9.62E-04,  avg # of iterations =  2.5

     total cpu time spent up to now is       65.4 secs

     total energy              =   -2514.84464393 Ry
     estimated scf accuracy    <       0.74520382 Ry

     iteration #  4     ecut=   120.00 Ry     beta= 0.40
     Davidson diagonalization with overlap
     ethr =  2.22E-04,  avg # of iterations =  9.6

     total cpu time spent up to now is       79.6 secs

     total energy              =   -2515.03134165 Ry
     estimated scf accuracy    <       0.21870101 Ry

     iteration #  5     ecut=   120.00 Ry     beta= 0.40
     Davidson diagonalization with overlap
     c_bands:  1 eigenvalues not converged
     c_bands:  3 eigenvalues not converged
     c_bands:  1 eigenvalues not converged
     ethr =  6.51E-05,  avg # of iterations = 15.9

     total cpu time spent up to now is       92.7 secs

     total energy              =   -2515.06106732 Ry
     estimated scf accuracy    <       0.06861252 Ry

     iteration #  6     ecut=   120.00 Ry     beta= 0.40
     Davidson diagonalization with overlap
     c_bands:  1 eigenvalues not converged
     ethr =  2.04E-05,  avg # of iterations = 13.8

     total cpu time spent up to now is      106.5 secs

     total energy              =   -2515.06516015 Ry
     estimated scf accuracy    <       0.03899485 Ry

     iteration #  7     ecut=   120.00 Ry     beta= 0.40
     Davidson diagonalization with overlap
     ethr =  1.16E-05,  avg # of iterations =  4.8

     total cpu time spent up to now is      116.9 secs

     total energy              =   -2515.06739516 Ry
     estimated scf accuracy    <       0.00471111 Ry

     iteration #  8     ecut=   120.00 Ry     beta= 0.40
     Davidson diagonalization with overlap
     c_bands:  1 eigenvalues not converged
     c_bands:  2 eigenvalues not converged
     c_bands:  1 eigenvalues not converged
     c_bands:  1 eigenvalues not converged
     c_bands:  1 eigenvalues not converged
     c_bands:  2 eigenvalues not converged
     ethr =  1.40E-06,  avg # of iterations = 18.7

     total cpu time spent up to now is      135.0 secs

     total energy              =   -2515.06963238 Ry
     estimated scf accuracy    <       0.00540940 Ry

     iteration #  9     ecut=   120.00 Ry     beta= 0.40
     Davidson diagonalization with overlap
     c_bands:  1 eigenvalues not converged
     ethr =  1.40E-06,  avg # of iterations =  5.2

     total cpu time spent up to now is      145.7 secs

     total energy              =   -2515.06944452 Ry
     estimated scf accuracy    <       0.00156089 Ry

     iteration # 10     ecut=   120.00 Ry     beta= 0.40
     Davidson diagonalization with overlap
     c_bands:  1 eigenvalues not converged
     ethr =  4.65E-07,  avg # of iterations =  6.1

     total cpu time spent up to now is      157.0 secs

     total energy              =   -2515.06974487 Ry
     estimated scf accuracy    <       0.00005721 Ry

     iteration # 11     ecut=   120.00 Ry     beta= 0.40
     Davidson diagonalization with overlap
     ethr =  1.70E-08,  avg # of iterations =  7.6

     total cpu time spent up to now is      171.5 secs

     total energy              =   -2515.06979161 Ry
     estimated scf accuracy    <       0.00006626 Ry

     iteration # 12     ecut=   120.00 Ry     beta= 0.40
     Davidson diagonalization with overlap
     ethr =  1.70E-08,  avg # of iterations =  1.0

     total cpu time spent up to now is      180.9 secs

     total energy              =   -2515.06979129 Ry
     estimated scf accuracy    <       0.00002718 Ry

     iteration # 13     ecut=   120.00 Ry     beta= 0.40
     Davidson diagonalization with overlap
     ethr =  8.09E-09,  avg # of iterations =  2.0

     total cpu time spent up to now is      190.6 secs

     total energy              =   -2515.06978917 Ry
     estimated scf accuracy    <       0.00001371 Ry

     iteration # 14     ecut=   120.00 Ry     beta= 0.40
     Davidson diagonalization with overlap
     ethr =  4.08E-09,  avg # of iterations =  4.3

     total cpu time spent up to now is      201.7 secs

     total energy              =   -2515.06979084 Ry
     estimated scf accuracy    <       0.00000201 Ry

     iteration # 15     ecut=   120.00 Ry     beta= 0.40
     Davidson diagonalization with overlap
     ethr =  5.99E-10,  avg # of iterations =  6.5

     total cpu time spent up to now is      214.2 secs

     End of self-consistent calculation

          k = 0.0000 0.0000 0.0000 (150143 PWs)   bands (ev):

   -56.5808 -56.5718 -56.5647 -56.5629 -56.5550 -56.5532 -56.4718 -56.4684
   -56.4653 -56.4625 -56.2337 -56.2297 -56.2212 -56.2173 -33.0492 -33.0467
   -33.0047 -32.9972 -32.9466 -32.9322 -32.8546 -32.8460 -32.8435 -32.8409
   -32.8197 -32.8121 -32.7731 -32.7646 -32.7623 -32.7541 -32.7529 -32.7508
   -32.7492 -32.7437 -32.7196 -32.7108 -32.7094 -32.7076 -32.6885 -32.6735
   -32.6419 -32.6405 -32.6404 -32.6394 -32.6336 -32.6330 -32.6304 -32.6230
   -32.5507 -32.5477 -32.4923 -32.4892 -32.3956 -32.3922 -32.3819 -32.3786
   -17.6838 -17.5450 -17.3036 -16.8342 -16.7697 -16.7197 -16.6397 -16.5747
   -16.5593 -16.5577 -16.4284 -16.4130 -16.3173 -16.2926 -16.2822 -16.2660
   -16.1642 -16.1598 -16.1499 -15.9890 -15.9794 -15.8825 -15.8549 -15.8131
   -15.5853 -15.5843 -15.5696 -15.5662  -5.2426  -5.0291  -4.7934  -4.7636
    -4.6274  -4.5558  -4.4853  -4.4425  -4.3923  -4.3288  -4.1971  -4.1794
    -4.1569  -4.0893  -3.9253  -3.8947  -3.8340  -3.7490  -3.7408  -3.6572
    -3.6550  -3.5909  -3.5616  -3.4703  -3.4453  -3.4174  -3.3897  -3.2479
    -3.2358  -3.2181  -3.1793  -3.0563  -3.0171  -2.9846  -2.9215  -2.8974
    -2.6886  -2.6846  -2.6715  -2.4859  -2.4108  -2.2953  -2.2663  -2.1154
    -2.0786  -2.0662  -2.0496  -2.0241  -1.9087  -1.8977  -1.8883  -1.8500
    -1.7965  -1.7740  -1.7282  -1.7121  -1.6750  -1.6556  -1.6482  -1.5037
    -1.3409  -1.3056  -1.3028  -1.2577  -1.1469  -1.0847  -1.0818  -0.9148
    -0.8507  -0.7800  -0.7456  -0.7056  -0.6606  -0.5727  -0.4753  -0.4285
    -0.4246  -0.2874  -0.2797  -0.2250  -0.0471   0.1334   0.2573   0.3252
     2.3420   2.4145   2.4472   2.4675   2.5187   2.6043   2.6438   2.7888
     2.7994   2.8722   2.9001   2.9391   2.9672   2.9879   3.0247   3.0517
     3.1090   3.1149   3.1460   3.2703   3.3678   3.3770   3.4144   3.4522
     3.4682   3.5781   3.6855   3.7776   3.8393   3.8419   3.9190   3.9745
     4.1311   4.2271

          k = 0.0000 0.1981 0.0000 (149997 PWs)   bands (ev):

   -56.5801 -56.5723 -56.5642 -56.5624 -56.5554 -56.5536 -56.4713 -56.4680
   -56.4657 -56.4629 -56.2334 -56.2295 -56.2214 -56.2175 -33.0462 -33.0442
   -33.0013 -32.9955 -32.9415 -32.9303 -32.8496 -32.8448 -32.8371 -32.8369
   -32.8212 -32.8160 -32.7812 -32.7782 -32.7712 -32.7656 -32.7595 -32.7578
   -32.7395 -32.7374 -32.7173 -32.7094 -32.7052 -32.7027 -32.6867 -32.6730
   -32.6458 -32.6442 -32.6425 -32.6408 -32.6328 -32.6319 -32.6294 -32.6229
   -32.5487 -32.5457 -32.4912 -32.4880 -32.3982 -32.3948 -32.3845 -32.3813
   -17.5962 -17.4677 -17.2416 -16.8005 -16.7481 -16.7045 -16.6057 -16.5639
   -16.5438 -16.5075 -16.4367 -16.4151 -16.3796 -16.3556 -16.3271 -16.2360
   -16.2031 -16.1910 -16.1156 -16.0635 -15.9601 -15.9422 -15.8639 -15.8356
   -15.6387 -15.6376 -15.5870 -15.5856  -5.0938  -4.9424  -4.7823  -4.6812
    -4.5244  -4.4745  -4.4705  -4.4535  -4.3739  -4.2376  -4.2056  -4.1290
    -4.1149  -4.0593  -4.0081  -3.9887  -3.8765  -3.7520  -3.6550  -3.6376
    -3.6256  -3.5944  -3.5220  -3.5112  -3.4614  -3.3705  -3.3683  -3.2870
    -3.2417  -3.2006  -3.1817  -3.1174  -3.0494  -2.9124  -2.8763  -2.8711
    -2.7720  -2.7301  -2.6216  -2.5280  -2.4606  -2.3250  -2.3027  -2.2375
    -2.1628  -2.1443  -2.0941  -2.0832  -2.0352  -2.0271  -2.0020  -1.8781
    -1.8365  -1.7359  -1.7120  -1.6741  -1.5723  -1.5548  -1.5453  -1.4364
    -1.3298  -1.3173  -1.2767  -1.2589  -1.2228  -1.1209  -0.9144  -0.8944
    -0.8651  -0.8011  -0.7107  -0.6956  -0.6886  -0.6394  -0.5824  -0.5801
    -0.3970  -0.3808  -0.2719  -0.2669  -0.1045   0.0373   0.1558   0.2258
     2.4285   2.4719   2.4965   2.5493   2.5656   2.6531   2.7834   2.7982
     2.8202   2.9115   2.9228   2.9578   3.0479   3.0598   3.0925   3.1678
     3.1815   3.2713   3.2893   3.3525   3.3840   3.4220   3.4475   3.4754
     3.5447   3.5596   3.6689   3.7273   3.8213   3.8634   3.8855   3.8897
     3.9599   4.0723

          k = 0.0000 0.3963 0.0000 (149940 PWs)   bands (ev):

   -56.5784 -56.5739 -56.5630 -56.5612 -56.5566 -56.5548 -56.4702 -56.4672
   -56.4667 -56.4639 -56.2330 -56.2290 -56.2219 -56.2180 -33.0399 -33.0390
   -32.9943 -32.9919 -32.9307 -32.9259 -32.8377 -32.8363 -32.8265 -32.8240
   -32.8229 -32.8207 -32.7987 -32.7964 -32.7882 -32.7863 -32.7782 -32.7755
   -32.7305 -32.7286 -32.7101 -32.7062 -32.6977 -32.6936 -32.6829 -32.6722
   -32.6569 -32.6543 -32.6482 -32.6443 -32.6306 -32.6297 -32.6262 -32.6227
   -32.5444 -32.5413 -32.4888 -32.4856 -32.4036 -32.4002 -32.3900 -32.3867
   -17.3543 -17.2549 -17.0733 -16.7658 -16.7389 -16.7209 -16.5729 -16.5626
   -16.5066 -16.4972 -16.4693 -16.4677 -16.4052 -16.3831 -16.3776 -16.2672
   -16.2607 -16.2463 -16.1171 -16.0782 -16.0360 -15.9772 -15.8953 -15.8876
   -15.7667 -15.7652 -15.6203 -15.6199  -4.7627  -4.7046  -4.6567  -4.5081
    -4.4303  -4.4201  -4.3847  -4.3318  -4.2695  -4.2409  -4.1694  -4.1627
    -4.0863  -4.0764  -4.0181  -4.0119  -3.9344  -3.9233  -3.7765  -3.7634
    -3.6442  -3.5531  -3.5100  -3.3807  -3.3642  -3.3458  -3.2697  -3.2576
    -3.1122  -3.0899  -3.0706  -3.0465  -3.0286  -2.9328  -2.9190  -2.8703
    -2.7733  -2.7187  -2.5759  -2.5641  -2.5432  -2.4470  -2.4066  -2.3873
    -2.3181  -2.2956  -2.2301  -2.1847  -2.1517  -2.1504  -2.0233  -1.9680
    -1.8740  -1.7970  -1.7916  -1.7547  -1.6096  -1.5044  -1.4836  -1.4506
    -1.4012  -1.3671  -1.2233  -1.1707  -1.1680  -1.0987  -1.0698  -1.0039
    -0.9518  -0.9419  -0.8376  -0.8061  -0.6776  -0.6738  -0.5732  -0.4471
    -0.3954  -0.3736  -0.3163  -0.2304  -0.1932  -0.1268  -0.0254  -0.0192
     2.6199   2.6215   2.6740   2.6873   2.7439   2.8202   2.8652   2.8910
     2.9794   3.0268   3.1318   3.1478   3.1851   3.2439   3.2485   3.2643
     3.3890   3.4194   3.4300   3.4727   3.4944   3.4962   3.5375   3.5879
     3.5910   3.6073   3.6344   3.6761   3.7157   3.7162   3.7295   3.8600
     3.8753   3.8755

          k = 0.0000-0.5944 0.0000 (150022 PWs)   bands (ev):

   -56.5762 -56.5761 -56.5622 -56.5604 -56.5573 -56.5555 -56.4690 -56.4680
   -56.4660 -56.4649 -56.2327 -56.2288 -56.2222 -56.2182 -33.0364 -33.0364
   -32.9905 -32.9902 -32.9242 -32.9242 -32.8301 -32.8296 -32.8196 -32.8187
   -32.8133 -32.8124 -32.8089 -32.8085 -32.8024 -32.8024 -32.7901 -32.7889
   -32.7264 -32.7263 -32.7049 -32.7043 -32.6913 -32.6909 -32.6759 -32.6758
   -32.6636 -32.6631 -32.6487 -32.6485 -32.6294 -32.6287 -32.6239 -32.6232
   -32.5420 -32.5390 -32.4875 -32.4843 -32.4064 -32.4030 -32.3928 -32.3896
   -17.0262 -17.0256 -16.9664 -16.9651 -16.8531 -16.8530 -16.5632 -16.5622
   -16.5156 -16.5150 -16.4180 -16.4178 -16.3784 -16.3782 -16.3557 -16.3552
   -16.3056 -16.3048 -16.0522 -16.0519 -16.0098 -16.0093 -15.9713 -15.9696
   -15.8275 -15.8271 -15.6386 -15.6386  -4.5041  -4.5031  -4.4336  -4.4317
    -4.3849  -4.3844  -4.2970  -4.2965  -4.2732  -4.2722  -4.1793  -4.1779
    -4.1631  -4.1628  -4.1477  -4.1470  -4.0595  -4.0585  -3.8016  -3.8013
    -3.5103  -3.5088  -3.4151  -3.4142  -3.2394  -3.2388  -3.1722  -3.1718
    -3.0930  -3.0928  -2.9788  -2.9785  -2.8695  -2.8684  -2.7742  -2.7734
    -2.7369  -2.7364  -2.6986  -2.6974  -2.6106  -2.6106  -2.4453  -2.4441
    -2.3961  -2.3950  -2.2991  -2.2988  -2.1715  -2.1708  -2.0139  -2.0132
    -1.9404  -1.9393  -1.8089  -1.8079  -1.6631  -1.6619  -1.4953  -1.4946
    -1.4079  -1.4075  -1.3015  -1.2995  -1.1665  -1.1658  -1.0482  -1.0472
    -0.9730  -0.9727  -0.7477  -0.7460  -0.5778  -0.5769  -0.5093  -0.5090
    -0.4377  -0.4367  -0.3368  -0.3366  -0.1699  -0.1654  -0.0900  -0.0891
     2.7901   2.7920   2.8043   2.8065   2.8195   2.8216   3.0071   3.0084
     3.0829   3.0852   3.1467   3.1483   3.2930   3.2946   3.3373   3.3380
     3.3978   3.3995   3.4674   3.4707   3.5267   3.5304   3.6019   3.6048
     3.6570   3.6572   3.6929   3.6954   3.7545   3.7563   3.8448   3.8466
     3.8783   3.8798

          k = 0.2000 0.0000 0.0000 (150000 PWs)   bands (ev):

   -56.5799 -56.5726 -56.5637 -56.5619 -56.5559 -56.5541 -56.4711 -56.4678
   -56.4659 -56.4630 -56.2325 -56.2285 -56.2224 -56.2185 -33.0451 -33.0434
   -33.0002 -32.9944 -32.9401 -32.9287 -32.8470 -32.8396 -32.8377 -32.8355
   -32.8192 -32.8178 -32.7828 -32.7774 -32.7730 -32.7719 -32.7653 -32.7617
   -32.7360 -32.7346 -32.7155 -32.7079 -32.7035 -32.7026 -32.6859 -32.6727
   -32.6477 -32.6451 -32.6437 -32.6416 -32.6326 -32.6317 -32.6292 -32.6232
   -32.5440 -32.5410 -32.4955 -32.4924 -32.3970 -32.3935 -32.3869 -32.3836
   -17.5872 -17.4541 -17.2193 -16.7782 -16.7567 -16.7219 -16.5937 -16.5808
   -16.5742 -16.5208 -16.4979 -16.4424 -16.4053 -16.3046 -16.2701 -16.2223
   -16.2108 -16.1888 -16.1397 -16.0054 -15.9882 -15.8990 -15.8846 -15.8701
   -15.6467 -15.6464 -15.5970 -15.5940  -5.0772  -4.8784  -4.6911  -4.6154
    -4.5463  -4.3779  -4.3737  -4.3300  -4.2695  -4.1720  -4.1404  -4.1141
    -4.0141  -4.0086  -3.9282  -3.8581  -3.7989  -3.7837  -3.7197  -3.6535
    -3.6521  -3.5517  -3.5206  -3.4787  -3.3973  -3.3702  -3.3452  -3.2239
    -3.2195  -3.1872  -3.1416  -3.0466  -3.0272  -3.0148  -2.9048  -2.8727
    -2.7829  -2.7511  -2.6416  -2.5382  -2.4196  -2.4108  -2.3380  -2.2723
    -2.2194  -2.2073  -2.1976  -2.1042  -2.0680  -2.0591  -1.9488  -1.9150
    -1.8678  -1.8483  -1.7930  -1.7837  -1.6410  -1.6388  -1.5955  -1.4836
    -1.4255  -1.4038  -1.3156  -1.2500  -1.1792  -1.1071  -1.0638  -1.0610
    -0.9502  -0.9057  -0.8551  -0.7912  -0.7721  -0.6503  -0.5948  -0.5652
    -0.5370  -0.4798  -0.4359  -0.3921  -0.1486   0.0348   0.1560   0.2329
     2.4871   2.4939   2.5635   2.6429   2.6779   2.7382   2.7405   2.8156
     2.8640   2.9098   2.9319   3.0657   3.0692   3.0713   3.1627   3.1764
     3.2019   3.2357   3.2903   3.3477   3.4231   3.4835   3.5148   3.5771
     3.5920   3.6410   3.6766   3.7150   3.7361   3.8242   3.9017   3.9490
     4.1155   4.1938

          k = 0.2000 0.1981 0.0000 (150047 PWs)   bands (ev):

   -56.5794 -56.5731 -56.5633 -56.5615 -56.5563 -56.5545 -56.4708 -56.4675
   -56.4662 -56.4634 -56.2323 -56.2284 -56.2226 -56.2186 -33.0473 -33.0393
   -33.0013 -32.9917 -32.9413 -32.9250 -32.8532 -32.8444 -32.8280 -32.8227
   -32.8196 -32.8179 -32.7983 -32.7926 -32.7875 -32.7599 -32.7579 -32.7554
   -32.7459 -32.7287 -32.7161 -32.7082 -32.7051 -32.6943 -32.6849 -32.6728
   -32.6583 -32.6480 -32.6403 -32.6391 -32.6329 -32.6304 -32.6282 -32.6229
   -32.5430 -32.5399 -32.4956 -32.4924 -32.3998 -32.3964 -32.3857 -32.3824
   -17.5124 -17.3899 -17.1717 -16.7794 -16.7454 -16.7015 -16.6253 -16.6001
   -16.5591 -16.5015 -16.4741 -16.4393 -16.4126 -16.3112 -16.2986 -16.2604
   -16.2186 -16.1788 -16.1482 -16.0435 -15.9995 -15.9448 -15.9003 -15.8545
   -15.6971 -15.6959 -15.5844 -15.5825  -5.0591  -4.8814  -4.6684  -4.5414
    -4.4762  -4.4007  -4.3088  -4.2821  -4.2565  -4.1556  -4.1156  -4.0840
    -4.0512  -3.9994  -3.9802  -3.9215  -3.8802  -3.8347  -3.7890  -3.7548
    -3.6345  -3.6095  -3.5118  -3.4310  -3.4095  -3.3716  -3.2739  -3.2528
    -3.2400  -3.2138  -3.1642  -3.1047  -3.0160  -2.9303  -2.8847  -2.8319
    -2.7116  -2.6462  -2.6402  -2.5595  -2.4811  -2.4235  -2.3820  -2.3029
    -2.2355  -2.1420  -2.0852  -2.0504  -2.0269  -1.9926  -1.9599  -1.9232
    -1.8833  -1.8250  -1.7758  -1.7443  -1.6730  -1.6081  -1.5512  -1.4718
    -1.4176  -1.3997  -1.3452  -1.2208  -1.1630  -1.1211  -1.0672  -1.0340
    -0.9604  -0.8404  -0.8209  -0.7978  -0.7390  -0.7140  -0.6599  -0.5940
    -0.5765  -0.5234  -0.4628  -0.4560  -0.2243  -0.0499   0.0725   0.1326
     2.4498   2.4824   2.5830   2.6372   2.6681   2.7521   2.8062   2.8672
     2.8946   2.9305   2.9837   3.0046   3.0904   3.1376   3.1854   3.2888
     3.2954   3.3154   3.3945   3.4162   3.4378   3.4951   3.5299   3.5709
     3.5891   3.6333   3.6606   3.6843   3.7035   3.7730   3.8819   3.9085
     3.9457   4.0433

          k = 0.2000 0.3963 0.0000 (149979 PWs)   bands (ev):

   -56.5780 -56.5743 -56.5624 -56.5606 -56.5572 -56.5554 -56.4699 -56.4672
   -56.4667 -56.4642 -56.2319 -56.2280 -56.2230 -56.2190 -33.0455 -33.0375
   -32.9993 -32.9905 -32.9384 -32.9237 -32.8525 -32.8436 -32.8259 -32.8240
   -32.8199 -32.8164 -32.8052 -32.7984 -32.7939 -32.7685 -32.7615 -32.7592
   -32.7400 -32.7274 -32.7153 -32.7060 -32.7040 -32.6918 -32.6821 -32.6738
   -32.6623 -32.6489 -32.6423 -32.6394 -32.6322 -32.6297 -32.6270 -32.6233
   -32.5405 -32.5375 -32.4964 -32.4932 -32.4018 -32.3984 -32.3867 -32.3833
   -17.3107 -17.2159 -17.0405 -16.8449 -16.7994 -16.7014 -16.6188 -16.5986
   -16.5753 -16.5015 -16.4777 -16.4048 -16.3690 -16.3454 -16.3352 -16.3162
   -16.2825 -16.1970 -16.1545 -16.0509 -16.0385 -15.9808 -15.9593 -15.8983
   -15.7379 -15.7345 -15.6011 -15.6000  -4.9641  -4.8018  -4.6034  -4.5284
    -4.4645  -4.4024  -4.3599  -4.2550  -4.2324  -4.2100  -4.1803  -4.1143
    -4.0917  -4.0739  -4.0140  -3.9872  -3.9174  -3.8343  -3.7319  -3.7078
    -3.6915  -3.5824  -3.5614  -3.4215  -3.3926  -3.3138  -3.3009  -3.2801
    -3.1842  -3.0965  -3.0456  -2.9812  -2.9304  -2.8998  -2.8833  -2.7617
    -2.7117  -2.6405  -2.6042  -2.5331  -2.4751  -2.4332  -2.4013  -2.3158
    -2.2859  -2.1771  -2.1085  -2.0582  -2.0471  -1.9976  -1.9448  -1.9135
    -1.8536  -1.7709  -1.7055  -1.6684  -1.6153  -1.5508  -1.5447  -1.4502
    -1.3969  -1.3715  -1.3045  -1.2796  -1.2082  -1.1366  -1.0503  -1.0445
    -0.9698  -0.9346  -0.8851  -0.8564  -0.8479  -0.7475  -0.7261  -0.6241
    -0.5493  -0.4949  -0.4356  -0.4135  -0.3325  -0.1999  -0.1005  -0.0807
     2.4871   2.5070   2.6336   2.6778   2.7559   2.8039   2.8192   2.9071
     2.9858   3.0405   3.0432   3.0906   3.1415   3.1798   3.2598   3.2995
     3.3559   3.3681   3.4118   3.4195   3.4855   3.5176   3.5380   3.5781
     3.5965   3.6475   3.6739   3.6988   3.7452   3.7861   3.8095   3.8569
     3.8904   3.9325

          k = 0.2000-0.5944 0.0000 (150028 PWs)   bands (ev):

   -56.5762 -56.5761 -56.5617 -56.5599 -56.5578 -56.5560 -56.4689 -56.4681
   -56.4659 -56.4650 -56.2317 -56.2278 -56.2232 -56.2192 -33.0408 -33.0407
   -32.9943 -32.9941 -32.9303 -32.9303 -32.8419 -32.8419 -32.8340 -32.8336
   -32.8244 -32.8240 -32.7919 -32.7913 -32.7803 -32.7798 -32.7724 -32.7711
   -32.7308 -32.7308 -32.7103 -32.7098 -32.6994 -32.6989 -32.6778 -32.6777
   -32.6517 -32.6515 -32.6440 -32.6440 -32.6309 -32.6301 -32.6257 -32.6248
   -32.5391 -32.5361 -32.4972 -32.4940 -32.4012 -32.3978 -32.3885 -32.3852
   -17.0539 -17.0535 -16.9882 -16.9871 -16.8531 -16.8531 -16.5847 -16.5842
   -16.5164 -16.5158 -16.4581 -16.4576 -16.4003 -16.3989 -16.3045 -16.3040
   -16.2613 -16.2611 -16.0971 -16.0969 -16.0292 -16.0288 -15.9595 -15.9591
   -15.7358 -15.7345 -15.6220 -15.6216  -4.7477  -4.7476  -4.6215  -4.6213
    -4.4672  -4.4672  -4.3895  -4.3895  -4.3048  -4.3042  -4.1948  -4.1947
    -4.0855  -4.0844  -3.9983  -3.9982  -3.8207  -3.8204  -3.7176  -3.7170
    -3.5199  -3.5182  -3.4359  -3.4350  -3.3109  -3.3105  -3.2552  -3.2546
    -3.0789  -3.0784  -3.0395  -3.0394  -2.9791  -2.9763  -2.7994  -2.7994
    -2.5847  -2.5844  -2.5290  -2.5271  -2.4689  -2.4688  -2.3675  -2.3672
    -2.2384  -2.2377  -2.1699  -2.1684  -2.0268  -2.0260  -1.9056  -1.9049
    -1.8003  -1.7996  -1.7386  -1.7373  -1.5742  -1.5735  -1.4266  -1.4261
    -1.3684  -1.3676  -1.3263  -1.3261  -1.2306  -1.2289  -1.1083  -1.1076
    -1.0599  -1.0591  -0.9078  -0.9068  -0.7693  -0.7689  -0.5408  -0.5406
    -0.5189  -0.5187  -0.4430  -0.4412  -0.3299  -0.3278  -0.1583  -0.1576
     2.5974   2.5981   2.6670   2.6676   2.8414   2.8420   2.8774   2.8786
     2.9644   2.9650   3.1057   3.1076   3.1733   3.1741   3.2521   3.2531
     3.3281   3.3294   3.4454   3.4462   3.4641   3.4658   3.6105   3.6127
     3.6537   3.6549   3.7217   3.7218   3.8335   3.8339   3.9112   3.9124
     3.9586   3.9619

          k = 0.4000 0.0000 0.0000 (150104 PWs)   bands (ev):

   -56.5777 -56.5749 -56.5613 -56.5595 -56.5583 -56.5565 -56.4695 -56.4675
   -56.4664 -56.4645 -56.2294 -56.2255 -56.2254 -56.2216 -33.0382 -33.0377
   -32.9922 -32.9902 -32.9275 -32.9235 -32.8287 -32.8251 -32.8232 -32.8219
   -32.8191 -32.8183 -32.8012 -32.7996 -32.7940 -32.7909 -32.7887 -32.7848
   -32.7271 -32.7256 -32.7059 -32.7032 -32.6953 -32.6926 -32.6796 -32.6738
   -32.6611 -32.6576 -32.6485 -32.6473 -32.6302 -32.6295 -32.6254 -32.6234
   -32.5266 -32.5235 -32.5072 -32.5041 -32.3986 -32.3955 -32.3953 -32.3922
   -17.3224 -17.2081 -16.9953 -16.9657 -16.8924 -16.7342 -16.6790 -16.6666
   -16.5206 -16.4970 -16.4004 -16.3790 -16.3674 -16.2715 -16.2536 -16.2461
   -16.2105 -16.2005 -16.1922 -16.0581 -16.0500 -15.9913 -15.9825 -15.9558
   -15.7104 -15.7104 -15.6626 -15.6609  -4.6845  -4.5439  -4.4557  -4.3873
    -4.3416  -4.2195  -4.1909  -4.1552  -4.1173  -4.0655  -4.0594  -3.9662
    -3.9642  -3.8962  -3.7756  -3.7584  -3.7308  -3.6262  -3.6096  -3.5498
    -3.5422  -3.5039  -3.4414  -3.3596  -3.3550  -3.3155  -3.2403  -3.2061
    -3.1883  -3.1001  -3.0996  -3.0719  -3.0408  -3.0370  -2.9074  -2.8071
    -2.7810  -2.7488  -2.6866  -2.6740  -2.5943  -2.5568  -2.5544  -2.5212
    -2.5159  -2.3892  -2.3302  -2.3150  -2.2932  -2.2456  -2.2002  -2.1301
    -2.0133  -1.8688  -1.8650  -1.8220  -1.7712  -1.7503  -1.6852  -1.6369
    -1.5771  -1.5747  -1.5638  -1.5272  -1.4649  -1.3104  -1.2729  -1.1722
    -1.1161  -1.0700  -1.0417  -0.9113  -0.7675  -0.7458  -0.6983  -0.6720
    -0.5167  -0.4007  -0.3402  -0.3098  -0.2684  -0.2016  -0.0873  -0.0181
     2.5773   2.6349   2.7334   2.7780   2.8190   2.8676   2.9150   2.9296
     3.0335   3.0859   3.1245   3.1667   3.2130   3.2701   3.2714   3.2993
     3.3662   3.4462   3.4943   3.5187   3.5483   3.5647   3.5925   3.6506
     3.6552   3.6919   3.7488   3.7779   3.8714   3.9018   3.9312   3.9843
     4.0115   4.0408

          k = 0.4000 0.1981 0.0000 (150052 PWs)   bands (ev):

   -56.5774 -56.5750 -56.5612 -56.5594 -56.5585 -56.5566 -56.4694 -56.4676
   -56.4663 -56.4647 -56.2293 -56.2256 -56.2254 -56.2216 -33.0428 -33.0378
   -32.9962 -32.9907 -32.9338 -32.9243 -32.8448 -32.8377 -32.8268 -32.8243
   -32.8200 -32.8189 -32.8017 -32.7954 -32.7904 -32.7782 -32.7713 -32.7679
   -32.7331 -32.7264 -32.7108 -32.7044 -32.7026 -32.6936 -32.6795 -32.6752
   -32.6605 -32.6484 -32.6467 -32.6423 -32.6316 -32.6298 -32.6266 -32.6240
   -32.5277 -32.5246 -32.5092 -32.5060 -32.3981 -32.3948 -32.3913 -32.3879
   -17.2830 -17.1791 -16.9937 -16.9664 -16.9002 -16.7527 -16.6759 -16.6647
   -16.5444 -16.4985 -16.4224 -16.3714 -16.3346 -16.3134 -16.2663 -16.2452
   -16.2241 -16.2089 -16.1924 -16.0772 -16.0425 -16.0167 -15.9821 -15.9246
   -15.7028 -15.7024 -15.6352 -15.6337  -4.8593  -4.6968  -4.5216  -4.4505
    -4.4239  -4.2889  -4.2147  -4.1753  -4.1214  -4.0835  -4.0660  -4.0042
    -3.9697  -3.9352  -3.8851  -3.8222  -3.7959  -3.7277  -3.6636  -3.6299
    -3.5924  -3.5218  -3.4875  -3.3728  -3.3284  -3.3137  -3.2898  -3.2471
    -3.1849  -3.1362  -3.0503  -3.0058  -2.9476  -2.9129  -2.8809  -2.8293
    -2.7656  -2.6676  -2.6098  -2.5878  -2.5539  -2.5383  -2.4606  -2.3795
    -2.3269  -2.2925  -2.2486  -2.1930  -2.1489  -2.0959  -2.0437  -1.9815
    -1.9710  -1.8888  -1.8384  -1.8139  -1.6984  -1.6647  -1.6240  -1.5906
    -1.5390  -1.5172  -1.4578  -1.4037  -1.3626  -1.3189  -1.2143  -1.1473
    -1.1036  -1.0470  -0.9879  -0.8737  -0.8219  -0.8073  -0.7160  -0.6728
    -0.6459  -0.5038  -0.4615  -0.4118  -0.3594  -0.2861  -0.1737  -0.1314
     2.5389   2.5950   2.6175   2.7084   2.7618   2.8223   2.8650   2.8763
     2.9521   3.0304   3.0492   3.0620   3.2219   3.2372   3.2853   3.3457
     3.3870   3.4326   3.4567   3.5073   3.5488   3.5619   3.5926   3.6263
     3.6424   3.6813   3.7587   3.7944   3.8046   3.8235   3.9108   3.9301
     3.9837   4.0221

          k = 0.4000 0.3963 0.0000 (150036 PWs)   bands (ev):

   -56.5768 -56.5755 -56.5608 -56.5590 -56.5588 -56.5570 -56.4690 -56.4680
   -56.4660 -56.4650 -56.2291 -56.2257 -56.2252 -56.2218 -33.0473 -33.0426
   -33.0006 -32.9953 -32.9402 -32.9318 -32.8570 -32.8473 -32.8453 -32.8375
   -32.8244 -32.8203 -32.7843 -32.7772 -32.7710 -32.7606 -32.7570 -32.7553
   -32.7436 -32.7318 -32.7172 -32.7114 -32.7081 -32.7017 -32.6803 -32.6777
   -32.6484 -32.6429 -32.6397 -32.6381 -32.6324 -32.6313 -32.6275 -32.6260
   -32.5297 -32.5266 -32.5133 -32.5102 -32.3938 -32.3904 -32.3864 -32.3830
   -17.1890 -17.1053 -17.0161 -16.9618 -16.9232 -16.7910 -16.6509 -16.6409
   -16.5707 -16.5170 -16.4510 -16.3945 -16.3815 -16.3392 -16.2853 -16.2639
   -16.2361 -16.2068 -16.1923 -16.1278 -16.0306 -16.0208 -15.9526 -15.9017
   -15.6666 -15.6649 -15.6073 -15.6057  -4.9957  -4.8214  -4.7949  -4.6480
    -4.5710  -4.4570  -4.4050  -4.3348  -4.2756  -4.1791  -4.1335  -4.0990
    -4.0633  -3.9948  -3.9079  -3.8882  -3.8446  -3.7359  -3.6924  -3.6520
    -3.5715  -3.5043  -3.4778  -3.4469  -3.4259  -3.3517  -3.3310  -3.2853
    -3.2064  -3.0896  -2.9313  -2.9226  -2.8704  -2.8251  -2.7183  -2.6848
    -2.5863  -2.5495  -2.4988  -2.3808  -2.3235  -2.2873  -2.2598  -2.2290
    -2.1551  -2.1427  -2.0986  -2.0487  -1.9969  -1.9326  -1.8965  -1.8565
    -1.8040  -1.7497  -1.6815  -1.6623  -1.6062  -1.5837  -1.5363  -1.4816
    -1.4353  -1.4074  -1.3475  -1.2931  -1.2801  -1.2347  -1.1468  -1.1222
    -1.0406  -1.0290  -0.9972  -0.9544  -0.8871  -0.8522  -0.8122  -0.7917
    -0.7694  -0.6928  -0.6424  -0.5469  -0.4538  -0.4163  -0.3312  -0.3019
     2.4515   2.4630   2.5408   2.6344   2.6532   2.6780   2.7569   2.8111
     2.8571   2.9092   2.9494   2.9894   3.0572   3.1249   3.2064   3.2483
     3.3050   3.3430   3.4051   3.4340   3.5285   3.5360   3.5641   3.6040
     3.6517   3.6888   3.7693   3.7846   3.8012   3.8543   3.9530   3.9758
     4.0039   4.0506

          k = 0.4000-0.5944 0.0000 (150058 PWs)   bands (ev):

   -56.5762 -56.5761 -56.5605 -56.5590 -56.5587 -56.5572 -56.4687 -56.4683
   -56.4657 -56.4653 -56.2291 -56.2258 -56.2251 -56.2219 -33.0473 -33.0472
   -33.0002 -33.0001 -32.9395 -32.9394 -32.8574 -32.8574 -32.8471 -32.8471
   -32.8219 -32.8219 -32.7692 -32.7687 -32.7592 -32.7587 -32.7550 -32.7537
   -32.7416 -32.7413 -32.7177 -32.7176 -32.7076 -32.7074 -32.6799 -32.6798
   -32.6404 -32.6403 -32.6382 -32.6382 -32.6325 -32.6322 -32.6275 -32.6272
   -32.5304 -32.5274 -32.5155 -32.5124 -32.3907 -32.3873 -32.3851 -32.3817
   -17.0911 -17.0910 -17.0195 -17.0191 -16.8622 -16.8622 -16.6032 -16.6032
   -16.5690 -16.5687 -16.4423 -16.4416 -16.4151 -16.4140 -16.2638 -16.2633
   -16.2134 -16.2132 -16.1773 -16.1771 -16.0221 -16.0221 -15.9125 -15.9123
   -15.6387 -15.6372 -15.6051 -15.6040  -4.9740  -4.9740  -4.8031  -4.8031
    -4.5681  -4.5680  -4.4821  -4.4819  -4.3437  -4.3433  -4.1300  -4.1295
    -4.0739  -4.0738  -3.8855  -3.8849  -3.8220  -3.8214  -3.6869  -3.6864
    -3.5871  -3.5862  -3.4809  -3.4796  -3.3591  -3.3590  -3.3119  -3.3118
    -3.0404  -3.0389  -2.9717  -2.9698  -2.7764  -2.7761  -2.6185  -2.6184
    -2.4002  -2.4002  -2.3133  -2.3128  -2.2070  -2.2061  -2.1369  -2.1354
    -2.0765  -2.0759  -2.0056  -2.0054  -1.8915  -1.8903  -1.8186  -1.8185
    -1.7259  -1.7254  -1.6351  -1.6347  -1.6036  -1.6027  -1.5149  -1.5149
    -1.4478  -1.4469  -1.3276  -1.3269  -1.2766  -1.2763  -1.1733  -1.1727
    -1.0744  -1.0734  -0.9518  -0.9510  -0.8677  -0.8651  -0.7579  -0.7563
    -0.6978  -0.6977  -0.5986  -0.5984  -0.5514  -0.5502  -0.3747  -0.3738
     2.4320   2.4323   2.4837   2.4839   2.6434   2.6435   2.7264   2.7270
     2.8354   2.8358   2.9693   2.9702   3.0485   3.0501   3.1499   3.1517
     3.2436   3.2444   3.3538   3.3546   3.4569   3.4574   3.5946   3.5956
     3.7231   3.7239   3.7981   3.7988   3.8660   3.8661   3.9816   3.9819
     4.0197   4.0201

     the Fermi energy is     1.3246 ev

!    total energy              =   -2515.06979107 Ry
     estimated scf accuracy    <       0.00000075 Ry
     smearing contrib. (-TS)   =      -0.00000000 Ry
     internal energy E=F+TS    =   -2515.06979107 Ry

     The total energy is F=E-TS. E is the sum of the following terms:
     one-electron contribution =  -59833.47390008 Ry
     hartree contribution      =   29966.93261539 Ry
     xc contribution           =    -396.75844666 Ry
     ewald contribution        =   27748.22994028 Ry

     convergence has been achieved in  15 iterations

     Forces acting on atoms (cartesian axes, Ry/au):

     atom    1 type  1   force =    -0.00061510   -0.00024039   -0.00023021
     atom    2 type  1   force =    -0.00061510    0.00024039   -0.00023021
     atom    3 type  1   force =     0.00028836   -0.00013610    0.00024830
     atom    4 type  1   force =     0.00028836    0.00013610    0.00024830
     atom    5 type  1   force =    -0.00001652   -0.00021082   -0.00013076
     atom    6 type  1   force =    -0.00001652    0.00021082   -0.00013076
     atom    7 type  1   force =    -0.00003953   -0.00002314   -0.00000022
     atom    8 type  1   force =    -0.00003953    0.00002314   -0.00000022
     atom    9 type  1   force =    -0.00018430    0.00028291    0.00013849
     atom   10 type  1   force =    -0.00018430   -0.00028291    0.00013849
     atom   11 type  1   force =    -0.00016025    0.00007178   -0.00012317
     atom   12 type  1   force =    -0.00016025   -0.00007178   -0.00012317
     atom   13 type  1   force =     0.00065245    0.00010371    0.00015156
     atom   14 type  1   force =     0.00065245   -0.00010371    0.00015156
     atom   15 type  2   force =     0.00040025    0.00024410    0.00010209
     atom   16 type  2   force =     0.00040025   -0.00024410    0.00010209
     atom   17 type  2   force =    -0.00010137   -0.00020356   -0.00035759
     atom   18 type  2   force =    -0.00006975    0.00043620    0.00011451
     atom   19 type  2   force =    -0.00010137    0.00020356   -0.00035759
     atom   20 type  2   force =    -0.00006975   -0.00043620    0.00011451
     atom   21 type  2   force =    -0.00024476    0.00009686    0.00016851
     atom   22 type  2   force =     0.00021644   -0.00027943    0.00020173
     atom   23 type  2   force =    -0.00024476   -0.00009686    0.00016851
     atom   24 type  2   force =     0.00021644    0.00027943    0.00020173
     atom   25 type  2   force =     0.00026328   -0.00002939   -0.00031034
     atom   26 type  2   force =    -0.00069772   -0.00041297   -0.00002421
     atom   27 type  2   force =     0.00026328    0.00002939   -0.00031034
     atom   28 type  2   force =    -0.00069772    0.00041297   -0.00002421
     atom   29 type  2   force =     0.00049726    0.00035032   -0.00012197
     atom   30 type  2   force =    -0.00032294    0.00018099    0.00024797
     atom   31 type  2   force =     0.00049726   -0.00035032   -0.00012197
     atom   32 type  2   force =    -0.00032294   -0.00018099    0.00024797
     atom   33 type  2   force =    -0.00011791    0.00009199   -0.00018826
     atom   34 type  2   force =     0.00036484    0.00011645    0.00001586
     atom   35 type  2   force =    -0.00011791   -0.00009199   -0.00018826
     atom   36 type  2   force =     0.00036484   -0.00011645    0.00001586
     atom   37 type  2   force =     0.00001198   -0.00032300   -0.00020733
     atom   38 type  2   force =    -0.00016006    0.00016794    0.00044186
     atom   39 type  2   force =     0.00001198    0.00032300   -0.00020733
     atom   40 type  2   force =    -0.00016006   -0.00016794    0.00044186
     atom   41 type  2   force =     0.00003535   -0.00022444   -0.00013683
     atom   42 type  2   force =     0.00003535    0.00022444   -0.00013683

     Total force =     0.002938     Total SCF correction =     0.002486
     SCF correction compared to forces is large: reduce conv_thr to get better values


     Computing stress (Cartesian axis) and pressure

          total   stress  (Ry/bohr**3)                   (kbar)     P=        0.03
   0.00000310   0.00000000   0.00000052            0.46        0.00        0.08
   0.00000000  -0.00000117   0.00000000            0.00       -0.17        0.00
   0.00000052   0.00000000  -0.00000137            0.08        0.00       -0.20


     BFGS Geometry Optimization
     Energy error            =      0.0E+00 Ry
     Gradient error          =      7.0E-04 Ry/Bohr
     Cell gradient error     =      4.6E-01 kbar

     bfgs converged in   1 scf cycles and   0 bfgs steps
     (criteria: energy <  1.0E-04 Ry, force <  1.0E-03 Ry/Bohr, cell <  5.0E-01 kbar)

     End of BFGS Geometry Optimization

     Final enthalpy           =   -2515.0697910675 Ry
Begin final coordinates
     new unit-cell volume =   6758.72302 a.u.^3 (  1001.53942 Ang^3 )
     density =      1.85381 g/cm^3

CELL_PARAMETERS (angstrom)
   5.515390422   0.000000000   0.000000000
   0.000000000   4.639356717   0.000000000
   0.000000000   0.000000000  39.141189575

ATOMIC_POSITIONS (angstrom)
Ti               3.9745683367       -0.2322797081       12.5229810292
Ti               1.2168732900        2.5519579284       12.5229810292
Ti               2.1977883671        0.1266198156       14.8878781821
Ti               4.9554832493        2.1930584047       14.8878781821
Ti               0.7666260717       -0.0306921121       17.4798707419
Ti               3.5243209125        2.3503703324       17.4798707419
Ti               4.5638010080        0.0003120818       19.9506346321
Ti               1.8061059613        2.3193661385       19.9506346321
Ti               2.8450591497        0.0305254833       22.4209644180
Ti               0.0873642060        2.2891527370       22.4209644180
Ti               1.4102724822       -0.1264222746       25.0106842407
Ti               4.1679672826        2.4461004948       25.0106842407
Ti               5.1493082416        0.2318713293       27.3751051236
Ti               2.3916133594        2.0878068910       27.3751051236
O                2.6234811215        3.3461414764       11.7161284861
O                5.3811763328        3.6128927704       11.7161284861
O                5.0204295004        1.3929240784       13.1849189000
O                1.0667337564        3.2492537950       14.2032149201
O                2.2627341256        0.9267542116       13.1849177330
O                3.8244284741        3.7097807276       14.2032137531
O                3.4398001653        1.4096752844       15.7033634386
O                4.9686208335        3.2123828686       16.6751613185
O                0.6821052831        0.9100029359       15.7033657716
O                2.2109254577        3.7466516540       16.6751601515
O                1.8325785129        1.4099926798       18.2248064365
O                3.3653789597        3.2336047709       19.1899317075
O                4.5902737241        0.9096854718       18.2248064365
O                0.6076837899        3.7254294759       19.1899317075
O                0.2437717308        1.4057052343       20.7104402044
O                1.7758585688        3.2282248721       21.6771234709
O                3.0014663253        0.9139730557       20.7104378714
O                4.5335541091        3.7308096515       21.6771258039
O                4.1555214442        1.4286378174       23.2253576373
O                0.1690024933        3.2295355351       24.1951368708
O                1.3978258221        0.8910404726       23.2253529713
O                2.9266973038        3.7294989874       24.1951345378
O                2.5430968059        1.3884506734       25.6957653627
O                4.1009299169        3.2495070976       26.7124014235
O                5.3007915246        0.9312274782       25.6957653627
O                1.3432354455        3.7095271492       26.7124014235
O                0.9865570243        1.2909783740       28.1807939077
O                3.7442519065        1.0286999160       28.1807915747
End final coordinates



     Writing config-only to output data dir ./Out/pwscf.save/

     Final scf calculation at the relaxed structure.
     The G-vectors are recalculated for the final unit cell
     Results may differ from those at the preceding step.
 
     G-vector sticks info
     --------------------
     sticks:   dense  smooth     PW     G-vecs:    dense   smooth      PW
     Sum        3493    3493    931              1200515  1200515  168267
 
     Using Slab Decomposition
 


     bravais-lattice index     =            0
     lattice parameter (alat)  =      10.4226  a.u.
     unit-cell volume          =    6758.7230 (a.u.)^3
     number of atoms/cell      =           42
     number of atomic types    =            2
     number of electrons       =       336.00
     number of Kohn-Sham states=          202
     kinetic-energy cutoff     =     120.0000  Ry
     charge density cutoff     =     480.0000  Ry
     scf convergence threshold =      1.0E-06
     mixing beta               =       0.4000
     number of iterations used =           20  plain     mixing
     press convergence thresh. =      5.0E-01
     Exchange-correlation= PBE
                           (   1   4   3   4   0   0   0)

     GPU acceleration is ACTIVE.


     celldm(1)=  10.422577  celldm(2)=   0.000000  celldm(3)=   0.000000
     celldm(4)=   0.000000  celldm(5)=   0.000000  celldm(6)=   0.000000

     crystal axes: (cart. coord. in units of alat)
               a(1) = (   1.000000   0.000000   0.000000 )  
               a(2) = (   0.000000   0.841166   0.000000 )  
               a(3) = (   0.000000   0.000000   7.096721 )  

     reciprocal axes: (cart. coord. in units 2 pi/alat)
               b(1) = (  1.000000  0.000000  0.000000 )  
               b(2) = (  0.000000  1.188827  0.000000 )  
               b(3) = (  0.000000  0.000000  0.140910 )  


     PseudoPot. # 1 for Ti read from file:
     /cm/shared/apps/KO/pseudo/sg15/Ti_ONCV_PBE-1.2.upf
     MD5 check sum: 1aea57736bd12dcfee93c97d0b9b5968
     Pseudo is Norm-conserving, Zval = 12.0
     Generated using ONCVPSP code by D. R. Hamann
     Using radial grid of  602 points,  6 beta functions with: 
                l(1) =   0
                l(2) =   0
                l(3) =   1
                l(4) =   1
                l(5) =   2
                l(6) =   2

     PseudoPot. # 2 for O  read from file:
     /cm/shared/apps/KO/pseudo/sg15/O_ONCV_PBE-1.2.upf
     MD5 check sum: e36c48deb68f4e355fffe4602be2c42c
     Pseudo is Norm-conserving, Zval =  6.0
     Generated using ONCVPSP code by D. R. Hamann
     Using radial grid of  602 points,  4 beta functions with: 
                l(1) =   0
                l(2) =   0
                l(3) =   1
                l(4) =   1

     atomic species   valence    mass     pseudopotential
     Ti               12.00    47.86700     Ti( 1.00)
     O                 6.00    15.99900     O ( 1.00)

      2 Sym. Ops. (no inversion) found ( 1 have fractional translation)



   Cartesian axes

     site n.     atom                  positions (alat units)
         1        Ti     tau(   1) = (   0.7206323  -0.0421148   2.2705520  )
         2        Ti     tau(   2) = (   0.2206323   0.4626976   2.2705520  )
         3        Ti     tau(   3) = (   0.3984828   0.0229575   2.6993335  )
         4        Ti     tau(   4) = (   0.8984828   0.3976252   2.6993335  )
         5        Ti     tau(   5) = (   0.1389976  -0.0055648   3.1692898  )
         6        Ti     tau(   6) = (   0.6389975   0.4261476   3.1692898  )
         7        Ti     tau(   7) = (   0.8274665   0.0000566   3.6172661  )
         8        Ti     tau(   8) = (   0.3274666   0.4205262   3.6172661  )
         9        Ti     tau(   9) = (   0.5158400   0.0055346   4.0651636  )
        10        Ti     tau(  10) = (   0.0158401   0.4150482   4.0651636  )
        11        Ti     tau(  11) = (   0.2556977  -0.0229217   4.5347078  )
        12        Ti     tau(  12) = (   0.7556976   0.4435045   4.5347078  )
        13        Ti     tau(  13) = (   0.9336253   0.0420408   4.9634030  )
        14        Ti     tau(  14) = (   0.4336254   0.3785420   4.9634030  )
        15        O      tau(  15) = (   0.4756655   0.6066917   2.1242609  )
        16        O      tau(  16) = (   0.9756655   0.6550566   2.1242609  )
        17        O      tau(  17) = (   0.9102582   0.2525522   2.3905686  )
        18        O      tau(  18) = (   0.1934104   0.5891249   2.5751966  )
        19        O      tau(  19) = (   0.4102582   0.1680306   2.3905683  )
        20        O      tau(  20) = (   0.6934103   0.6726234   2.5751964  )
        21        O      tau(  21) = (   0.6236730   0.2555894   2.8471898  )
        22        O      tau(  22) = (   0.9008648   0.5824398   3.0233873  )
        23        O      tau(  23) = (   0.1236731   0.1649934   2.8471902  )
        24        O      tau(  24) = (   0.4008647   0.6793085   3.0233871  )
        25        O      tau(  25) = (   0.3322663   0.2556469   3.3043547  )
        26        O      tau(  26) = (   0.6101796   0.5862876   3.4793424  )
        27        O      tau(  27) = (   0.8322663   0.1649358   3.3043547  )
        28        O      tau(  28) = (   0.1101797   0.6754607   3.4793424  )
        29        O      tau(  29) = (   0.0441985   0.2548696   3.7550270  )
        30        O      tau(  30) = (   0.3219824   0.5853121   3.9302972  )
        31        O      tau(  31) = (   0.5441983   0.1657132   3.7550266  )
        32        O      tau(  32) = (   0.8219824   0.6764362   3.9302976  )
        33        O      tau(  33) = (   0.7534410   0.2590275   4.2110088  )
        34        O      tau(  34) = (   0.0306420   0.5855498   4.3868403  )
        35        O      tau(  35) = (   0.2534410   0.1615553   4.2110080  )
        36        O      tau(  36) = (   0.5306419   0.6761985   4.3868399  )
        37        O      tau(  37) = (   0.4610910   0.2517411   4.6589205  )
        38        O      tau(  38) = (   0.7435430   0.5891708   4.8432476  )
        39        O      tau(  39) = (   0.9610909   0.1688416   4.6589205  )
        40        O      tau(  40) = (   0.2435431   0.6725774   4.8432476  )
        41        O      tau(  41) = (   0.1788735   0.2340684   5.1094831  )
        42        O      tau(  42) = (   0.6788734   0.1865144   5.1094826  )

     number of k points=    12  Gaussian smearing, width (Ry)=  0.0200
                       cart. coord. in units 2pi/alat
        k(    1) = (   0.0000000   0.0000000   0.0000000), wk =   0.0666667
        k(    2) = (   0.0000000   0.1981378   0.0000000), wk =   0.1333333
        k(    3) = (   0.0000000   0.3962755   0.0000000), wk =   0.1333333
        k(    4) = (   0.0000000  -0.5944133   0.0000000), wk =   0.0666667
        k(    5) = (   0.2000000   0.0000000   0.0000000), wk =   0.1333333
        k(    6) = (   0.2000000   0.1981378   0.0000000), wk =   0.2666667
        k(    7) = (   0.2000000   0.3962755   0.0000000), wk =   0.2666667
        k(    8) = (   0.2000000  -0.5944133   0.0000000), wk =   0.1333333
        k(    9) = (   0.4000000   0.0000000   0.0000000), wk =   0.1333333
        k(   10) = (   0.4000000   0.1981378   0.0000000), wk =   0.2666667
        k(   11) = (   0.4000000   0.3962755   0.0000000), wk =   0.2666667
        k(   12) = (   0.4000000  -0.5944133   0.0000000), wk =   0.1333333

     Dense  grid:  1200515 G-vectors     FFT dimensions: (  80,  64, 540)

     Estimated max dynamical RAM per process >       9.91 GB

     Initial potential from superposition of free atoms

     starting charge     334.4371, renormalised to     336.0000

     negative rho (up, down):  1.385E-03 0.000E+00
     Starting wfcs are random

     total cpu time spent up to now is      243.2 secs

     Self-consistent Calculation

     iteration #  1     ecut=   120.00 Ry     beta= 0.40
     Davidson diagonalization with overlap
     c_bands:  2 eigenvalues not converged
     c_bands:  2 eigenvalues not converged
     c_bands:  3 eigenvalues not converged
     c_bands:  1 eigenvalues not converged
     c_bands:  2 eigenvalues not converged
     c_bands:  2 eigenvalues not converged
     c_bands:  3 eigenvalues not converged
     c_bands:  1 eigenvalues not converged
     c_bands:  2 eigenvalues not converged
     c_bands:  3 eigenvalues not converged
     c_bands:  2 eigenvalues not converged
     c_bands:  2 eigenvalues not converged
     ethr =  1.00E-06,  avg # of iterations = 60.0

     negative rho (up, down):  7.655E-04 0.000E+00

     total cpu time spent up to now is      326.1 secs

     total energy              =   -2509.36895423 Ry
     estimated scf accuracy    <      19.09573521 Ry

     iteration #  2     ecut=   120.00 Ry     beta= 0.40
     Davidson diagonalization with overlap
     ethr =  5.68E-03,  avg # of iterations =  4.1

     negative rho (up, down):  5.133E-04 0.000E+00

     total cpu time spent up to now is      337.8 secs

     total energy              =   -2512.74365107 Ry
     estimated scf accuracy    <       8.96686353 Ry

     iteration #  3     ecut=   120.00 Ry     beta= 0.40
     Davidson diagonalization with overlap
     ethr =  2.67E-03,  avg # of iterations =  3.4

     negative rho (up, down):  4.012E-04 0.000E+00

     total cpu time spent up to now is      348.7 secs

     total energy              =   -2514.83831768 Ry
     estimated scf accuracy    <       1.25959455 Ry

     iteration #  4     ecut=   120.00 Ry     beta= 0.40
     Davidson diagonalization with overlap
     ethr =  3.75E-04,  avg # of iterations =  4.1

     negative rho (up, down):  2.499E-04 0.000E+00

     total cpu time spent up to now is      359.6 secs

     total energy              =   -2514.98714996 Ry
     estimated scf accuracy    <       0.44622741 Ry

     iteration #  5     ecut=   120.00 Ry     beta= 0.40
     Davidson diagonalization with overlap
     ethr =  1.33E-04,  avg # of iterations =  6.8

     negative rho (up, down):  5.780E-05 0.000E+00

     total cpu time spent up to now is      370.6 secs

     total energy              =   -2515.03329745 Ry
     estimated scf accuracy    <       0.08246511 Ry

     iteration #  6     ecut=   120.00 Ry     beta= 0.40
     Davidson diagonalization with overlap
     c_bands:  1 eigenvalues not converged
     c_bands:  3 eigenvalues not converged
     c_bands:  1 eigenvalues not converged
     ethr =  2.45E-05,  avg # of iterations = 16.4

     negative rho (up, down):  1.477E-05 0.000E+00

     total cpu time spent up to now is      387.3 secs

     total energy              =   -2515.05877561 Ry
     estimated scf accuracy    <       0.13801863 Ry

     iteration #  7     ecut=   120.00 Ry     beta= 0.40
     Davidson diagonalization with overlap
     ethr =  2.45E-05,  avg # of iterations =  2.3

     negative rho (up, down):  6.212E-06 0.000E+00

     total cpu time spent up to now is      397.4 secs

     total energy              =   -2515.06361133 Ry
     estimated scf accuracy    <       0.02148025 Ry

     iteration #  8     ecut=   120.00 Ry     beta= 0.40
     Davidson diagonalization with overlap
     ethr =  6.39E-06,  avg # of iterations =  7.6

     negative rho (up, down):  2.514E-06 0.000E+00

     total cpu time spent up to now is      410.8 secs

     total energy              =   -2515.06932400 Ry
     estimated scf accuracy    <       0.00192325 Ry

     iteration #  9     ecut=   120.00 Ry     beta= 0.40
     Davidson diagonalization with overlap
     ethr =  5.72E-07,  avg # of iterations =  8.7

     negative rho (up, down):  1.325E-06 0.000E+00

     total cpu time spent up to now is      423.3 secs

     total energy              =   -2515.06969374 Ry
     estimated scf accuracy    <       0.00026225 Ry

     iteration # 10     ecut=   120.00 Ry     beta= 0.40
     Davidson diagonalization with overlap
     ethr =  7.80E-08,  avg # of iterations =  5.2

     negative rho (up, down):  7.073E-07 0.000E+00

     total cpu time spent up to now is      435.9 secs

     total energy              =   -2515.06977726 Ry
     estimated scf accuracy    <       0.00022324 Ry

     iteration # 11     ecut=   120.00 Ry     beta= 0.40
     Davidson diagonalization with overlap
     ethr =  6.64E-08,  avg # of iterations =  1.3

     negative rho (up, down):  1.152E-07 0.000E+00

     total cpu time spent up to now is      445.5 secs

     total energy              =   -2515.06976863 Ry
     estimated scf accuracy    <       0.00006623 Ry

     iteration # 12     ecut=   120.00 Ry     beta= 0.40
     Davidson diagonalization with overlap
     c_bands:  2 eigenvalues not converged
     ethr =  1.97E-08,  avg # of iterations =  8.3

     total cpu time spent up to now is      458.4 secs

     total energy              =   -2515.06979527 Ry
     estimated scf accuracy    <       0.00002890 Ry

     iteration # 13     ecut=   120.00 Ry     beta= 0.40
     Davidson diagonalization with overlap
     ethr =  8.60E-09,  avg # of iterations =  1.8

     negative rho (up, down):  3.006E-08 0.000E+00

     total cpu time spent up to now is      468.4 secs

     total energy              =   -2515.06978772 Ry
     estimated scf accuracy    <       0.00002791 Ry

     iteration # 14     ecut=   120.00 Ry     beta= 0.40
     Davidson diagonalization with overlap
     ethr =  8.31E-09,  avg # of iterations =  2.8

     negative rho (up, down):  1.999E-08 0.000E+00

     total cpu time spent up to now is      478.7 secs

     total energy              =   -2515.06979056 Ry
     estimated scf accuracy    <       0.00000202 Ry

     iteration # 15     ecut=   120.00 Ry     beta= 0.40
     Davidson diagonalization with overlap
     ethr =  6.00E-10,  avg # of iterations =  5.5

     total cpu time spent up to now is      491.9 secs

     End of self-consistent calculation

          k = 0.0000 0.0000 0.0000 (150143 PWs)   bands (ev):

   -56.5806 -56.5716 -56.5640 -56.5630 -56.5543 -56.5533 -56.4723 -56.4679
   -56.4659 -56.4619 -56.2351 -56.2316 -56.2226 -56.2191 -33.0492 -33.0467
   -33.0047 -32.9972 -32.9466 -32.9322 -32.8545 -32.8460 -32.8434 -32.8409
   -32.8196 -32.8120 -32.7729 -32.7645 -32.7622 -32.7541 -32.7532 -32.7503
   -32.7493 -32.7438 -32.7197 -32.7112 -32.7093 -32.7077 -32.6886 -32.6739
   -32.6427 -32.6412 -32.6404 -32.6399 -32.6341 -32.6338 -32.6313 -32.6237
   -32.5518 -32.5493 -32.4934 -32.4907 -32.3969 -32.3939 -32.3831 -32.3803
   -17.6845 -17.5456 -17.3041 -16.8348 -16.7704 -16.7203 -16.6403 -16.5753
   -16.5598 -16.5583 -16.4288 -16.4138 -16.3180 -16.2932 -16.2830 -16.2666
   -16.1649 -16.1604 -16.1508 -15.9898 -15.9801 -15.8832 -15.8555 -15.8137
   -15.5847 -15.5837 -15.5693 -15.5659  -5.2432  -5.0296  -4.7940  -4.7641
    -4.6279  -4.5564  -4.4859  -4.4430  -4.3927  -4.3294  -4.1977  -4.1799
    -4.1574  -4.0899  -3.9258  -3.8953  -3.8346  -3.7495  -3.7413  -3.6579
    -3.6555  -3.5914  -3.5622  -3.4708  -3.4458  -3.4179  -3.3901  -3.2485
    -3.2363  -3.2187  -3.1799  -3.0568  -3.0177  -2.9851  -2.9220  -2.8979
    -2.6891  -2.6852  -2.6720  -2.4864  -2.4112  -2.2957  -2.2669  -2.1156
    -2.0788  -2.0664  -2.0501  -2.0242  -1.9091  -1.8983  -1.8887  -1.8505
    -1.7971  -1.7746  -1.7287  -1.7127  -1.6752  -1.6557  -1.6488  -1.5042
    -1.3415  -1.3057  -1.3033  -1.2580  -1.1472  -1.0850  -1.0824  -0.9147
    -0.8513  -0.7802  -0.7463  -0.7062  -0.6613  -0.5730  -0.4757  -0.4291
    -0.4253  -0.2881  -0.2799  -0.2256  -0.0475   0.1331   0.2570   0.3246
     2.3418   2.4143   2.4470   2.4675   2.5186   2.6039   2.6435   2.7886
     2.7991   2.8719   2.8998   2.9387   2.9671   2.9876   3.0243   3.0509
     3.1087   3.1141   3.1457   3.2698   3.3672   3.3767   3.4140   3.4517
     3.4675   3.5779   3.6852   3.7771   3.8388   3.8411   3.9185   3.9740
     4.1301   4.2266

          k = 0.0000 0.1981 0.0000 (149997 PWs)   bands (ev):

   -56.5800 -56.5722 -56.5635 -56.5625 -56.5548 -56.5537 -56.4719 -56.4676
   -56.4663 -56.4623 -56.2348 -56.2313 -56.2228 -56.2193 -33.0462 -33.0443
   -33.0012 -32.9955 -32.9415 -32.9303 -32.8495 -32.8447 -32.8370 -32.8368
   -32.8211 -32.8159 -32.7811 -32.7782 -32.7711 -32.7655 -32.7591 -32.7579
   -32.7396 -32.7375 -32.7174 -32.7096 -32.7052 -32.7027 -32.6869 -32.6733
   -32.6465 -32.6447 -32.6425 -32.6410 -32.6334 -32.6329 -32.6305 -32.6237
   -32.5498 -32.5472 -32.4923 -32.4896 -32.3994 -32.3964 -32.3858 -32.3829
   -17.5968 -17.4683 -17.2422 -16.8010 -16.7488 -16.7051 -16.6063 -16.5643
   -16.5444 -16.5080 -16.4372 -16.4159 -16.3802 -16.3562 -16.3277 -16.2368
   -16.2038 -16.1917 -16.1163 -16.0643 -15.9608 -15.9429 -15.8647 -15.8363
   -15.6382 -15.6372 -15.5864 -15.5851  -5.0944  -4.9429  -4.7828  -4.6817
    -4.5250  -4.4751  -4.4711  -4.4540  -4.3744  -4.2382  -4.2061  -4.1296
    -4.1154  -4.0599  -4.0086  -3.9893  -3.8770  -3.7525  -3.6555  -3.6381
    -3.6261  -3.5950  -3.5226  -3.5117  -3.4619  -3.3712  -3.3687  -3.2876
    -3.2421  -3.2011  -3.1821  -3.1178  -3.0499  -2.9128  -2.8768  -2.8717
    -2.7724  -2.7307  -2.6220  -2.5285  -2.4611  -2.3251  -2.3033  -2.2374
    -2.1629  -2.1448  -2.0944  -2.0836  -2.0358  -2.0277  -2.0025  -1.8786
    -1.8369  -1.7365  -1.7124  -1.6744  -1.5730  -1.5550  -1.5458  -1.4370
    -1.3304  -1.3175  -1.2771  -1.2594  -1.2231  -1.1212  -0.9149  -0.8949
    -0.8657  -0.8013  -0.7112  -0.6959  -0.6892  -0.6400  -0.5829  -0.5808
    -0.3976  -0.3816  -0.2723  -0.2671  -0.1050   0.0371   0.1556   0.2253
     2.4283   2.4717   2.4964   2.5491   2.5655   2.6528   2.7831   2.7979
     2.8199   2.9112   2.9225   2.9575   3.0476   3.0593   3.0922   3.1672
     3.1811   3.2709   3.2889   3.3519   3.3835   3.4216   3.4470   3.4749
     3.5444   3.5593   3.6686   3.7269   3.8208   3.8630   3.8851   3.8890
     3.9597   4.0715

          k = 0.0000 0.3963 0.0000 (149940 PWs)   bands (ev):

   -56.5783 -56.5738 -56.5623 -56.5613 -56.5559 -56.5548 -56.4708 -56.4675
   -56.4665 -56.4634 -56.2343 -56.2308 -56.2233 -56.2198 -33.0399 -33.0390
   -32.9943 -32.9919 -32.9307 -32.9259 -32.8376 -32.8362 -32.8264 -32.8240
   -32.8228 -32.8206 -32.7986 -32.7964 -32.7881 -32.7862 -32.7780 -32.7755
   -32.7306 -32.7287 -32.7103 -32.7063 -32.6978 -32.6936 -32.6830 -32.6724
   -32.6572 -32.6546 -32.6482 -32.6445 -32.6314 -32.6307 -32.6274 -32.6236
   -32.5455 -32.5429 -32.4899 -32.4872 -32.4048 -32.4018 -32.3912 -32.3884
   -17.3550 -17.2555 -17.0739 -16.7665 -16.7394 -16.7215 -16.5734 -16.5630
   -16.5073 -16.4980 -16.4701 -16.4684 -16.4059 -16.3837 -16.3783 -16.2679
   -16.2615 -16.2470 -16.1178 -16.0789 -16.0367 -15.9779 -15.8961 -15.8885
   -15.7662 -15.7648 -15.6195 -15.6191  -4.7633  -4.7051  -4.6572  -4.5087
    -4.4309  -4.4206  -4.3853  -4.3323  -4.2701  -4.2414  -4.1699  -4.1632
    -4.0870  -4.0770  -4.0186  -4.0125  -3.9350  -3.9240  -3.7771  -3.7640
    -3.6448  -3.5536  -3.5105  -3.3813  -3.3647  -3.3463  -3.2702  -3.2581
    -3.1127  -3.0903  -3.0708  -3.0470  -3.0291  -2.9331  -2.9193  -2.8707
    -2.7737  -2.7191  -2.5757  -2.5641  -2.5436  -2.4472  -2.4071  -2.3879
    -2.3185  -2.2962  -2.2306  -2.1852  -2.1522  -2.1510  -2.0239  -1.9686
    -1.8746  -1.7975  -1.7921  -1.7553  -1.6101  -1.5049  -1.4841  -1.4507
    -1.4014  -1.3677  -1.2238  -1.1712  -1.1684  -1.0991  -1.0704  -1.0046
    -0.9522  -0.9424  -0.8381  -0.8065  -0.6782  -0.6742  -0.5737  -0.4476
    -0.3961  -0.3743  -0.3170  -0.2309  -0.1934  -0.1269  -0.0254  -0.0195
     2.6197   2.6212   2.6738   2.6871   2.7437   2.8200   2.8649   2.8907
     2.9790   3.0265   3.1315   3.1475   3.1847   3.2434   3.2482   3.2641
     3.3886   3.4189   3.4296   3.4725   3.4940   3.4958   3.5373   3.5876
     3.5904   3.6067   3.6341   3.6757   3.7154   3.7159   3.7300   3.8608
     3.8756   3.8766

          k = 0.0000-0.5944 0.0000 (150022 PWs)   bands (ev):

   -56.5760 -56.5759 -56.5615 -56.5605 -56.5567 -56.5556 -56.4697 -56.4685
   -56.4656 -56.4644 -56.2341 -56.2306 -56.2236 -56.2201 -33.0365 -33.0364
   -32.9905 -32.9902 -32.9242 -32.9241 -32.8299 -32.8298 -32.8192 -32.8189
   -32.8130 -32.8124 -32.8087 -32.8087 -32.8023 -32.8023 -32.7897 -32.7892
   -32.7264 -32.7264 -32.7052 -32.7043 -32.6914 -32.6909 -32.6760 -32.6760
   -32.6639 -32.6632 -32.6489 -32.6486 -32.6303 -32.6297 -32.6249 -32.6242
   -32.5431 -32.5405 -32.4887 -32.4859 -32.4076 -32.4047 -32.3940 -32.3913
   -17.0269 -17.0263 -16.9670 -16.9656 -16.8538 -16.8535 -16.5635 -16.5628
   -16.5162 -16.5156 -16.4187 -16.4186 -16.3794 -16.3788 -16.3566 -16.3557
   -16.3062 -16.3058 -16.0530 -16.0526 -16.0103 -16.0103 -15.9714 -15.9699
   -15.8273 -15.8271 -15.6377 -15.6377  -4.5051  -4.5035  -4.4345  -4.4321
    -4.3850  -4.3850  -4.2976  -4.2971  -4.2740  -4.2727  -4.1797  -4.1786
    -4.1638  -4.1634  -4.1482  -4.1475  -4.0603  -4.0589  -3.8021  -3.8019
    -3.5110  -3.5092  -3.4158  -3.4147  -3.2402  -3.2390  -3.1730  -3.1721
    -3.0936  -3.0931  -2.9791  -2.9789  -2.8698  -2.8691  -2.7741  -2.7731
    -2.7367  -2.7362  -2.6990  -2.6977  -2.6111  -2.6111  -2.4459  -2.4446
    -2.3970  -2.3953  -2.2996  -2.2995  -2.1721  -2.1714  -2.0144  -2.0139
    -1.9409  -1.9398  -1.8093  -1.8085  -1.6637  -1.6624  -1.4958  -1.4950
    -1.4080  -1.4079  -1.3021  -1.3000  -1.1670  -1.1661  -1.0486  -1.0477
    -0.9739  -0.9732  -0.7481  -0.7467  -0.5780  -0.5773  -0.5101  -0.5095
    -0.4381  -0.4373  -0.3376  -0.3373  -0.1703  -0.1662  -0.0895  -0.0887
     2.7901   2.7915   2.8041   2.8059   2.8196   2.8210   3.0068   3.0082
     3.0826   3.0851   3.1465   3.1481   3.2924   3.2947   3.3372   3.3375
     3.3974   3.3988   3.4669   3.4707   3.5260   3.5305   3.6019   3.6042
     3.6565   3.6568   3.6930   3.6951   3.7543   3.7554   3.8468   3.8470
     3.8806   3.8813

          k = 0.2000 0.0000 0.0000 (150000 PWs)   bands (ev):

   -56.5798 -56.5725 -56.5631 -56.5620 -56.5553 -56.5542 -56.4717 -56.4674
   -56.4665 -56.4625 -56.2339 -56.2304 -56.2238 -56.2203 -33.0451 -33.0434
   -33.0001 -32.9944 -32.9400 -32.9287 -32.8469 -32.8395 -32.8376 -32.8354
   -32.8191 -32.8177 -32.7826 -32.7775 -32.7728 -32.7718 -32.7651 -32.7617
   -32.7360 -32.7346 -32.7156 -32.7082 -32.7035 -32.7026 -32.6860 -32.6730
   -32.6482 -32.6457 -32.6437 -32.6417 -32.6333 -32.6326 -32.6304 -32.6240
   -32.5451 -32.5425 -32.4967 -32.4940 -32.3982 -32.3952 -32.3881 -32.3852
   -17.5879 -17.4547 -17.2198 -16.7787 -16.7574 -16.7226 -16.5940 -16.5815
   -16.5746 -16.5215 -16.4985 -16.4432 -16.4061 -16.3051 -16.2706 -16.2232
   -16.2115 -16.1894 -16.1405 -16.0061 -15.9890 -15.8998 -15.8853 -15.8709
   -15.6459 -15.6456 -15.5967 -15.5937  -5.0778  -4.8789  -4.6917  -4.6159
    -4.5468  -4.3785  -4.3743  -4.3304  -4.2699  -4.1726  -4.1410  -4.1146
    -4.0146  -4.0091  -3.9288  -3.8587  -3.7995  -3.7843  -3.7203  -3.6540
    -3.6526  -3.5523  -3.5212  -3.4792  -3.3978  -3.3707  -3.3456  -3.2244
    -3.2201  -3.1876  -3.1421  -3.0471  -3.0277  -3.0153  -2.9052  -2.8732
    -2.7832  -2.7517  -2.6421  -2.5387  -2.4199  -2.4114  -2.3383  -2.2725
    -2.2195  -2.2076  -2.1977  -2.1047  -2.0685  -2.0596  -1.9492  -1.9154
    -1.8682  -1.8488  -1.7934  -1.7841  -1.6415  -1.6394  -1.5961  -1.4843
    -1.4259  -1.4045  -1.3163  -1.2506  -1.1798  -1.1074  -1.0640  -1.0614
    -0.9508  -0.9062  -0.8548  -0.7913  -0.7727  -0.6505  -0.5955  -0.5658
    -0.5372  -0.4804  -0.4362  -0.3926  -0.1492   0.0345   0.1557   0.2323
     2.4869   2.4937   2.5633   2.6427   2.6778   2.7379   2.7403   2.8153
     2.8636   2.9094   2.9316   3.0656   3.0687   3.0710   3.1625   3.1762
     3.2015   3.2353   3.2897   3.3472   3.4227   3.4829   3.5143   3.5765
     3.5915   3.6404   3.6763   3.7144   3.7356   3.8237   3.9012   3.9487
     4.1179   4.1322

          k = 0.2000 0.1981 0.0000 (150047 PWs)   bands (ev):

   -56.5793 -56.5729 -56.5627 -56.5616 -56.5556 -56.5546 -56.4714 -56.4671
   -56.4668 -56.4628 -56.2337 -56.2302 -56.2240 -56.2205 -33.0473 -33.0393
   -33.0012 -32.9917 -32.9413 -32.9250 -32.8531 -32.8443 -32.8279 -32.8227
   -32.8195 -32.8178 -32.7982 -32.7925 -32.7874 -32.7597 -32.7578 -32.7552
   -32.7460 -32.7288 -32.7163 -32.7083 -32.7052 -32.6944 -32.6851 -32.6731
   -32.6586 -32.6481 -32.6411 -32.6394 -32.6334 -32.6314 -32.6292 -32.6238
   -32.5441 -32.5415 -32.4967 -32.4940 -32.4010 -32.3981 -32.3869 -32.3841
   -17.5131 -17.3905 -17.1722 -16.7801 -16.7461 -16.7021 -16.6256 -16.6005
   -16.5598 -16.5021 -16.4747 -16.4400 -16.4133 -16.3118 -16.2992 -16.2611
   -16.2193 -16.1795 -16.1489 -16.0443 -16.0002 -15.9456 -15.9011 -15.8552
   -15.6964 -15.6952 -15.5840 -15.5820  -5.0596  -4.8819  -4.6689  -4.5420
    -4.4768  -4.4013  -4.3093  -4.2826  -4.2570  -4.1561  -4.1161  -4.0845
    -4.0517  -4.0000  -3.9807  -3.9221  -3.8808  -3.8353  -3.7896  -3.7554
    -3.6351  -3.6101  -3.5124  -3.4315  -3.4100  -3.3721  -3.2744  -3.2533
    -3.2406  -3.2143  -3.1646  -3.1052  -3.0163  -2.9307  -2.8852  -2.8323
    -2.7119  -2.6466  -2.6407  -2.5596  -2.4814  -2.4241  -2.3826  -2.3035
    -2.2360  -2.1426  -2.0857  -2.0510  -2.0271  -1.9929  -1.9603  -1.9238
    -1.8838  -1.8255  -1.7763  -1.7447  -1.6735  -1.6085  -1.5519  -1.4724
    -1.4180  -1.4000  -1.3458  -1.2213  -1.1636  -1.1213  -1.0676  -1.0344
    -0.9608  -0.8409  -0.8209  -0.7984  -0.7394  -0.7144  -0.6604  -0.5945
    -0.5771  -0.5240  -0.4631  -0.4563  -0.2248  -0.0502   0.0723   0.1320
     2.4495   2.4822   2.5828   2.6370   2.6678   2.7518   2.8059   2.8669
     2.8942   2.9303   2.9834   3.0044   3.0901   3.1373   3.1850   3.2885
     3.2950   3.3151   3.3941   3.4158   3.4374   3.4946   3.5295   3.5703
     3.5888   3.6328   3.6600   3.6838   3.7032   3.7727   3.8815   3.9082
     3.9465   4.0453

          k = 0.2000 0.3963 0.0000 (149979 PWs)   bands (ev):

   -56.5778 -56.5742 -56.5617 -56.5606 -56.5565 -56.5555 -56.4705 -56.4678
   -56.4662 -56.4637 -56.2333 -56.2298 -56.2244 -56.2209 -33.0455 -33.0375
   -32.9993 -32.9905 -32.9384 -32.9236 -32.8524 -32.8436 -32.8258 -32.8241
   -32.8199 -32.8163 -32.8051 -32.7984 -32.7939 -32.7685 -32.7613 -32.7592
   -32.7401 -32.7275 -32.7155 -32.7061 -32.7042 -32.6919 -32.6822 -32.6740
   -32.6625 -32.6491 -32.6429 -32.6396 -32.6329 -32.6307 -32.6280 -32.6243
   -32.5416 -32.5390 -32.4975 -32.4948 -32.4030 -32.4001 -32.3879 -32.3850
   -17.3114 -17.2165 -17.0410 -16.8456 -16.7999 -16.7019 -16.6192 -16.5993
   -16.5760 -16.5021 -16.4784 -16.4055 -16.3697 -16.3461 -16.3359 -16.3169
   -16.2833 -16.1977 -16.1552 -16.0515 -16.0393 -15.9816 -15.9600 -15.8988
   -15.7374 -15.7341 -15.6005 -15.5994  -4.9647  -4.8023  -4.6039  -4.5290
    -4.4652  -4.4030  -4.3605  -4.2556  -4.2329  -4.2105  -4.1808  -4.1148
    -4.0923  -4.0744  -4.0146  -3.9878  -3.9180  -3.8349  -3.7324  -3.7084
    -3.6921  -3.5829  -3.5619  -3.4221  -3.3931  -3.3143  -3.3014  -3.2806
    -3.1847  -3.0969  -3.0460  -2.9816  -2.9307  -2.9002  -2.8837  -2.7616
    -2.7117  -2.6409  -2.6046  -2.5336  -2.4756  -2.4338  -2.4018  -2.3162
    -2.2864  -2.1776  -2.1088  -2.0587  -2.0477  -1.9981  -1.9454  -1.9139
    -1.8541  -1.7714  -1.7061  -1.6689  -1.6159  -1.5513  -1.5451  -1.4506
    -1.3972  -1.3717  -1.3049  -1.2801  -1.2088  -1.1371  -1.0509  -1.0451
    -0.9703  -0.9351  -0.8855  -0.8567  -0.8482  -0.7479  -0.7266  -0.6247
    -0.5498  -0.4954  -0.4362  -0.4140  -0.3329  -0.2003  -0.1005  -0.0808
     2.4870   2.5068   2.6334   2.6775   2.7557   2.8035   2.8188   2.9068
     2.9856   3.0402   3.0430   3.0903   3.1412   3.1795   3.2595   3.2991
     3.3554   3.3675   3.4112   3.4191   3.4850   3.5171   3.5375   3.5778
     3.5961   3.6468   3.6732   3.6978   3.7446   3.7852   3.8091   3.8565
     3.8896   3.9338

          k = 0.2000-0.5944 0.0000 (150028 PWs)   bands (ev):

   -56.5760 -56.5759 -56.5611 -56.5600 -56.5571 -56.5561 -56.4696 -56.4686
   -56.4655 -56.4645 -56.2331 -56.2296 -56.2246 -56.2211 -33.0408 -33.0407
   -32.9943 -32.9941 -32.9303 -32.9302 -32.8419 -32.8418 -32.8338 -32.8337
   -32.8242 -32.8240 -32.7917 -32.7914 -32.7801 -32.7798 -32.7720 -32.7713
   -32.7309 -32.7309 -32.7106 -32.7098 -32.6995 -32.6988 -32.6779 -32.6779
   -32.6521 -32.6518 -32.6441 -32.6441 -32.6318 -32.6311 -32.6266 -32.6259
   -32.5402 -32.5376 -32.4983 -32.4956 -32.4023 -32.3994 -32.3897 -32.3869
   -17.0546 -17.0542 -16.9888 -16.9877 -16.8537 -16.8535 -16.5852 -16.5849
   -16.5170 -16.5164 -16.4591 -16.4581 -16.4014 -16.3992 -16.3051 -16.3050
   -16.2620 -16.2619 -16.0976 -16.0975 -16.0298 -16.0292 -15.9601 -15.9598
   -15.7356 -15.7345 -15.6212 -15.6208  -4.7483  -4.7482  -4.6221  -4.6219
    -4.4679  -4.4675  -4.3901  -4.3900  -4.3054  -4.3047  -4.1954  -4.1952
    -4.0862  -4.0849  -3.9989  -3.9987  -3.8212  -3.8211  -3.7183  -3.7174
    -3.5206  -3.5185  -3.4366  -3.4354  -3.3114  -3.3110  -3.2558  -3.2549
    -3.0793  -3.0788  -3.0399  -3.0397  -2.9797  -2.9766  -2.7998  -2.7996
    -2.5849  -2.5846  -2.5293  -2.5273  -2.4693  -2.4692  -2.3679  -2.3678
    -2.2390  -2.2383  -2.1702  -2.1690  -2.0274  -2.0266  -1.9063  -1.9054
    -1.8008  -1.8000  -1.7391  -1.7378  -1.5746  -1.5739  -1.4271  -1.4266
    -1.3685  -1.3680  -1.3270  -1.3266  -1.2312  -1.2294  -1.1089  -1.1083
    -1.0602  -1.0597  -0.9081  -0.9071  -0.7695  -0.7692  -0.5413  -0.5411
    -0.5196  -0.5193  -0.4438  -0.4417  -0.3303  -0.3286  -0.1579  -0.1573
     2.5974   2.5976   2.6669   2.6672   2.8412   2.8416   2.8772   2.8783
     2.9640   2.9648   3.1054   3.1071   3.1729   3.1741   3.2518   3.2527
     3.3277   3.3289   3.4449   3.4460   3.4637   3.4654   3.6101   3.6125
     3.6535   3.6542   3.7215   3.7215   3.8335   3.8337   3.9114   3.9122
     3.9567   3.9582

          k = 0.4000 0.0000 0.0000 (150104 PWs)   bands (ev):

   -56.5775 -56.5747 -56.5607 -56.5596 -56.5577 -56.5566 -56.4701 -56.4681
   -56.4659 -56.4640 -56.2308 -56.2273 -56.2269 -56.2234 -33.0382 -33.0377
   -32.9922 -32.9902 -32.9275 -32.9235 -32.8286 -32.8250 -32.8232 -32.8218
   -32.8190 -32.8183 -32.8011 -32.7996 -32.7939 -32.7908 -32.7887 -32.7847
   -32.7271 -32.7257 -32.7061 -32.7034 -32.6953 -32.6927 -32.6798 -32.6740
   -32.6612 -32.6578 -32.6486 -32.6475 -32.6311 -32.6305 -32.6266 -32.6244
   -32.5277 -32.5250 -32.5084 -32.5057 -32.3998 -32.3969 -32.3967 -32.3938
   -17.3231 -17.2087 -16.9958 -16.9665 -16.8930 -16.7346 -16.6795 -16.6671
   -16.5213 -16.4976 -16.4012 -16.3797 -16.3682 -16.2722 -16.2543 -16.2468
   -16.2113 -16.2011 -16.1930 -16.0587 -16.0508 -15.9921 -15.9833 -15.9565
   -15.7096 -15.7096 -15.6621 -15.6605  -4.6852  -4.5445  -4.4563  -4.3879
    -4.3421  -4.2200  -4.1913  -4.1557  -4.1179  -4.0660  -4.0600  -3.9668
    -3.9648  -3.8967  -3.7762  -3.7589  -3.7314  -3.6268  -3.6101  -3.5505
    -3.5427  -3.5044  -3.4419  -3.3601  -3.3556  -3.3160  -3.2408  -3.2066
    -3.1888  -3.1004  -3.1002  -3.0722  -3.0415  -3.0375  -2.9080  -2.8072
    -2.7815  -2.7490  -2.6871  -2.6744  -2.5946  -2.5571  -2.5547  -2.5214
    -2.5164  -2.3898  -2.3307  -2.3155  -2.2938  -2.2462  -2.2006  -2.1305
    -2.0138  -1.8693  -1.8657  -1.8226  -1.7717  -1.7506  -1.6856  -1.6375
    -1.5777  -1.5750  -1.5643  -1.5278  -1.4655  -1.3109  -1.2735  -1.1728
    -1.1166  -1.0707  -1.0424  -0.9120  -0.7673  -0.7456  -0.6981  -0.6720
    -0.5172  -0.4012  -0.3408  -0.3102  -0.2690  -0.2020  -0.0877  -0.0187
     2.5771   2.6347   2.7330   2.7775   2.8187   2.8673   2.9148   2.9293
     3.0331   3.0856   3.1244   3.1664   3.2128   3.2699   3.2712   3.2989
     3.3660   3.4458   3.4940   3.5180   3.5479   3.5644   3.5921   3.6501
     3.6548   3.6914   3.7483   3.7773   3.8708   3.9011   3.9308   3.9836
     4.0106   4.0402

          k = 0.4000 0.1981 0.0000 (150052 PWs)   bands (ev):

   -56.5773 -56.5749 -56.5605 -56.5594 -56.5578 -56.5567 -56.4700 -56.4682
   -56.4658 -56.4642 -56.2307 -56.2272 -56.2270 -56.2235 -33.0428 -33.0378
   -32.9962 -32.9907 -32.9337 -32.9243 -32.8447 -32.8377 -32.8267 -32.8243
   -32.8199 -32.8188 -32.8016 -32.7954 -32.7903 -32.7781 -32.7712 -32.7679
   -32.7332 -32.7265 -32.7110 -32.7045 -32.7027 -32.6936 -32.6797 -32.6754
   -32.6607 -32.6486 -32.6472 -32.6424 -32.6325 -32.6308 -32.6276 -32.6250
   -32.5288 -32.5262 -32.5103 -32.5076 -32.3993 -32.3964 -32.3925 -32.3896
   -17.2837 -17.1797 -16.9943 -16.9670 -16.9008 -16.7532 -16.6764 -16.6652
   -16.5451 -16.4992 -16.4231 -16.3722 -16.3353 -16.3141 -16.2669 -16.2459
   -16.2248 -16.2096 -16.1931 -16.0780 -16.0432 -16.0175 -15.9827 -15.9253
   -15.7021 -15.7018 -15.6347 -15.6333  -4.8599  -4.6973  -4.5222  -4.4510
    -4.4245  -4.2895  -4.2151  -4.1758  -4.1219  -4.0841  -4.0666  -4.0047
    -3.9703  -3.9357  -3.8857  -3.8228  -3.7964  -3.7282  -3.6642  -3.6304
    -3.5930  -3.5223  -3.4880  -3.3734  -3.3290  -3.3142  -3.2903  -3.2476
    -3.1854  -3.1367  -3.0507  -3.0061  -2.9479  -2.9133  -2.8814  -2.8296
    -2.7659  -2.6681  -2.6103  -2.5881  -2.5543  -2.5388  -2.4610  -2.3799
    -2.3274  -2.2930  -2.2490  -2.1935  -2.1495  -2.0963  -2.0442  -1.9820
    -1.9716  -1.8893  -1.8388  -1.8144  -1.6990  -1.6651  -1.6245  -1.5911
    -1.5395  -1.5177  -1.4582  -1.4043  -1.3632  -1.3194  -1.2149  -1.1478
    -1.1041  -1.0476  -0.9884  -0.8743  -0.8220  -0.8072  -0.7158  -0.6730
    -0.6463  -0.5043  -0.4621  -0.4122  -0.3599  -0.2864  -0.1740  -0.1319
     2.5387   2.5948   2.6172   2.7079   2.7614   2.8220   2.8647   2.8760
     2.9518   3.0301   3.0489   3.0617   3.2216   3.2369   3.2851   3.3454
     3.3866   3.4322   3.4563   3.5069   3.5483   3.5615   3.5923   3.6259
     3.6420   3.6810   3.7585   3.7940   3.8043   3.8231   3.9106   3.9296
     3.9839   4.0213

          k = 0.4000 0.3963 0.0000 (150036 PWs)   bands (ev):

   -56.5767 -56.5753 -56.5601 -56.5590 -56.5581 -56.5571 -56.4696 -56.4686
   -56.4655 -56.4645 -56.2305 -56.2271 -56.2270 -56.2236 -33.0473 -33.0426
   -33.0006 -32.9953 -32.9402 -32.9318 -32.8569 -32.8473 -32.8452 -32.8374
   -32.8244 -32.8202 -32.7843 -32.7771 -32.7709 -32.7604 -32.7568 -32.7553
   -32.7438 -32.7319 -32.7173 -32.7115 -32.7082 -32.7018 -32.6805 -32.6779
   -32.6489 -32.6430 -32.6404 -32.6385 -32.6330 -32.6322 -32.6282 -32.6270
   -32.5308 -32.5282 -32.5144 -32.5118 -32.3950 -32.3921 -32.3876 -32.3847
   -17.1897 -17.1059 -17.0168 -16.9624 -16.9238 -16.7915 -16.6515 -16.6415
   -16.5714 -16.5177 -16.4516 -16.3952 -16.3822 -16.3399 -16.2859 -16.2646
   -16.2368 -16.2075 -16.1929 -16.1285 -16.0313 -16.0214 -15.9532 -15.9024
   -15.6661 -15.6644 -15.6068 -15.6053  -4.9963  -4.8219  -4.7955  -4.6485
    -4.5715  -4.4575  -4.4055  -4.3353  -4.2761  -4.1796  -4.1340  -4.0996
    -4.0639  -3.9953  -3.9086  -3.8887  -3.8452  -3.7364  -3.6930  -3.6525
    -3.5720  -3.5048  -3.4783  -3.4474  -3.4264  -3.3522  -3.3315  -3.2858
    -3.2069  -3.0900  -2.9317  -2.9231  -2.8708  -2.8255  -2.7188  -2.6853
    -2.5867  -2.5500  -2.4993  -2.3811  -2.3240  -2.2877  -2.2602  -2.2294
    -2.1556  -2.1432  -2.0991  -2.0491  -1.9972  -1.9331  -1.8969  -1.8571
    -1.8046  -1.7502  -1.6821  -1.6629  -1.6066  -1.5841  -1.5370  -1.4821
    -1.4359  -1.4079  -1.3478  -1.2937  -1.2805  -1.2352  -1.1472  -1.1226
    -1.0410  -1.0295  -0.9976  -0.9550  -0.8875  -0.8524  -0.8126  -0.7921
    -0.7698  -0.6932  -0.6430  -0.5473  -0.4544  -0.4168  -0.3312  -0.3022
     2.4512   2.4629   2.5405   2.6341   2.6529   2.6776   2.7566   2.8109
     2.8567   2.9089   2.9491   2.9891   3.0569   3.1246   3.2061   3.2479
     3.3045   3.3426   3.4046   3.4336   3.5281   3.5356   3.5637   3.6036
     3.6512   3.6884   3.7688   3.7842   3.8007   3.8540   3.9527   3.9756
     4.0037   4.0504

          k = 0.4000-0.5944 0.0000 (150058 PWs)   bands (ev):

   -56.5760 -56.5759 -56.5598 -56.5588 -56.5583 -56.5573 -56.4693 -56.4689
   -56.4652 -56.4648 -56.2305 -56.2272 -56.2270 -56.2237 -33.0473 -33.0472
   -33.0002 -33.0001 -32.9394 -32.9394 -32.8574 -32.8574 -32.8471 -32.8470
   -32.8218 -32.8218 -32.7690 -32.7688 -32.7590 -32.7587 -32.7545 -32.7538
   -32.7417 -32.7414 -32.7179 -32.7177 -32.7077 -32.7075 -32.6801 -32.6801
   -32.6411 -32.6410 -32.6386 -32.6386 -32.6330 -32.6328 -32.6283 -32.6281
   -32.5315 -32.5290 -32.5166 -32.5140 -32.3919 -32.3889 -32.3863 -32.3834
   -17.0918 -17.0917 -17.0201 -17.0196 -16.8627 -16.8627 -16.6039 -16.6037
   -16.5698 -16.5694 -16.4433 -16.4419 -16.4162 -16.4143 -16.2643 -16.2642
   -16.2141 -16.2140 -16.1778 -16.1778 -16.0228 -16.0227 -15.9131 -15.9130
   -15.6384 -15.6369 -15.6046 -15.6034  -4.9746  -4.9746  -4.8036  -4.8036
    -4.5686  -4.5686  -4.4827  -4.4825  -4.3443  -4.3438  -4.1304  -4.1300
    -4.0744  -4.0744  -3.8862  -3.8853  -3.8226  -3.8219  -3.6874  -3.6869
    -3.5878  -3.5865  -3.4816  -3.4799  -3.3596  -3.3595  -3.3124  -3.3123
    -3.0409  -3.0393  -2.9723  -2.9702  -2.7769  -2.7765  -2.6189  -2.6188
    -2.4006  -2.4006  -2.3136  -2.3135  -2.2073  -2.2066  -2.1371  -2.1353
    -2.0771  -2.0764  -2.0061  -2.0059  -1.8921  -1.8906  -1.8190  -1.8189
    -1.7268  -1.7257  -1.6356  -1.6352  -1.6041  -1.6033  -1.5155  -1.5152
    -1.4483  -1.4476  -1.3280  -1.3276  -1.2772  -1.2768  -1.1738  -1.1732
    -1.0745  -1.0738  -0.9521  -0.9514  -0.8679  -0.8655  -0.7583  -0.7568
    -0.6985  -0.6981  -0.5993  -0.5991  -0.5517  -0.5509  -0.3745  -0.3738
     2.4318   2.4322   2.4835   2.4837   2.6431   2.6432   2.7260   2.7267
     2.8351   2.8356   2.9689   2.9698   3.0481   3.0500   3.1496   3.1516
     3.2430   3.2437   3.3533   3.3540   3.4565   3.4568   3.5942   3.5953
     3.7229   3.7231   3.7978   3.7982   3.8658   3.8658   3.9814   3.9815
     4.0195   4.0199

     the Fermi energy is     1.3242 ev

!    total energy              =   -2515.06979113 Ry
     estimated scf accuracy    <       0.00000069 Ry
     smearing contrib. (-TS)   =      -0.00000000 Ry
     internal energy E=F+TS    =   -2515.06979113 Ry

     The total energy is F=E-TS. E is the sum of the following terms:
     one-electron contribution =  -59833.49636562 Ry
     hartree contribution      =   29966.95537912 Ry
     xc contribution           =    -396.75874491 Ry
     ewald contribution        =   27748.22994028 Ry

     convergence has been achieved in  15 iterations

     Forces acting on atoms (cartesian axes, Ry/au):

     atom    1 type  1   force =    -0.00059688   -0.00024965   -0.00022582
     atom    2 type  1   force =    -0.00059688    0.00024965   -0.00022582
     atom    3 type  1   force =     0.00029391   -0.00014052    0.00026404
     atom    4 type  1   force =     0.00029391    0.00014052    0.00026404
     atom    5 type  1   force =    -0.00002585   -0.00020972   -0.00015304
     atom    6 type  1   force =    -0.00002585    0.00020972   -0.00015304
     atom    7 type  1   force =    -0.00003499   -0.00002539   -0.00005516
     atom    8 type  1   force =    -0.00003499    0.00002539   -0.00005516
     atom    9 type  1   force =    -0.00017735    0.00027911    0.00011858
     atom   10 type  1   force =    -0.00017735   -0.00027911    0.00011858
     atom   11 type  1   force =    -0.00017155    0.00008347   -0.00011334
     atom   12 type  1   force =    -0.00017155   -0.00008347   -0.00011334
     atom   13 type  1   force =     0.00063102    0.00011323    0.00016641
     atom   14 type  1   force =     0.00063102   -0.00011323    0.00016641
     atom   15 type  2   force =     0.00037850    0.00023182    0.00012686
     atom   16 type  2   force =     0.00037850   -0.00023182    0.00012686
     atom   17 type  2   force =    -0.00010429   -0.00023073   -0.00039755
     atom   18 type  2   force =    -0.00006340    0.00041840    0.00007704
     atom   19 type  2   force =    -0.00010429    0.00023073   -0.00039755
     atom   20 type  2   force =    -0.00006340   -0.00041840    0.00007704
     atom   21 type  2   force =    -0.00025411    0.00008943    0.00016360
     atom   22 type  2   force =     0.00022572   -0.00027549    0.00019757
     atom   23 type  2   force =    -0.00025411   -0.00008943    0.00016360
     atom   24 type  2   force =     0.00022572    0.00027549    0.00019757
     atom   25 type  2   force =     0.00026718   -0.00002397   -0.00030965
     atom   26 type  2   force =    -0.00069535   -0.00040541   -0.00000654
     atom   27 type  2   force =     0.00026718    0.00002397   -0.00030965
     atom   28 type  2   force =    -0.00069535    0.00040541   -0.00000654
     atom   29 type  2   force =     0.00049040    0.00035478   -0.00008726
     atom   30 type  2   force =    -0.00032802    0.00019615    0.00029081
     atom   31 type  2   force =     0.00049040   -0.00035478   -0.00008726
     atom   32 type  2   force =    -0.00032802   -0.00019615    0.00029081
     atom   33 type  2   force =    -0.00012322    0.00008907   -0.00019089
     atom   34 type  2   force =     0.00037827    0.00012021   -0.00000120
     atom   35 type  2   force =    -0.00012322   -0.00008907   -0.00019089
     atom   36 type  2   force =     0.00037827   -0.00012021   -0.00000120
     atom   37 type  2   force =     0.00000229   -0.00030751   -0.00017168
     atom   38 type  2   force =    -0.00015727    0.00019627    0.00047761
     atom   39 type  2   force =     0.00000229    0.00030751   -0.00017168
     atom   40 type  2   force =    -0.00015727   -0.00019627    0.00047761
     atom   41 type  2   force =     0.00006498   -0.00021419   -0.00017042
     atom   42 type  2   force =     0.00006498    0.00021419   -0.00017042

     Total force =     0.002949     Total SCF correction =     0.002033
     SCF correction compared to forces is large: reduce conv_thr to get better values


     Computing stress (Cartesian axis) and pressure

          total   stress  (Ry/bohr**3)                   (kbar)     P=        0.03
   0.00000309   0.00000000   0.00000049            0.46        0.00        0.07
   0.00000000  -0.00000129   0.00000000            0.00       -0.19        0.00
   0.00000049   0.00000000  -0.00000126            0.07        0.00       -0.19


     Writing all to output data dir ./Out/pwscf.save/
 
     init_run     :     25.64s CPU     28.64s WALL (       2 calls)
     electrons    :    444.71s CPU    448.39s WALL (       2 calls)
     forces       :      5.40s CPU      4.84s WALL (       2 calls)
     stress       :     24.58s CPU     24.55s WALL (       2 calls)

     Called by init_run:
     wfcinit      :     17.90s CPU     20.35s WALL (       2 calls)
     potinit      :      0.18s CPU      0.14s WALL (       2 calls)
     hinit0       :      6.50s CPU      6.16s WALL (       2 calls)

     Called by electrons:
     c_bands      :    370.07s CPU    373.37s WALL (      30 calls)
     sum_band     :     68.48s CPU     68.67s WALL (      30 calls)
     v_of_rho     :      1.31s CPU      1.10s WALL (      32 calls)
     mix_rho      :      4.05s CPU      4.36s WALL (      30 calls)

     Called by c_bands:
     init_us_2    :      1.75s CPU      1.75s WALL (     792 calls)
     init_us_2:gp :      1.72s CPU      1.72s WALL (     792 calls)
     cegterg      :    301.41s CPU    301.50s WALL (     386 calls)

     Called by *egterg:
     cdiaghg      :     21.06s CPU     21.84s WALL (    3450 calls)
                                       21.81s GPU  (    3450 calls)
     h_psi        :    231.49s CPU    231.40s WALL (    3498 calls)
                                      231.14s GPU  (    3498 calls)
     g_psi        :      0.01s CPU      2.63s WALL (    3088 calls)
                                        2.60s GPU  (    3088 calls)

     Called by h_psi:
     h_psi:calbec :      0.19s CPU     11.67s WALL (    3498 calls)
                                       11.64s GPU  (    3498 calls)
     vloc_psi     :    203.89s CPU    203.67s WALL (    3498 calls)
                                      203.64s GPU  (    3498 calls)
     add_vuspsi   :      3.74s CPU     14.85s WALL (    3498 calls)
                                       14.83s GPU  (    3498 calls)

     General routines
     calbec       :      0.16s CPU      0.21s WALL (    3618 calls)
     fft          :      0.01s CPU      0.14s WALL (     334 calls)
                                        0.13s GPU  (     334 calls)
     ffts         :      0.00s CPU      0.01s WALL (      30 calls)
                                        0.01s GPU  (      30 calls)
     fftw         :      0.57s CPU    188.31s WALL (   43366 calls)
                                      188.01s GPU  (   43366 calls)
 
 
     PWSCF        :   8m22.13s CPU   8m31.22s WALL

 
   This run was terminated on:  15:16:20  26Jul2026            

=------------------------------------------------------------------------------=
   JOB DONE.
=------------------------------------------------------------------------------=
