../../../04-101-interface/01-converge-slab-layers/7_layer/output final
1.0
   5.515390422   0.000000000   0.000000000
   0.000000000   4.639356717   0.000000000
   0.000000000   0.000000000  39.141189575
   Ti    O
   14   28
Cartesian
               3.9745683367       -0.2322797081       12.5229810292
               1.2168732900        2.5519579284       12.5229810292
               2.1977883671        0.1266198156       14.8878781821
               4.9554832493        2.1930584047       14.8878781821
               0.7666260717       -0.0306921121       17.4798707419
               3.5243209125        2.3503703324       17.4798707419
               4.5638010080        0.0003120818       19.9506346321
               1.8061059613        2.3193661385       19.9506346321
               2.8450591497        0.0305254833       22.4209644180
               0.0873642060        2.2891527370       22.4209644180
               1.4102724822       -0.1264222746       25.0106842407
               4.1679672826        2.4461004948       25.0106842407
               5.1493082416        0.2318713293       27.3751051236
               2.3916133594        2.0878068910       27.3751051236
               2.6234811215        3.3461414764       11.7161284861
               5.3811763328        3.6128927704       11.7161284861
               5.0204295004        1.3929240784       13.1849189000
               1.0667337564        3.2492537950       14.2032149201
               2.2627341256        0.9267542116       13.1849177330
               3.8244284741        3.7097807276       14.2032137531
               3.4398001653        1.4096752844       15.7033634386
               4.9686208335        3.2123828686       16.6751613185
               0.6821052831        0.9100029359       15.7033657716
               2.2109254577        3.7466516540       16.6751601515
               1.8325785129        1.4099926798       18.2248064365
               3.3653789597        3.2336047709       19.1899317075
               4.5902737241        0.9096854718       18.2248064365
               0.6076837899        3.7254294759       19.1899317075
               0.2437717308        1.4057052343       20.7104402044
               1.7758585688        3.2282248721       21.6771234709
               3.0014663253        0.9139730557       20.7104378714
               4.5335541091        3.7308096515       21.6771258039
               4.1555214442        1.4286378174       23.2253576373
               0.1690024933        3.2295355351       24.1951368708
               1.3978258221        0.8910404726       23.2253529713
               2.9266973038        3.7294989874       24.1951345378
               2.5430968059        1.3884506734       25.6957653627
               4.1009299169        3.2495070976       26.7124014235
               5.3007915246        0.9312274782       25.6957653627
               1.3432354455        3.7095271492       26.7124014235
               0.9865570243        1.2909783740       28.1807939077
               3.7442519065        1.0286999160       28.1807915747
