
     Program PWSCF v.7.1 starts on 13Jul2026 at 14:13:43 

     This program is part of the open-source Quantum ESPRESSO suite
     for quantum simulation of materials; please cite
         "P. Giannozzi et al., J. Phys.:Condens. Matter 21 395502 (2009);
         "P. Giannozzi et al., J. Phys.:Condens. Matter 29 465901 (2017);
         "P. Giannozzi et al., J. Chem. Phys. 152 154105 (2020);
          URL http://www.quantum-espresso.org", 
     in publications or presentations arising from this work. More details at
     http://www.quantum-espresso.org/quote

     Parallel version (MPI), running on    36 processors

     MPI processes distributed on     1 nodes
     179005 MiB available memory on the printing compute node when the environment starts
 
     Waiting for input...
     Reading input from standard input

     Current dimensions of program PWSCF are:
     Max number of different atomic species (ntypx) = 10
     Max number of k-points (npk) =  40000
     Max angular momentum in pseudopotentials (lmaxx) =  4
     Message from routine setup:
     using ibrav=0 with symmetry is DISCOURAGED, use correct ibrav instead
 
     K-points division:     npool     =       2
     R & G space division:  proc/nbgrp/npool/nimage =      18
     Subspace diagonalization in iterative solution of the eigenvalue problem:
     a serial algorithm will be used

 
     Parallelization info
     --------------------
     sticks:   dense  smooth     PW     G-vecs:    dense   smooth      PW
     Min         153     153     43                 4178     4178     634
     Max         155     155     45                 4179     4179     636
     Sum        2757    2757    793                75221    75221   11429
 
     Using Slab Decomposition
 


     bravais-lattice index     =            0
     lattice parameter (alat)  =       8.4977  a.u.
     unit-cell volume          =     423.6931 (a.u.)^3
     number of atoms/cell      =            6
     number of atomic types    =            2
     number of electrons       =        56.00
     number of Kohn-Sham states=           28
     kinetic-energy cutoff     =     120.0000  Ry
     charge density cutoff     =     480.0000  Ry
     scf convergence threshold =      1.0E-06
     mixing beta               =       0.7000
     number of iterations used =            8  plain     mixing
     energy convergence thresh.=      1.0E-04
     force convergence thresh. =      1.0E-03
     press convergence thresh. =      5.0E-01
     Exchange-correlation= PBE
                           (   1   4   3   4   0   0   0)
     nstep                     =           50


     celldm(1)=   8.497720  celldm(2)=   0.000000  celldm(3)=   0.000000
     celldm(4)=   0.000000  celldm(5)=   0.000000  celldm(6)=   0.000000

     crystal axes: (cart. coord. in units of alat)
               a(1) = (   1.000000   0.000000   0.000000 )  
               a(2) = (   0.000000   1.000000   0.000000 )  
               a(3) = (   0.000000   0.000000   0.690469 )  

     reciprocal axes: (cart. coord. in units 2 pi/alat)
               b(1) = (  1.000000  0.000000  0.000000 )  
               b(2) = (  0.000000  1.000000  0.000000 )  
               b(3) = (  0.000000  0.000000  1.448291 )  


     PseudoPot. # 1 for Ru read from file:
     ./Ru_ONCV_PBE-1.2.upf
     MD5 check sum: 197966c748556f6a714a34a8c7eb0781
     Pseudo is Norm-conserving, Zval = 16.0
     Generated using ONCVPSP code by D. R. Hamann
     Using radial grid of  602 points,  6 beta functions with: 
                l(1) =   0
                l(2) =   0
                l(3) =   1
                l(4) =   1
                l(5) =   2
                l(6) =   2

     PseudoPot. # 2 for O  read from file:
     ./O_ONCV_PBE-1.2.upf
     MD5 check sum: e36c48deb68f4e355fffe4602be2c42c
     Pseudo is Norm-conserving, Zval =  6.0
     Generated using ONCVPSP code by D. R. Hamann
     Using radial grid of  602 points,  4 beta functions with: 
                l(1) =   0
                l(2) =   0
                l(3) =   1
                l(4) =   1

     atomic species   valence    mass     pseudopotential
        Ru            16.00   101.07000     Ru( 1.00)
        O              6.00    15.99900     O ( 1.00)

     16 Sym. Ops., with inversion, found ( 8 have fractional translation)



   Cartesian axes

     site n.     atom                  positions (alat units)
         1           Ru  tau(   1) = (   0.0000000   0.0000000   0.0000000  )
         2           Ru  tau(   2) = (   0.5000000   0.5000000   0.3452344  )
         3           O   tau(   3) = (   0.3053000   0.3053000   0.0000000  )
         4           O   tau(   4) = (   0.6947000   0.6947000   0.0000000  )
         5           O   tau(   5) = (   0.8053000   0.1947000   0.3452344  )
         6           O   tau(   6) = (   0.1947000   0.8053000   0.3452344  )

     --------------------------------------------
     DFT-D3 Dispersion Correction (3-body terms):
     --------------------------------------------
       Reference C6 values for interpolation: 

         atom   Coordination number   C6
         O          0.000            31.01
         O          0.993            25.63
         O          1.989            20.74
         Ru         0.000          1196.40
         Ru         1.858           758.53
         Ru         8.889           478.01

       Values used:

         atom   Coordination number  R0_AB[au]  C6      C8
         Ru         7.276            3.271    478.01  48511.62
         Ru         7.276            3.271    478.01  48511.62
         O          2.919            2.345     20.74    418.58
         O          2.919            2.345     20.74    418.58
         O          2.919            2.345     20.74    418.58
         O          2.919            2.345     20.74    418.58

         Molecular C6 ( Ry / a.u.^6 ) =      3773.04


     number of k points=    50
                       cart. coord. in units 2pi/alat
        k(    1) = (   0.0000000   0.0000000   0.0000000), wk =   0.0069444
        k(    2) = (   0.0000000   0.0000000   0.1810364), wk =   0.0138889
        k(    3) = (   0.0000000   0.0000000   0.3620729), wk =   0.0138889
        k(    4) = (   0.0000000   0.0000000   0.5431093), wk =   0.0138889
        k(    5) = (   0.0000000   0.0000000  -0.7241457), wk =   0.0069444
        k(    6) = (   0.0000000   0.1666667   0.0000000), wk =   0.0277778
        k(    7) = (   0.0000000   0.1666667   0.1810364), wk =   0.0555556
        k(    8) = (   0.0000000   0.1666667   0.3620729), wk =   0.0555556
        k(    9) = (   0.0000000   0.1666667   0.5431093), wk =   0.0555556
        k(   10) = (   0.0000000   0.1666667  -0.7241457), wk =   0.0277778
        k(   11) = (   0.0000000   0.3333333   0.0000000), wk =   0.0277778
        k(   12) = (   0.0000000   0.3333333   0.1810364), wk =   0.0555556
        k(   13) = (   0.0000000   0.3333333   0.3620729), wk =   0.0555556
        k(   14) = (   0.0000000   0.3333333   0.5431093), wk =   0.0555556
        k(   15) = (   0.0000000   0.3333333  -0.7241457), wk =   0.0277778
        k(   16) = (   0.0000000  -0.5000000   0.0000000), wk =   0.0138889
        k(   17) = (   0.0000000  -0.5000000   0.1810364), wk =   0.0277778
        k(   18) = (   0.0000000  -0.5000000   0.3620729), wk =   0.0277778
        k(   19) = (   0.0000000  -0.5000000   0.5431093), wk =   0.0277778
        k(   20) = (   0.0000000  -0.5000000  -0.7241457), wk =   0.0138889
        k(   21) = (   0.1666667   0.1666667   0.0000000), wk =   0.0277778
        k(   22) = (   0.1666667   0.1666667   0.1810364), wk =   0.0555556
        k(   23) = (   0.1666667   0.1666667   0.3620729), wk =   0.0555556
        k(   24) = (   0.1666667   0.1666667   0.5431093), wk =   0.0555556
        k(   25) = (   0.1666667   0.1666667  -0.7241457), wk =   0.0277778
        k(   26) = (   0.1666667   0.3333333   0.0000000), wk =   0.0555556
        k(   27) = (   0.1666667   0.3333333   0.1810364), wk =   0.1111111
        k(   28) = (   0.1666667   0.3333333   0.3620729), wk =   0.1111111
        k(   29) = (   0.1666667   0.3333333   0.5431093), wk =   0.1111111
        k(   30) = (   0.1666667   0.3333333  -0.7241457), wk =   0.0555556
        k(   31) = (   0.1666667  -0.5000000   0.0000000), wk =   0.0277778
        k(   32) = (   0.1666667  -0.5000000   0.1810364), wk =   0.0555556
        k(   33) = (   0.1666667  -0.5000000   0.3620729), wk =   0.0555556
        k(   34) = (   0.1666667  -0.5000000   0.5431093), wk =   0.0555556
        k(   35) = (   0.1666667  -0.5000000  -0.7241457), wk =   0.0277778
        k(   36) = (   0.3333333   0.3333333   0.0000000), wk =   0.0277778
        k(   37) = (   0.3333333   0.3333333   0.1810364), wk =   0.0555556
        k(   38) = (   0.3333333   0.3333333   0.3620729), wk =   0.0555556
        k(   39) = (   0.3333333   0.3333333   0.5431093), wk =   0.0555556
        k(   40) = (   0.3333333   0.3333333  -0.7241457), wk =   0.0277778
        k(   41) = (   0.3333333  -0.5000000   0.0000000), wk =   0.0277778
        k(   42) = (   0.3333333  -0.5000000   0.1810364), wk =   0.0555556
        k(   43) = (   0.3333333  -0.5000000   0.3620729), wk =   0.0555556
        k(   44) = (   0.3333333  -0.5000000   0.5431093), wk =   0.0555556
        k(   45) = (   0.3333333  -0.5000000  -0.7241457), wk =   0.0277778
        k(   46) = (  -0.5000000  -0.5000000   0.0000000), wk =   0.0069444
        k(   47) = (  -0.5000000  -0.5000000   0.1810364), wk =   0.0138889
        k(   48) = (  -0.5000000  -0.5000000   0.3620729), wk =   0.0138889
        k(   49) = (  -0.5000000  -0.5000000   0.5431093), wk =   0.0138889
        k(   50) = (  -0.5000000  -0.5000000  -0.7241457), wk =   0.0069444

     Dense  grid:    75221 G-vectors     FFT dimensions: (  60,  60,  48)

     Estimated max dynamical RAM per process >      17.04 MB

     Estimated total dynamical RAM >     595.20 MB

     Initial potential from superposition of free atoms

     starting charge      55.8739, renormalised to      56.0000
     Starting wfcs are random

     total cpu time spent up to now is        0.2 secs

     per-process dynamical memory:   128.4 Mb

     Self-consistent Calculation

     iteration #  1     ecut=   120.00 Ry     beta= 0.70
     Davidson diagonalization with overlap
     ethr =  1.00E-02,  avg # of iterations = 10.2

     total cpu time spent up to now is        1.5 secs

     total energy              =    -504.34493836 Ry
     estimated scf accuracy    <       0.98374895 Ry

     iteration #  2     ecut=   120.00 Ry     beta= 0.70
     Davidson diagonalization with overlap
     ethr =  1.76E-03,  avg # of iterations =  6.5

     total cpu time spent up to now is        2.3 secs

     total energy              =    -504.32561007 Ry
     estimated scf accuracy    <       4.25385375 Ry

     iteration #  3     ecut=   120.00 Ry     beta= 0.70
     Davidson diagonalization with overlap
     ethr =  1.76E-03,  avg # of iterations =  6.0

     total cpu time spent up to now is        3.0 secs

     total energy              =    -505.04255305 Ry
     estimated scf accuracy    <       0.02948261 Ry

     iteration #  4     ecut=   120.00 Ry     beta= 0.70
     Davidson diagonalization with overlap
     ethr =  5.26E-05,  avg # of iterations =  4.9

     total cpu time spent up to now is        3.5 secs

     total energy              =    -505.04900645 Ry
     estimated scf accuracy    <       0.01575911 Ry

     iteration #  5     ecut=   120.00 Ry     beta= 0.70
     Davidson diagonalization with overlap
     ethr =  2.81E-05,  avg # of iterations =  5.3

     total cpu time spent up to now is        4.1 secs

     total energy              =    -505.05463386 Ry
     estimated scf accuracy    <       0.00146030 Ry

     iteration #  6     ecut=   120.00 Ry     beta= 0.70
     Davidson diagonalization with overlap
     ethr =  2.61E-06,  avg # of iterations =  4.0

     total cpu time spent up to now is        4.6 secs

     total energy              =    -505.05461909 Ry
     estimated scf accuracy    <       0.00053562 Ry

     iteration #  7     ecut=   120.00 Ry     beta= 0.70
     Davidson diagonalization with overlap
     ethr =  9.56E-07,  avg # of iterations =  5.6

     total cpu time spent up to now is        5.2 secs

     total energy              =    -505.05482518 Ry
     estimated scf accuracy    <       0.00009329 Ry

     iteration #  8     ecut=   120.00 Ry     beta= 0.70
     Davidson diagonalization with overlap
     ethr =  1.67E-07,  avg # of iterations =  5.2

     total cpu time spent up to now is        5.8 secs

     total energy              =    -505.05484289 Ry
     estimated scf accuracy    <       0.00000749 Ry

     iteration #  9     ecut=   120.00 Ry     beta= 0.70
     Davidson diagonalization with overlap
     ethr =  1.34E-08,  avg # of iterations =  6.2

     total cpu time spent up to now is        6.4 secs

     End of self-consistent calculation

          k = 0.0000 0.0000 0.0000 (  9357 PWs)   bands (ev):

   -60.3194 -60.3126 -30.6018 -30.6018 -30.1665 -30.1577 -30.1577 -30.1422
    -7.0110  -5.9746  -5.0063  -5.0063   4.7141   4.8536   5.9669   6.3797
     6.3797   8.9481   8.9658   8.9658  10.4178  10.8564  10.8564  11.3845
    11.6459  11.7552  11.8356  11.8356

          k = 0.0000 0.0000 0.1810 (  9385 PWs)   bands (ev):

   -60.3176 -60.3113 -30.5995 -30.5995 -30.1926 -30.1703 -30.1535 -30.1535
    -6.8751  -5.9012  -5.0873  -5.0873   4.8687   5.0632   6.1304   6.4301
     6.4301   8.4862   9.1346   9.1346   9.6969  10.2479  10.2479  11.1884
    11.7786  12.1369  12.3330  12.4246

          k = 0.0000 0.0000 0.3621 (  9424 PWs)   bands (ev):

   -60.3131 -60.3083 -30.5942 -30.5942 -30.2547 -30.2379 -30.1435 -30.1435
    -6.5200  -5.7419  -5.2777  -5.2777   5.2580   5.5974   6.6055   6.6055
     6.6102   7.6179   8.6305   9.2809   9.2809   9.6100   9.6100  10.4657
    12.0621  12.3537  12.6618  13.2159

          k = 0.0000 0.0000 0.5431 (  9388 PWs)   bands (ev):

   -60.3083 -60.3057 -30.5888 -30.5888 -30.3149 -30.3060 -30.1333 -30.1333
    -6.0867  -5.6458  -5.4611  -5.4611   5.6659   6.0275   6.8943   6.8943
     7.1439   7.3726   7.8359   8.6281   8.6281   9.4400   9.8371   9.8371
    12.3769  12.5550  12.8189  13.8163

          k = 0.0000 0.0000-0.7241 (  9420 PWs)   bands (ev):

   -60.3054 -60.3054 -30.5866 -30.5866 -30.3368 -30.3368 -30.1291 -30.1291
    -5.7542  -5.7542  -5.5352  -5.5352   5.9185   5.9185   7.0893   7.0893
     7.3927   7.3927   8.2969   8.2969   8.3524   8.3524   9.9300   9.9300
    12.5893  12.5893  13.1713  13.1713

          k = 0.0000 0.1667 0.0000 (  9383 PWs)   bands (ev):

   -60.3189 -60.3130 -30.6012 -30.6011 -30.1649 -30.1587 -30.1586 -30.1439
    -6.9079  -5.9484  -5.1373  -5.0696   4.9168   5.0871   6.1581   6.4032
     6.4163   8.5940   8.7118   8.8627  10.0122  10.1800  10.5317  11.2695
    11.9359  12.0619  12.1688  12.2236

          k = 0.0000 0.1667 0.1810 (  9389 PWs)   bands (ev):

   -60.3171 -60.3117 -30.5991 -30.5991 -30.1911 -30.1723 -30.1542 -30.1538
    -6.7775  -5.8715  -5.2112  -5.1445   5.0660   5.2703   6.2171   6.4392
     6.5875   8.3254   8.6906   8.9301   9.3722  10.0900  10.1733  11.1386
    11.8235  12.3619  12.4027  12.6720

          k = 0.0000 0.1667 0.3621 (  9393 PWs)   bands (ev):

   -60.3128 -60.3086 -30.5943 -30.5942 -30.2533 -30.2390 -30.1438 -30.1437
    -6.4434  -5.7164  -5.3687  -5.3149   5.4275   5.7112   6.4332   6.5951
     7.0557   7.4953   8.1134   9.2234   9.3330   9.5112   9.5297  10.6536
    11.8359  12.6089  12.8078  13.0583

          k = 0.0000 0.1667 0.5431 (  9414 PWs)   bands (ev):

   -60.3081 -60.3059 -30.5895 -30.5895 -30.3137 -30.3061 -30.1333 -30.1333
    -6.0657  -5.7106  -5.4524  -5.4244   5.7543   6.0658   6.4311   6.7852
     7.4062   7.5640   7.8392   8.6552   8.8469   9.5814   9.6760   9.7981
    12.2733  12.5100  12.8517  13.2697

          k = 0.0000 0.1667-0.7241 (  9416 PWs)   bands (ev):

   -60.3054 -60.3054 -30.5876 -30.5876 -30.3361 -30.3361 -30.1290 -30.1290
    -5.8342  -5.8342  -5.4484  -5.4484   5.9156   5.9156   6.6373   6.6373
     7.7256   7.7256   8.3464   8.3464   8.7402   8.7402   9.7660   9.7660
    12.6052  12.6052  12.8320  12.8320

          k = 0.0000 0.3333 0.0000 (  9404 PWs)   bands (ev):

   -60.3177 -60.3143 -30.6000 -30.5999 -30.1607 -30.1606 -30.1604 -30.1483
    -6.6204  -5.9481  -5.3923  -5.2286   5.4521   5.6337   6.4606   6.4862
     6.7512   7.8771   7.9741   8.7740   8.9838   9.3817  10.3901  10.9628
    12.3736  12.5383  12.7420  12.7916

          k = 0.0000 0.3333 0.1810 (  9414 PWs)   bands (ev):

   -60.3160 -60.3129 -30.5983 -30.5982 -30.1873 -30.1769 -30.1554 -30.1548
    -6.5048  -5.8495  -5.4651  -5.2900   5.5980   5.7748   6.3882   6.4395
     7.0321   7.9879   8.1792   8.2193   8.6085   9.4019  10.3767  10.9037
    12.2756  12.5183  12.7442  13.0308

          k = 0.0000 0.3333 0.3621 (  9413 PWs)   bands (ev):

   -60.3119 -60.3095 -30.5945 -30.5943 -30.2500 -30.2419 -30.1444 -30.1442
    -6.2303  -5.6502  -5.6035  -5.4114   5.8710   6.0001   6.4788   6.5832
     7.2607   7.4024   7.7360   8.5983   8.7450   9.4089   9.9993  10.6703
    11.8671  12.7146  13.0327  13.0468

          k = 0.0000 0.3333 0.5431 (  9411 PWs)   bands (ev):

   -60.3076 -60.3063 -30.5910 -30.5908 -30.3110 -30.3068 -30.1333 -30.1332
    -6.0088  -5.8222  -5.4275  -5.3915   5.9105   6.0468   6.2182   6.5509
     7.3737   7.7530   8.1219   8.9069   8.9999   9.1637   9.6430  10.3356
    11.7259  12.5251  12.7571  12.9071

          k = 0.0000 0.3333-0.7241 (  9406 PWs)   bands (ev):

   -60.3054 -60.3054 -30.5896 -30.5896 -30.3346 -30.3346 -30.1287 -30.1287
    -5.9312  -5.9312  -5.3378  -5.3378   5.7923   5.7923   6.4065   6.4065
     7.9058   7.9058   8.5061   8.5061   9.2512   9.2512   9.7307   9.7307
    12.0797  12.0797  12.6371  12.6371

          k = 0.0000-0.5000 0.0000 (  9410 PWs)   bands (ev):

   -60.3160 -60.3160 -30.5993 -30.5993 -30.1616 -30.1616 -30.1543 -30.1543
    -6.2269  -6.2269  -5.3984  -5.3984   5.9418   5.9418   6.5070   6.5070
     7.4377   7.4377   7.7488   7.7488   8.9266   8.9266  10.6061  10.6061
    12.6928  12.6928  12.8696  12.8696

          k = 0.0000-0.5000 0.1810 (  9400 PWs)   bands (ev):

   -60.3144 -60.3144 -30.5978 -30.5978 -30.1822 -30.1822 -30.1557 -30.1557
    -6.1253  -6.1253  -5.4549  -5.4549   6.1569   6.1569   6.3426   6.3426
     7.5004   7.5004   7.9286   7.9286   8.5736   8.5736  10.6584  10.6584
    12.5250  12.5250  13.1251  13.1251

          k = 0.0000-0.5000 0.3621 (  9414 PWs)   bands (ev):

   -60.3107 -60.3107 -30.5945 -30.5945 -30.2458 -30.2458 -30.1446 -30.1446
    -5.9289  -5.9289  -5.5318  -5.5318   6.2142   6.2142   6.6189   6.6189
     6.9959   6.9959   8.2354   8.2354   8.7884   8.7884  10.3976  10.3976
    12.3123  12.3123  13.1848  13.1848

          k = 0.0000-0.5000 0.5431 (  9404 PWs)   bands (ev):

   -60.3070 -60.3070 -30.5916 -30.5916 -30.3084 -30.3084 -30.1333 -30.1333
    -5.9257  -5.9257  -5.3985  -5.3985   5.9536   5.9536   6.3620   6.3620
     7.5860   7.5860   8.4882   8.4882   9.0926   9.0926  10.2149  10.2149
    11.8165  11.8165  12.8944  12.8944

          k = 0.0000-0.5000-0.7241 (  9412 PWs)   bands (ev):

   -60.3054 -60.3054 -30.5906 -30.5906 -30.3339 -30.3339 -30.1286 -30.1286
    -5.9682  -5.9682  -5.2939  -5.2939   5.6872   5.6872   6.3997   6.3997
     7.9752   7.9752   8.7677   8.7677   8.8946   8.8946  10.3417  10.3417
    11.4867  11.4867  12.6478  12.6478

          k = 0.1667 0.1667 0.0000 (  9379 PWs)   bands (ev):

   -60.3185 -60.3134 -30.6023 -30.5997 -30.1635 -30.1606 -30.1577 -30.1453
    -6.8248  -5.9313  -5.2994  -5.0443   4.7767   5.5801   6.3351   6.3573
     6.4873   7.9549   8.7950   8.8787   9.9491   9.9664  10.3618  11.1493
    11.8050  11.8447  12.5182  12.6571

          k = 0.1667 0.1667 0.1810 (  9392 PWs)   bands (ev):

   -60.3168 -60.3121 -30.6000 -30.5980 -30.1899 -30.1737 -30.1550 -30.1536
    -6.6984  -5.8474  -5.3654  -5.1236   4.9532   5.7120   6.2165   6.5318
     6.6780   8.0572   8.3173   9.0273   9.1997  10.0829  10.2067  10.9685
    11.8359  12.0582  12.6522  12.8389

          k = 0.1667 0.1667 0.3621 (  9397 PWs)   bands (ev):

   -60.3125 -60.3089 -30.5945 -30.5942 -30.2524 -30.2398 -30.1442 -30.1436
    -6.3789  -5.6898  -5.4790  -5.3102   5.4038   5.9513   6.2918   6.7726
     7.2130   7.2617   8.1916   8.6878   9.1541   9.5663   9.8913  10.7484
    11.7195  12.4559  12.9356  13.1824

          k = 0.1667 0.1667 0.5431 (  9414 PWs)   bands (ev):

   -60.3080 -60.3060 -30.5907 -30.5891 -30.3133 -30.3061 -30.1335 -30.1332
    -6.0437  -5.7264  -5.4903  -5.3905   5.8136   6.1259   6.3422   6.5095
     7.3500   7.8500   7.9407   8.5991   8.8884   9.4883   9.7025  10.0115
    12.0795  12.5469  12.8823  13.3619

          k = 0.1667 0.1667-0.7241 (  9430 PWs)   bands (ev):

   -60.3054 -60.3054 -30.5895 -30.5868 -30.3375 -30.3340 -30.1293 -30.1286
    -5.9389  -5.7214  -5.5631  -5.3325   5.7827   6.0961   6.4430   6.6536
     7.0800   8.2951   8.4401   8.6302   8.6717   9.1866   9.3589   9.8942
    12.4069  12.6096  12.6270  13.0497

          k = 0.1667 0.3333 0.0000 (  9397 PWs)   bands (ev):

   -60.3174 -60.3145 -30.6020 -30.5993 -30.1616 -30.1596 -30.1587 -30.1491
    -6.5942  -5.9930  -5.4370  -5.1489   4.9922   5.9881   6.3737   6.5081
     6.8799   7.4863   8.4443   8.8131   9.3732   9.5749  10.0475  10.7935
    12.1315  12.1359  12.7759  12.8865

          k = 0.1667 0.3333 0.1810 (  9395 PWs)   bands (ev):

   -60.3158 -60.3131 -30.5998 -30.5978 -30.1866 -30.1773 -30.1557 -30.1541
    -6.4789  -5.8924  -5.5037  -5.2202   5.1604   6.1992   6.2789   6.3498
     7.1441   7.8117   8.0662   8.5517   9.0827   9.5646  10.1307  10.6545
    12.1646  12.2848  12.7404  13.1577

          k = 0.1667 0.3333 0.3621 (  9395 PWs)   bands (ev):

   -60.3117 -60.3097 -30.5948 -30.5945 -30.2496 -30.2423 -30.1446 -30.1439
    -6.2013  -5.6987  -5.6072  -5.3792   5.5748   6.2009   6.2875   6.6826
     7.0339   7.6937   7.9294   8.4519   9.1492   9.3007   9.9680  10.5954
    11.9062  12.5668  12.8629  13.2577

          k = 0.1667 0.3333 0.5431 (  9408 PWs)   bands (ev):

   -60.3075 -60.3064 -30.5916 -30.5899 -30.3115 -30.3067 -30.1336 -30.1333
    -5.9824  -5.7944  -5.4811  -5.3885   5.9051   6.0393   6.2922   6.4131
     7.1686   7.8737   8.2700   8.7501   8.8223   9.4159   9.7840  10.4357
    11.7424  12.6241  12.7420  12.9247

          k = 0.1667 0.3333-0.7241 (  9416 PWs)   bands (ev):

   -60.3054 -60.3054 -30.5906 -30.5880 -30.3367 -30.3332 -30.1293 -30.1286
    -5.9716  -5.8112  -5.4638  -5.2903   5.7029   6.0419   6.3529   6.4042
     7.2172   8.1993   8.4832   8.6989   8.8633   9.5698   9.7232  10.0699
    11.8882  12.4655  12.6360  12.6472

          k = 0.1667-0.5000 0.0000 (  9404 PWs)   bands (ev):

   -60.3160 -60.3160 -30.6005 -30.6005 -30.1606 -30.1606 -30.1543 -30.1543
    -6.2746  -6.2746  -5.3303  -5.3303   5.5340   5.5340   6.4463   6.4463
     7.5729   7.5729   8.3223   8.3223   9.1024   9.1024  10.3348  10.3348
    12.5505  12.5505  12.6400  12.6400

          k = 0.1667-0.5000 0.1810 (  9408 PWs)   bands (ev):

   -60.3144 -60.3144 -30.5988 -30.5988 -30.1820 -30.1820 -30.1552 -30.1552
    -6.1722  -6.1722  -5.3905  -5.3905   5.6896   5.6896   6.3681   6.3681
     7.6991   7.6991   8.3960   8.3960   8.7263   8.7263  10.3803  10.3803
    12.4370  12.4370  12.9566  12.9566

          k = 0.1667-0.5000 0.3621 (  9402 PWs)   bands (ev):

   -60.3107 -60.3107 -30.5948 -30.5948 -30.2459 -30.2459 -30.1444 -30.1444
    -5.9546  -5.9546  -5.4958  -5.4958   5.9491   5.9491   6.4367   6.4367
     7.3039   7.3039   8.4959   8.4959   8.9065   8.9065  10.2205  10.2205
    12.3832  12.3832  13.0427  13.0427

          k = 0.1667-0.5000 0.5431 (  9410 PWs)   bands (ev):

   -60.3070 -60.3070 -30.5912 -30.5912 -30.3089 -30.3089 -30.1335 -30.1335
    -5.8929  -5.8929  -5.4291  -5.4291   5.9328   5.9328   6.3683   6.3683
     7.4187   7.4187   8.6129   8.6129   9.1013   9.1013  10.2820  10.2820
    11.9887  11.9887  12.8308  12.8308

          k = 0.1667-0.5000-0.7241 (  9392 PWs)   bands (ev):

   -60.3054 -60.3054 -30.5899 -30.5899 -30.3346 -30.3346 -30.1289 -30.1289
    -5.9237  -5.9237  -5.3400  -5.3400   5.7685   5.7685   6.3751   6.3751
     7.7256   7.7256   8.5064   8.5064   9.2405   9.2405  10.3980  10.3980
    11.7314  11.7314  12.6524  12.6524

          k = 0.3333 0.3333 0.0000 (  9415 PWs)   bands (ev):

   -60.3168 -60.3151 -30.6034 -30.6007 -30.1606 -30.1577 -30.1573 -30.1513
    -6.5076  -6.1559  -5.3602  -5.1179   4.7869   5.5452   6.3126   6.4334
     7.3219   8.0553   8.7129   9.0709   9.3995   9.7123   9.7523  10.5481
    11.7988  11.8640  12.5664  12.6493

          k = 0.3333 0.3333 0.1810 (  9419 PWs)   bands (ev):

   -60.3152 -60.3136 -30.6010 -30.5990 -30.1845 -30.1788 -30.1552 -30.1536
    -6.3950  -6.0569  -5.4216  -5.1939   4.9660   5.7017   6.2172   6.3588
     7.5850   8.2723   8.3737   8.8296   9.1269   9.7734   9.8659  10.1170
    12.0002  12.1553  12.6163  12.9346

          k = 0.3333 0.3333 0.3621 (  9396 PWs)   bands (ev):

   -60.3113 -60.3101 -30.5953 -30.5950 -30.2483 -30.2437 -30.1445 -30.1438
    -6.1197  -5.8476  -5.5277  -5.3734   5.4367   5.9542   6.1534   6.4274
     7.3651   8.1128   8.1194   8.8474   9.0424   9.4250   9.7593  10.3246
    12.2088  12.3957  12.8555  13.1068

          k = 0.3333 0.3333 0.5431 (  9396 PWs)   bands (ev):

   -60.3073 -60.3066 -30.5914 -30.5897 -30.3114 -30.3077 -30.1339 -30.1336
    -5.9086  -5.7526  -5.5474  -5.4307   5.9071   6.0151   6.2170   6.3763
     7.0570   7.6742   8.4558   8.6705   8.9366   9.5165  10.0201  10.5694
    11.9462  12.6147  12.8208  13.0540

          k = 0.3333 0.3333-0.7241 (  9398 PWs)   bands (ev):

   -60.3054 -60.3054 -30.5900 -30.5874 -30.3374 -30.3338 -30.1298 -30.1290
    -5.9240  -5.6560  -5.6179  -5.3368   5.7639   6.2764   6.3093   6.3675
     6.7798   7.9299   8.3178   8.4463   9.2072   9.6362  10.1642  10.4941
    11.8944  12.6467  12.6590  12.8115

          k = 0.3333-0.5000 0.0000 (  9442 PWs)   bands (ev):

   -60.3159 -60.3159 -30.6028 -30.6028 -30.1587 -30.1587 -30.1543 -30.1543
    -6.3541  -6.3541  -5.2091  -5.2091   4.9982   4.9982   6.3388   6.3388
     7.9971   7.9971   9.0341   9.0341   9.4925   9.4925   9.9648   9.9648
    12.1310  12.1310  12.1532  12.1532

          k = 0.3333-0.5000 0.1810 (  9420 PWs)   bands (ev):

   -60.3144 -60.3144 -30.6006 -30.6006 -30.1815 -30.1815 -30.1542 -30.1542
    -6.2483  -6.2483  -5.2786  -5.2786   5.1681   5.1681   6.2602   6.2602
     8.1793   8.1793   8.9069   8.9069   9.2594   9.2594   9.8285   9.8285
    12.2277  12.2277  12.4981  12.4981

          k = 0.3333-0.5000 0.3621 (  9400 PWs)   bands (ev):

   -60.3107 -60.3107 -30.5954 -30.5954 -30.2460 -30.2460 -30.1441 -30.1441
    -5.9970  -5.9970  -5.4328  -5.4328   5.5872   5.5872   6.2053   6.2053
     7.8288   7.8288   8.7429   8.7429   9.2213   9.2213   9.8956   9.8956
    12.5454  12.5454  12.7470  12.7470

          k = 0.3333-0.5000 0.5431 (  9402 PWs)   bands (ev):

   -60.3070 -60.3070 -30.5904 -30.5904 -30.3098 -30.3098 -30.1339 -30.1339
    -5.8087  -5.8087  -5.5091  -5.5091   5.9380   5.9380   6.2681   6.2681
     7.2996   7.2996   8.5812   8.5812   9.2717   9.2717  10.3919  10.3919
    12.4527  12.4527  12.7078  12.7078

          k = 0.3333-0.5000-0.7241 (  9380 PWs)   bands (ev):

   -60.3054 -60.3054 -30.5884 -30.5884 -30.3359 -30.3359 -30.1296 -30.1296
    -5.8019  -5.8019  -5.4648  -5.4648   5.9846   5.9846   6.3241   6.3241
     7.2356   7.2356   8.3727   8.3727   9.4656   9.4656  10.5723  10.5723
    12.2790  12.2790  12.6598  12.6598

          k =-0.5000-0.5000 0.0000 (  9432 PWs)   bands (ev):

   -60.3159 -60.3159 -30.6039 -30.6039 -30.1577 -30.1577 -30.1543 -30.1543
    -6.3885  -6.3885  -5.1535  -5.1535   4.7895   4.7895   6.2903   6.2903
     8.5946   8.5946   8.6362   8.6362   9.7274   9.7274  10.2580  10.2580
    11.7657  11.7657  11.8742  11.8742

          k =-0.5000-0.5000 0.1810 (  9416 PWs)   bands (ev):

   -60.3144 -60.3144 -30.6015 -30.6015 -30.1813 -30.1813 -30.1537 -30.1537
    -6.2808  -6.2808  -5.2281  -5.2281   4.9686   4.9686   6.2076   6.2076
     8.7390   8.7390   8.8845   8.8845   9.1489   9.1489   9.9339   9.9339
    12.0826  12.0826  12.2182  12.2182

          k =-0.5000-0.5000 0.3621 (  9388 PWs)   bands (ev):

   -60.3107 -60.3107 -30.5958 -30.5958 -30.2461 -30.2461 -30.1439 -30.1439
    -6.0151  -6.0151  -5.4042  -5.4042   5.4398   5.4398   6.1216   6.1216
     8.1313   8.1313   8.9753   8.9753   9.0164   9.0164   9.9113   9.9113
    12.4702  12.4702  12.7884  12.7884

          k =-0.5000-0.5000 0.5431 (  9416 PWs)   bands (ev):

   -60.3070 -60.3070 -30.5900 -30.5900 -30.3102 -30.3102 -30.1341 -30.1341
    -5.7404  -5.7404  -5.5753  -5.5753   5.9925   5.9925   6.1397   6.1397
     7.3018   7.3018   8.5297   8.5297   9.3545   9.3545  10.4540  10.4540
    12.6371  12.6371  12.9252  12.9252

          k =-0.5000-0.5000-0.7241 (  9368 PWs)   bands (ev):

   -60.3054 -60.3054 -30.5876 -30.5876 -30.3366 -30.3366 -30.1300 -30.1300
    -5.6447  -5.6447  -5.6236  -5.6236   6.1734   6.1734   6.2774   6.2774
     6.9572   6.9572   8.3312   8.3312   9.5231   9.5231  10.6808  10.6808
    12.6624  12.6624  12.6951  12.6951

     highest occupied level (ev):    13.8163

!    total energy              =    -505.05484595 Ry
     estimated scf accuracy    <       0.00000069 Ry

     The total energy is the sum of the following terms:
     one-electron contribution =    -163.69571918 Ry
     hartree contribution      =     112.56560792 Ry
     xc contribution           =     -67.48836804 Ry
     ewald contribution        =    -386.35652920 Ry
     DFT-D3 Dispersion         =      -0.07983746 Ry

     convergence has been achieved in   9 iterations

     Forces acting on atoms (cartesian axes, Ry/au):

     atom    1 type  1   force =     0.00000000    0.00000000   -0.00000000
     atom    2 type  1   force =     0.00000000    0.00000000    0.00000000
     atom    3 type  2   force =     0.00375181    0.00375181   -0.00000000
     atom    4 type  2   force =    -0.00375181   -0.00375181   -0.00000000
     atom    5 type  2   force =     0.00375181   -0.00375181    0.00000000
     atom    6 type  2   force =    -0.00375181    0.00375181    0.00000000

     Total force =     0.010612     Total SCF correction =     0.000584


     Computing stress (Cartesian axis) and pressure

          total   stress  (Ry/bohr**3)                   (kbar)     P=       29.33
   0.00016372   0.00000000   0.00000000           24.08        0.00        0.00
   0.00000000   0.00016372   0.00000000            0.00       24.08        0.00
   0.00000000   0.00000000   0.00027071            0.00        0.00       39.82


     BFGS Geometry Optimization
     Energy error            =      0.0E+00 Ry
     Gradient error          =      3.8E-03 Ry/Bohr
     Cell gradient error     =      4.0E+01 kbar

     number of scf cycles    =   1
     number of bfgs steps    =   0

     enthalpy           new  =    -505.0548459505 Ry

     new trust radius        =       0.0278615372 bohr
     new conv_thr            =       0.0000010000 Ry

     new unit-cell volume =    430.05952 a.u.^3 (    63.72825 Ang^3 )
     density =      6.93459 g/cm^3

CELL_PARAMETERS (angstrom)
   4.515205371   0.000000000   0.000000000
   0.000000000   4.515205371   0.000000000
   0.000000000   0.000000000   3.125913433

ATOMIC_POSITIONS (angstrom)
Ru            0.0000000000        0.0000000000       -0.0000000000
Ru            2.2576026853        2.2576026853        1.5629567166
O             1.3804856966        1.3804856966       -0.0000000000
O             3.1347196739        3.1347196739       -0.0000000000
O             3.6380883819        0.8771169886        1.5629567166
O             0.8771169886        3.6380883819        1.5629567166



     Writing config-only to output data dir ./pwscf.save/
     NEW-OLD atomic charge density approx. for the potential
     extrapolated charge   56.82714, renormalised to   56.00000

     total cpu time spent up to now is        7.3 secs

     per-process dynamical memory:   144.4 Mb

     Self-consistent Calculation

     iteration #  1     ecut=   120.00 Ry     beta= 0.70
     Davidson diagonalization with overlap
     ethr =  1.00E-06,  avg # of iterations = 11.0

     total cpu time spent up to now is        8.6 secs

     total energy              =    -504.98637916 Ry
     estimated scf accuracy    <       0.05090708 Ry

     iteration #  2     ecut=   120.00 Ry     beta= 0.70
     Davidson diagonalization with overlap
     ethr =  9.09E-05,  avg # of iterations =  6.3

     total cpu time spent up to now is        9.4 secs

     total energy              =    -505.02628703 Ry
     estimated scf accuracy    <       0.33677362 Ry

     iteration #  3     ecut=   120.00 Ry     beta= 0.70
     Davidson diagonalization with overlap
     ethr =  9.09E-05,  avg # of iterations =  5.6

     total cpu time spent up to now is       10.0 secs

     total energy              =    -505.05733779 Ry
     estimated scf accuracy    <       0.02227470 Ry

     iteration #  4     ecut=   120.00 Ry     beta= 0.70
     Davidson diagonalization with overlap
     ethr =  3.98E-05,  avg # of iterations =  1.4

     total cpu time spent up to now is       10.4 secs

     total energy              =    -505.05533599 Ry
     estimated scf accuracy    <       0.01092204 Ry

     iteration #  5     ecut=   120.00 Ry     beta= 0.70
     Davidson diagonalization with overlap
     ethr =  1.95E-05,  avg # of iterations =  2.0

     total cpu time spent up to now is       10.8 secs

     total energy              =    -505.05574586 Ry
     estimated scf accuracy    <       0.00437340 Ry

     iteration #  6     ecut=   120.00 Ry     beta= 0.70
     Davidson diagonalization with overlap
     ethr =  7.81E-06,  avg # of iterations =  2.4

     total cpu time spent up to now is       11.2 secs

     total energy              =    -505.05571401 Ry
     estimated scf accuracy    <       0.00333627 Ry

     iteration #  7     ecut=   120.00 Ry     beta= 0.70
     Davidson diagonalization with overlap
     ethr =  5.96E-06,  avg # of iterations =  1.0

     total cpu time spent up to now is       11.5 secs

     total energy              =    -505.05483137 Ry
     estimated scf accuracy    <       0.00258026 Ry

     iteration #  8     ecut=   120.00 Ry     beta= 0.70
     Davidson diagonalization with overlap
     ethr =  4.61E-06,  avg # of iterations =  4.9

     total cpu time spent up to now is       12.0 secs

     total energy              =    -505.05533891 Ry
     estimated scf accuracy    <       0.00013721 Ry

     iteration #  9     ecut=   120.00 Ry     beta= 0.70
     Davidson diagonalization with overlap
     ethr =  2.45E-07,  avg # of iterations =  4.9

     total cpu time spent up to now is       12.6 secs

     total energy              =    -505.05547068 Ry
     estimated scf accuracy    <       0.00008962 Ry

     iteration # 10     ecut=   120.00 Ry     beta= 0.70
     Davidson diagonalization with overlap
     ethr =  1.60E-07,  avg # of iterations =  6.0

     total cpu time spent up to now is       13.3 secs

     total energy              =    -505.05561885 Ry
     estimated scf accuracy    <       0.00072370 Ry

     iteration # 11     ecut=   120.00 Ry     beta= 0.70
     Davidson diagonalization with overlap
     ethr =  1.60E-07,  avg # of iterations =  2.8

     total cpu time spent up to now is       13.7 secs

     total energy              =    -505.05549911 Ry
     estimated scf accuracy    <       0.00097491 Ry

     iteration # 12     ecut=   120.00 Ry     beta= 0.70
     Davidson diagonalization with overlap
     ethr =  1.60E-07,  avg # of iterations =  2.2

     total cpu time spent up to now is       14.1 secs

     total energy              =    -505.05541086 Ry
     estimated scf accuracy    <       0.00067053 Ry

     iteration # 13     ecut=   120.00 Ry     beta= 0.70
     Davidson diagonalization with overlap
     ethr =  1.60E-07,  avg # of iterations =  4.7

     total cpu time spent up to now is       14.7 secs

     total energy              =    -505.05531548 Ry
     estimated scf accuracy    <       0.00024406 Ry

     iteration # 14     ecut=   120.00 Ry     beta= 0.70
     Davidson diagonalization with overlap
     ethr =  1.60E-07,  avg # of iterations =  6.0

     total cpu time spent up to now is       15.3 secs

     total energy              =    -505.05535167 Ry
     estimated scf accuracy    <       0.00006976 Ry

     iteration # 15     ecut=   120.00 Ry     beta= 0.70
     Davidson diagonalization with overlap
     ethr =  1.25E-07,  avg # of iterations =  6.2

     total cpu time spent up to now is       16.1 secs

     total energy              =    -505.05559688 Ry
     estimated scf accuracy    <       0.00076806 Ry

     iteration # 16     ecut=   120.00 Ry     beta= 0.70
     Davidson diagonalization with overlap
     ethr =  1.25E-07,  avg # of iterations =  1.9

     total cpu time spent up to now is       16.4 secs

     total energy              =    -505.05516627 Ry
     estimated scf accuracy    <       0.00093432 Ry

     iteration # 17     ecut=   120.00 Ry     beta= 0.70
     Davidson diagonalization with overlap
     ethr =  1.25E-07,  avg # of iterations =  6.7

     total cpu time spent up to now is       17.5 secs

     total energy              =    -505.05539396 Ry
     estimated scf accuracy    <       0.00008700 Ry

     iteration # 18     ecut=   120.00 Ry     beta= 0.70
     Davidson diagonalization with overlap
     ethr =  1.25E-07,  avg # of iterations =  1.3

     total cpu time spent up to now is       17.9 secs

     total energy              =    -505.05538309 Ry
     estimated scf accuracy    <       0.00003903 Ry

     iteration # 19     ecut=   120.00 Ry     beta= 0.70
     Davidson diagonalization with overlap
     ethr =  6.97E-08,  avg # of iterations =  4.0

     total cpu time spent up to now is       18.4 secs

     End of self-consistent calculation

          k = 0.0000 0.0000 0.0000 (  9357 PWs)   bands (ev):

   -60.6181 -60.6119 -30.8828 -30.8828 -30.4605 -30.4457 -30.4457 -30.4377
    -7.2008  -6.1819  -5.2496  -5.2496   4.5522   4.6741   5.8141   6.1781
     6.1781   8.6919   8.7366   8.7366  10.1508  10.6012  10.6012  11.1155
    11.3788  11.4745  11.5455  11.5455

          k = 0.0000 0.0000 0.1798 (  9385 PWs)   bands (ev):

   -60.6165 -60.6107 -30.8808 -30.8808 -30.4845 -30.4637 -30.4419 -30.4419
    -7.0694  -6.1124  -5.3265  -5.3265   4.7023   4.8784   5.9744   6.2318
     6.2318   8.2407   8.8990   8.8990   9.4474  10.0005  10.0005  10.9230
    11.4990  11.8501  12.0511  12.1277

          k = 0.0000 0.0000 0.3596 (  9424 PWs)   bands (ev):

   -60.6125 -60.6080 -30.8759 -30.8759 -30.5419 -30.5262 -30.4326 -30.4326
    -6.7258  -5.9619  -5.5072  -5.5072   5.0807   5.4007   6.4128   6.4128
     6.4449   7.3903   8.3985   9.0485   9.0485   9.3640   9.3640  10.2173
    11.7767  12.0581  12.3499  12.9054

          k = 0.0000 0.0000 0.5395 (  9388 PWs)   bands (ev):

   -60.6081 -60.6057 -30.8710 -30.8710 -30.5977 -30.5893 -30.4233 -30.4233
    -6.3060  -5.8736  -5.6816  -5.6816   5.4789   5.8294   6.7053   6.7053
     6.9194   7.1920   7.6110   8.4091   8.4091   9.2152   9.5840   9.5840
    12.0663  12.2579  12.4881  13.4952

          k = 0.0000 0.0000-0.7193 (  9420 PWs)   bands (ev):

   -60.6055 -60.6055 -30.8690 -30.8690 -30.6179 -30.6179 -30.4194 -30.4194
    -5.9823  -5.9823  -5.7521  -5.7521   5.7281   5.7281   6.9022   6.9022
     7.1644   7.1644   8.0813   8.0813   8.1514   8.1514   9.6763   9.6763
    12.2616  12.2616  12.8591  12.8591

          k = 0.0000 0.1660 0.0000 (  9383 PWs)   bands (ev):

   -60.6177 -60.6123 -30.8823 -30.8822 -30.4589 -30.4466 -30.4466 -30.4392
    -7.1006  -6.1583  -5.3748  -5.3095   4.7498   4.9032   6.0008   6.2008
     6.2137   8.3725   8.4855   8.6113   9.7541   9.9359  10.2806  11.0031
    11.6613  11.7645  11.8784  11.9226

          k = 0.0000 0.1660 0.1798 (  9389 PWs)   bands (ev):

   -60.6161 -60.6111 -30.8804 -30.8804 -30.4832 -30.4653 -30.4425 -30.4423
    -6.9745  -6.0849  -5.4453  -5.3808   4.8952   5.0826   6.0486   6.2407
     6.3957   8.0876   8.4646   8.6942   9.1271   9.8456   9.9268  10.8758
    11.5395  12.0709  12.1021  12.3828

          k = 0.0000 0.1660 0.3596 (  9393 PWs)   bands (ev):

   -60.6122 -60.6083 -30.8760 -30.8759 -30.5407 -30.5272 -30.4329 -30.4328
    -6.6508  -5.9365  -5.5968  -5.5435   5.2484   5.5170   6.2546   6.4017
     6.8698   7.2698   7.8927   8.9836   9.0887   9.2745   9.2895  10.4025
    11.5530  12.3063  12.4939  12.7505

          k = 0.0000 0.1660 0.5395 (  9414 PWs)   bands (ev):

   -60.6079 -60.6058 -30.8716 -30.8716 -30.5966 -30.5894 -30.4233 -30.4232
    -6.2819  -5.9268  -5.6771  -5.6567   5.5708   5.8731   6.2450   6.5922
     7.1960   7.3514   7.6314   8.4348   8.6171   9.3381   9.4251   9.5619
    11.9820  12.1965  12.5210  12.9575

          k = 0.0000 0.1660-0.7193 (  9416 PWs)   bands (ev):

   -60.6055 -60.6055 -30.8699 -30.8699 -30.6173 -30.6173 -30.4192 -30.4192
    -6.0489  -6.0489  -5.6798  -5.6798   5.7325   5.7325   6.4423   6.4423
     7.5139   7.5139   8.1193   8.1193   8.5278   8.5278   9.5161   9.5161
    12.2780  12.2780  12.5291  12.5291

          k = 0.0000 0.3320 0.0000 (  9404 PWs)   bands (ev):

   -60.6166 -60.6134 -30.8812 -30.8811 -30.4547 -30.4484 -30.4483 -30.4434
    -6.8213  -6.1650  -5.6158  -5.4600   5.2717   5.4420   6.2563   6.2814
     6.5781   7.6692   7.7595   8.5305   8.7601   9.1351  10.1404  10.7023
    12.0876  12.2263  12.4256  12.5000

          k = 0.0000 0.3320 0.1798 (  9414 PWs)   bands (ev):

   -60.6150 -60.6122 -30.8797 -30.8796 -30.4795 -30.4695 -30.4436 -30.4433
    -6.7093  -6.0707  -5.6855  -5.5190   5.4156   5.5813   6.2007   6.2413
     6.8423   7.7764   7.9551   7.9898   8.3734   9.1695  10.1248  10.6439
    11.9820  12.2153  12.4412  12.7251

          k = 0.0000 0.3320 0.3596 (  9413 PWs)   bands (ev):

   -60.6113 -60.6091 -30.8762 -30.8761 -30.5375 -30.5300 -30.4334 -30.4333
    -6.4417  -5.8653  -5.8332  -5.6377   5.6896   5.8123   6.2968   6.3865
     7.0350   7.1928   7.5411   8.3602   8.5084   9.1746   9.7521  10.4167
    11.5823  12.4130  12.7173  12.7287

          k = 0.0000 0.3320 0.5395 (  9411 PWs)   bands (ev):

   -60.6075 -60.6063 -30.8729 -30.8728 -30.5941 -30.5901 -30.4232 -30.4232
    -6.2176  -6.0273  -5.6622  -5.6345   5.7359   5.8695   6.0345   6.3609
     7.1561   7.5259   7.9057   8.6733   8.7603   8.9285   9.4015  10.0931
    11.4447  12.2283  12.4378  12.5768

          k = 0.0000 0.3320-0.7193 (  9406 PWs)   bands (ev):

   -60.6055 -60.6055 -30.8716 -30.8716 -30.6160 -30.6160 -30.4190 -30.4190
    -6.1342  -6.1342  -5.5828  -5.5828   5.6203   5.6203   6.2208   6.2208
     7.6858   7.6858   8.2687   8.2687   9.0115   9.0115   9.4973   9.4973
    11.7935  11.7935  12.3116  12.3116

          k = 0.0000-0.4980 0.0000 (  9410 PWs)   bands (ev):

   -60.6150 -60.6150 -30.8806 -30.8806 -30.4492 -30.4492 -30.4490 -30.4490
    -6.4394  -6.4394  -5.6206  -5.6206   5.7478   5.7478   6.3012   6.3012
     7.2373   7.2373   7.5493   7.5493   8.6856   8.6856  10.3521  10.3521
    12.4000  12.4000  12.5481  12.5481

          k = 0.0000-0.4980 0.1798 (  9400 PWs)   bands (ev):

   -60.6136 -60.6136 -30.8793 -30.8793 -30.4746 -30.4746 -30.4440 -30.4440
    -6.3412  -6.3412  -5.6753  -5.6753   5.9584   5.9584   6.1509   6.1509
     7.3031   7.3031   7.7012   7.7012   8.3511   8.3511  10.4018  10.4018
    12.2253  12.2253  12.8098  12.8098

          k = 0.0000-0.4980 0.3596 (  9414 PWs)   bands (ev):

   -60.6102 -60.6102 -30.8762 -30.8762 -30.5336 -30.5336 -30.4336 -30.4336
    -6.1456  -6.1456  -5.7558  -5.7558   6.0359   6.0359   6.4268   6.4268
     6.7769   6.7769   8.0136   8.0136   8.5590   8.5590  10.1448  10.1448
    12.0201  12.0201  12.8624  12.8624

          k = 0.0000-0.4980 0.5395 (  9404 PWs)   bands (ev):

   -60.6069 -60.6069 -30.8735 -30.8735 -30.5917 -30.5917 -30.4232 -30.4232
    -6.1289  -6.1289  -5.6417  -5.6417   5.7796   5.7796   6.1841   6.1841
     7.3508   7.3508   8.2655   8.2655   8.8530   8.8530   9.9700   9.9700
    11.5362  11.5362  12.5669  12.5669

          k = 0.0000-0.4980-0.7193 (  9412 PWs)   bands (ev):

   -60.6055 -60.6055 -30.8725 -30.8725 -30.6154 -30.6154 -30.4189 -30.4189
    -6.1673  -6.1673  -5.5439  -5.5439   5.5174   5.5174   6.2238   6.2238
     7.7373   7.7373   8.5386   8.5386   8.6540   8.6540  10.0992  10.0992
    11.2122  11.2122  12.3225  12.3225

          k = 0.1660 0.1660 0.0000 (  9379 PWs)   bands (ev):

   -60.6173 -60.6127 -30.8833 -30.8809 -30.4576 -30.4483 -30.4458 -30.4405
    -7.0195  -6.1441  -5.5279  -5.2862   4.6075   5.3906   6.1561   6.1740
     6.2825   7.7399   8.5486   8.6551   9.6889   9.7243  10.1149  10.8855
    11.5347  11.5542  12.2202  12.3428

          k = 0.1660 0.1660 0.1798 (  9392 PWs)   bands (ev):

   -60.6158 -60.6114 -30.8812 -30.8794 -30.4820 -30.4666 -30.4434 -30.4419
    -6.8973  -6.0638  -5.5915  -5.3614   4.7795   5.5217   6.0359   6.3309
     6.4966   7.8327   8.0849   8.7986   8.9549   9.8378   9.9580  10.7092
    11.5508  11.7739  12.3523  12.5331

          k = 0.1660 0.1660 0.3596 (  9397 PWs)   bands (ev):

   -60.6119 -60.6086 -30.8762 -30.8759 -30.5398 -30.5280 -30.4333 -30.4327
    -6.5876  -5.9096  -5.7056  -5.5386   5.2190   5.7645   6.1119   6.5764
     7.0276   7.0401   7.9642   8.4484   8.9258   9.3240   9.6456  10.4961
    11.4375  12.1543  12.6301  12.8592

          k = 0.1660 0.1660 0.5395 (  9414 PWs)   bands (ev):

   -60.6078 -60.6060 -30.8727 -30.8713 -30.5961 -30.5894 -30.4234 -30.4231
    -6.2572  -5.9432  -5.7099  -5.6305   5.6267   5.9424   6.1485   6.3296
     7.1392   7.6119   7.7443   8.3824   8.6503   9.2435   9.4577   9.7753
    11.7904  12.2310  12.5536  13.0456

          k = 0.1660 0.1660-0.7193 (  9430 PWs)   bands (ev):

   -60.6055 -60.6055 -30.8715 -30.8692 -30.6185 -30.6154 -30.4196 -30.4189
    -6.1424  -5.9505  -5.7792  -5.5769   5.6059   5.9159   6.2357   6.4735
     6.8751   8.0802   8.1907   8.4232   8.4400   8.9677   9.1138   9.6475
    12.1113  12.2819  12.3008  12.7408

          k = 0.1660 0.3320 0.0000 (  9397 PWs)   bands (ev):

   -60.6163 -60.6136 -30.8830 -30.8806 -30.4540 -30.4492 -30.4466 -30.4441
    -6.7947  -6.2094  -5.6572  -5.3855   4.8177   5.7915   6.1718   6.3023
     6.7055   7.2782   8.2333   8.5710   9.1394   9.3206   9.8056  10.5370
    11.8365  11.8536  12.4830  12.5648

          k = 0.1660 0.3320 0.1798 (  9395 PWs)   bands (ev):

   -60.6148 -60.6123 -30.8811 -30.8793 -30.4788 -30.4700 -30.4440 -30.4425
    -6.6832  -6.1133  -5.7211  -5.4536   4.9818   5.9987   6.0882   6.1577
     6.9581   7.5903   7.8433   8.3284   8.8417   9.3274   9.8839  10.3995
    11.8723  11.9926  12.4402  12.8437

          k = 0.1660 0.3320 0.3596 (  9395 PWs)   bands (ev):

   -60.6112 -60.6093 -30.8765 -30.8762 -30.5372 -30.5303 -30.4336 -30.4330
    -6.4136  -5.9178  -5.8319  -5.6059   5.3875   6.0219   6.1045   6.4860
     6.8137   7.4897   7.7162   8.2132   8.9181   9.0666   9.7190  10.3415
    11.6207  12.2651  12.5574  12.9328

          k = 0.1660 0.3320 0.5395 (  9408 PWs)   bands (ev):

   -60.6074 -60.6063 -30.8735 -30.8720 -30.5945 -30.5901 -30.4235 -30.4232
    -6.1907  -6.0058  -5.7082  -5.6329   5.7231   5.8602   6.1095   6.2269
     6.9548   7.6374   8.0583   8.5136   8.6001   9.1771   9.5367  10.1915
    11.4580  12.3139  12.4348  12.5959

          k = 0.1660 0.3320-0.7193 (  9416 PWs)   bands (ev):

   -60.6055 -60.6055 -30.8725 -30.8702 -30.6178 -30.6147 -30.4195 -30.4189
    -6.1707  -6.0239  -5.6974  -5.5402   5.5318   5.8673   6.1498   6.2279
     7.0085   7.9779   8.2300   8.4665   8.6449   9.3294   9.4785   9.8364
    11.6014  12.1733  12.3091  12.3222

          k = 0.1660-0.4980 0.0000 (  9404 PWs)   bands (ev):

   -60.6150 -60.6150 -30.8817 -30.8817 -30.4490 -30.4490 -30.4483 -30.4483
    -6.4837  -6.4837  -5.5571  -5.5571   5.3480   5.3480   6.2422   6.2422
     7.3785   7.3785   8.1052   8.1052   8.8568   8.8568  10.0871  10.0871
    12.2621  12.2621  12.3256  12.3256

          k = 0.1660-0.4980 0.1798 (  9408 PWs)   bands (ev):

   -60.6136 -60.6136 -30.8801 -30.8801 -30.4744 -30.4744 -30.4435 -30.4435
    -6.3848  -6.3848  -5.6151  -5.6151   5.5012   5.5012   6.1731   6.1731
     7.4979   7.4979   8.1640   8.1640   8.5000   8.5000  10.1292  10.1292
    12.1393  12.1393  12.6469  12.6469

          k = 0.1660-0.4980 0.3596 (  9402 PWs)   bands (ev):

   -60.6102 -60.6102 -30.8765 -30.8765 -30.5337 -30.5337 -30.4335 -30.4335
    -6.1714  -6.1714  -5.7201  -5.7201   5.7648   5.7648   6.2441   6.2441
     7.0908   7.0908   8.2791   8.2791   8.6709   8.6709   9.9685   9.9685
    12.0899  12.0899  12.7248  12.7248

          k = 0.1660-0.4980 0.5395 (  9410 PWs)   bands (ev):

   -60.6068 -60.6068 -30.8731 -30.8731 -30.5921 -30.5921 -30.4234 -30.4234
    -6.0994  -6.0994  -5.6686  -5.6686   5.7580   5.7580   6.1804   6.1804
     7.1968   7.1968   8.3840   8.3840   8.8710   8.8710  10.0299  10.0299
    11.7053  11.7053  12.5056  12.5056

          k = 0.1660-0.4980-0.7193 (  9392 PWs)   bands (ev):

   -60.6054 -60.6054 -30.8719 -30.8719 -30.6159 -30.6159 -30.4192 -30.4192
    -6.1258  -6.1258  -5.5861  -5.5861   5.5969   5.5969   6.1894   6.1894
     7.5055   7.5055   8.2664   8.2664   9.0103   9.0103  10.1491  10.1491
    11.4528  11.4528  12.3265  12.3265

          k = 0.3320 0.3320 0.0000 (  9415 PWs)   bands (ev):

   -60.6158 -60.6142 -30.8842 -30.8819 -30.4519 -30.4483 -30.4462 -30.4458
    -6.7085  -6.3664  -5.5857  -5.3570   4.6163   5.3584   6.1122   6.2296
     7.1383   7.8360   8.5014   8.8245   9.1694   9.4749   9.4904  10.2974
    11.5289  11.5729  12.2781  12.3346

          k = 0.3320 0.3320 0.1798 (  9419 PWs)   bands (ev):

   -60.6143 -60.6129 -30.8821 -30.8803 -30.4769 -30.4715 -30.4435 -30.4420
    -6.6000  -6.2712  -5.6449  -5.4292   4.7904   5.5126   6.0259   6.1627
     7.3932   8.0449   8.1431   8.6150   8.8790   9.5311   9.6214   9.8732
    11.7174  11.8631  12.3179  12.6235

          k = 0.3320 0.3320 0.3596 (  9396 PWs)   bands (ev):

   -60.6108 -60.6097 -30.8769 -30.8767 -30.5360 -30.5316 -30.4335 -30.4329
    -6.3341  -6.0665  -5.7514  -5.5998   5.2481   5.7698   5.9717   6.2319
     7.1504   7.8919   7.9099   8.6077   8.8225   9.1923   9.5095  10.0700
    11.9189  12.0961  12.5519  12.7857

          k = 0.3320 0.3320 0.5395 (  9396 PWs)   bands (ev):

   -60.6071 -60.6065 -30.8733 -30.8718 -30.5944 -30.5910 -30.4238 -30.4235
    -6.1179  -5.9753  -5.7652  -5.6713   5.7282   5.8147   6.0398   6.1891
     6.8442   7.4507   8.2391   8.4359   8.7228   9.2846   9.7607  10.3157
    11.6598  12.2954  12.4977  12.7453

          k = 0.3320 0.3320-0.7193 (  9398 PWs)   bands (ev):

   -60.6054 -60.6054 -30.8720 -30.8697 -30.6184 -30.6153 -30.4200 -30.4193
    -6.1257  -5.8872  -5.8323  -5.5835   5.5917   6.0978   6.1005   6.1837
     6.5740   7.7103   8.1024   8.2022   8.9887   9.4009   9.9056  10.2481
    11.6073  12.3189  12.3328  12.5093

          k = 0.3320-0.4980 0.0000 (  9442 PWs)   bands (ev):

   -60.6150 -60.6150 -30.8837 -30.8837 -30.4490 -30.4490 -30.4466 -30.4466
    -6.5582  -6.5582  -5.4436  -5.4436   4.8230   4.8230   6.1376   6.1376
     7.7963   7.7963   8.8076   8.8076   9.2365   9.2365   9.7249   9.7249
    11.8532  11.8532  11.8533  11.8533

          k = 0.3320-0.4980 0.1798 (  9420 PWs)   bands (ev):

   -60.6136 -60.6136 -30.8817 -30.8817 -30.4741 -30.4741 -30.4425 -30.4425
    -6.4564  -6.4564  -5.5099  -5.5099   4.9885   4.9885   6.0666   6.0666
     7.9716   7.9716   8.6701   8.6701   9.0208   9.0208   9.5883   9.5883
    11.9359  11.9359  12.2017  12.2017

          k = 0.3320-0.4980 0.3596 (  9400 PWs)   bands (ev):

   -60.6102 -60.6102 -30.8770 -30.8770 -30.5338 -30.5338 -30.4332 -30.4332
    -6.2137  -6.2137  -5.6578  -5.6578   5.3985   5.3985   6.0198   6.0198
     7.6081   7.6081   8.5273   8.5273   8.9894   8.9894   9.6418   9.6418
    12.2468  12.2468  12.4401  12.4401

          k = 0.3320-0.4980 0.5395 (  9402 PWs)   bands (ev):

   -60.6068 -60.6068 -30.8724 -30.8724 -30.5929 -30.5929 -30.4237 -30.4237
    -6.0249  -6.0249  -5.7380  -5.7380   5.7534   5.7534   6.0743   6.0743
     7.0889   7.0889   8.3566   8.3566   9.0491   9.0491  10.1302  10.1302
    12.1594  12.1594  12.3862  12.3862

          k = 0.3320-0.4980-0.7193 (  9380 PWs)   bands (ev):

   -60.6054 -60.6054 -30.8706 -30.8706 -30.6171 -30.6171 -30.4198 -30.4198
    -6.0124  -6.0124  -5.7011  -5.7011   5.8091   5.8091   6.1206   6.1206
     7.0286   7.0286   8.1472   8.1472   9.2393   9.2393  10.3115  10.3115
    11.9900  11.9900  12.3326  12.3326

          k =-0.4980-0.4980 0.0000 (  9432 PWs)   bands (ev):

   -60.6150 -60.6150 -30.8847 -30.8847 -30.4490 -30.4490 -30.4458 -30.4458
    -6.5906  -6.5906  -5.3914  -5.3914   4.6186   4.6186   6.0904   6.0904
     8.3730   8.3730   8.4311   8.4311   9.4645   9.4645  10.0116  10.0116
    11.4961  11.4961  11.5828  11.5828

          k =-0.4980-0.4980 0.1798 (  9416 PWs)   bands (ev):

   -60.6136 -60.6136 -30.8826 -30.8826 -30.4740 -30.4740 -30.4420 -30.4420
    -6.4871  -6.4871  -5.4622  -5.4622   4.7926   4.7926   6.0148   6.0148
     8.5316   8.5316   8.6537   8.6537   8.9002   8.9002   9.6896   9.6896
    11.7993  11.7993  11.9247  11.9247

          k =-0.4980-0.4980 0.3596 (  9388 PWs)   bands (ev):

   -60.6102 -60.6102 -30.8773 -30.8773 -30.5339 -30.5339 -30.4330 -30.4330
    -6.2319  -6.2319  -5.6296  -5.6296   5.2505   5.2505   5.9389   5.9389
     7.9033   7.9033   8.7477   8.7477   8.8028   8.8028   9.6560   9.6560
    12.1662  12.1662  12.4893  12.4893

          k =-0.4980-0.4980 0.5395 (  9416 PWs)   bands (ev):

   -60.6068 -60.6068 -30.8721 -30.8721 -30.5932 -30.5932 -30.4239 -30.4239
    -5.9680  -5.9680  -5.7923  -5.7923   5.7879   5.7879   5.9626   5.9626
     7.0896   7.0896   8.3109   8.3109   9.1332   9.1332  10.1894  10.1894
    12.3159  12.3159  12.6200  12.6200

          k =-0.4980-0.4980-0.7193 (  9368 PWs)   bands (ev):

   -60.6054 -60.6054 -30.8699 -30.8699 -30.6177 -30.6177 -30.4202 -30.4202
    -5.8583  -5.8583  -5.8558  -5.8558   5.9980   5.9980   6.0652   6.0652
     6.7517   6.7517   8.1156   8.1156   9.2979   9.2979  10.4147  10.4147
    12.3342  12.3342  12.3961  12.3961

     highest occupied level (ev):    13.4952

!    total energy              =    -505.05539189 Ry
     estimated scf accuracy    <       0.00000014 Ry

     The total energy is the sum of the following terms:
     one-electron contribution =    -166.44124239 Ry
     hartree contribution      =     113.37759843 Ry
     xc contribution           =     -67.41408085 Ry
     ewald contribution        =    -384.49868491 Ry
     DFT-D3 Dispersion         =      -0.07898217 Ry

     convergence has been achieved in  19 iterations

     Forces acting on atoms (cartesian axes, Ry/au):

     atom    1 type  1   force =     0.00000000    0.00000000    0.00000000
     atom    2 type  1   force =     0.00000000    0.00000000   -0.00000000
     atom    3 type  2   force =     0.00316836    0.00316836   -0.00000000
     atom    4 type  2   force =    -0.00316836   -0.00316836   -0.00000000
     atom    5 type  2   force =     0.00316836   -0.00316836    0.00000000
     atom    6 type  2   force =    -0.00316836    0.00316836    0.00000000

     Total force =     0.008961     Total SCF correction =     0.000136


     Computing stress (Cartesian axis) and pressure

          total   stress  (Ry/bohr**3)                   (kbar)     P=      -10.73
  -0.00007040   0.00000000   0.00000000          -10.36        0.00        0.00
   0.00000000  -0.00007040   0.00000000            0.00      -10.36        0.00
   0.00000000   0.00000000  -0.00007800            0.00        0.00      -11.47

     Energy error            =      5.5E-04 Ry
     Gradient error          =      3.2E-03 Ry/Bohr
     Cell gradient error     =      1.1E+01 kbar

     number of scf cycles    =   2
     number of bfgs steps    =   1

     enthalpy           old  =    -505.0548459505 Ry
     enthalpy           new  =    -505.0553918926 Ry

     CASE: enthalpy          _new < enthalpy          _old

     new trust radius        =       0.0046938160 bohr
     new conv_thr            =       0.0000000317 Ry

     new unit-cell volume =    428.61626 a.u.^3 (    63.51438 Ang^3 )
     density =      6.95794 g/cm^3

CELL_PARAMETERS (angstrom)
   4.510095507   0.000000000   0.000000000
   0.000000000   4.510095507   0.000000000
   0.000000000   0.000000000   3.122486486

ATOMIC_POSITIONS (angstrom)
Ru            0.0000000000        0.0000000000       -0.0000000000
Ru            2.2550477536        2.2550477536        1.5612432428
O             1.3803996670        1.3803996670       -0.0000000000
O             3.1296958401        3.1296958401       -0.0000000000
O             3.6354474206        0.8746480865        1.5612432428
O             0.8746480865        3.6354474206        1.5612432428



     Writing config-only to output data dir ./pwscf.save/
     NEW-OLD atomic charge density approx. for the potential
     extrapolated charge   55.81186, renormalised to   56.00000

     total cpu time spent up to now is       19.2 secs

     per-process dynamical memory:   144.4 Mb

     Self-consistent Calculation

     iteration #  1     ecut=   120.00 Ry     beta= 0.70
     Davidson diagonalization with overlap
     ethr =  1.00E-06,  avg # of iterations =  6.5

     total cpu time spent up to now is       20.1 secs

     total energy              =    -505.05185108 Ry
     estimated scf accuracy    <       0.00274540 Ry

     iteration #  2     ecut=   120.00 Ry     beta= 0.70
     Davidson diagonalization with overlap
     ethr =  4.90E-06,  avg # of iterations =  6.0

     total cpu time spent up to now is       20.8 secs

     total energy              =    -505.05423828 Ry
     estimated scf accuracy    <       0.01595772 Ry

     iteration #  3     ecut=   120.00 Ry     beta= 0.70
     Davidson diagonalization with overlap
     ethr =  4.90E-06,  avg # of iterations =  5.2

     total cpu time spent up to now is       21.4 secs

     total energy              =    -505.05552318 Ry
     estimated scf accuracy    <       0.00150279 Ry

     iteration #  4     ecut=   120.00 Ry     beta= 0.70
     Davidson diagonalization with overlap
     ethr =  2.68E-06,  avg # of iterations =  1.8

     total cpu time spent up to now is       21.8 secs

     total energy              =    -505.05529986 Ry
     estimated scf accuracy    <       0.00072327 Ry

     iteration #  5     ecut=   120.00 Ry     beta= 0.70
     Davidson diagonalization with overlap
     ethr =  1.29E-06,  avg # of iterations =  4.3

     total cpu time spent up to now is       22.3 secs

     total energy              =    -505.05550256 Ry
     estimated scf accuracy    <       0.00000702 Ry

     iteration #  6     ecut=   120.00 Ry     beta= 0.70
     Davidson diagonalization with overlap
     ethr =  1.25E-08,  avg # of iterations =  7.0

     total cpu time spent up to now is       23.1 secs

     total energy              =    -505.05551086 Ry
     estimated scf accuracy    <       0.00001722 Ry

     iteration #  7     ecut=   120.00 Ry     beta= 0.70
     Davidson diagonalization with overlap
     ethr =  1.25E-08,  avg # of iterations =  2.0

     total cpu time spent up to now is       23.5 secs

     total energy              =    -505.05550803 Ry
     estimated scf accuracy    <       0.00000851 Ry

     iteration #  8     ecut=   120.00 Ry     beta= 0.70
     Davidson diagonalization with overlap
     ethr =  1.25E-08,  avg # of iterations =  4.6

     total cpu time spent up to now is       24.0 secs

     total energy              =    -505.05551171 Ry
     estimated scf accuracy    <       0.00000105 Ry

     iteration #  9     ecut=   120.00 Ry     beta= 0.70
     Davidson diagonalization with overlap
     ethr =  1.88E-09,  avg # of iterations =  8.1

     total cpu time spent up to now is       24.9 secs

     total energy              =    -505.05550878 Ry
     estimated scf accuracy    <       0.00003102 Ry

     iteration # 10     ecut=   120.00 Ry     beta= 0.70
     Davidson diagonalization with overlap
     ethr =  1.88E-09,  avg # of iterations =  6.1

     total cpu time spent up to now is       25.6 secs

     total energy              =    -505.05551108 Ry
     estimated scf accuracy    <       0.00000515 Ry

     iteration # 11     ecut=   120.00 Ry     beta= 0.70
     Davidson diagonalization with overlap
     ethr =  1.88E-09,  avg # of iterations =  2.0

     total cpu time spent up to now is       26.0 secs

     total energy              =    -505.05550946 Ry
     estimated scf accuracy    <       0.00000629 Ry

     iteration # 12     ecut=   120.00 Ry     beta= 0.70
     Davidson diagonalization with overlap
     ethr =  1.88E-09,  avg # of iterations =  4.5

     total cpu time spent up to now is       26.6 secs

     total energy              =    -505.05550952 Ry
     estimated scf accuracy    <       0.00000124 Ry

     iteration # 13     ecut=   120.00 Ry     beta= 0.70
     Davidson diagonalization with overlap
     ethr =  1.88E-09,  avg # of iterations =  4.2

     total cpu time spent up to now is       27.1 secs

     total energy              =    -505.05550971 Ry
     estimated scf accuracy    <       0.00000015 Ry

     iteration # 14     ecut=   120.00 Ry     beta= 0.70
     Davidson diagonalization with overlap
     ethr =  2.66E-10,  avg # of iterations =  4.4

     total cpu time spent up to now is       27.6 secs

     total energy              =    -505.05550970 Ry
     estimated scf accuracy    <       0.00000007 Ry

     iteration # 15     ecut=   120.00 Ry     beta= 0.70
     Davidson diagonalization with overlap
     c_bands:  1 eigenvalues not converged
     ethr =  1.32E-10,  avg # of iterations =  5.9

     total cpu time spent up to now is       28.2 secs

     total energy              =    -505.05552118 Ry
     estimated scf accuracy    <       0.00000509 Ry

     iteration # 16     ecut=   120.00 Ry     beta= 0.70
     Davidson diagonalization with overlap
     ethr =  1.32E-10,  avg # of iterations =  1.3

     total cpu time spent up to now is       28.6 secs

     total energy              =    -505.05552111 Ry
     estimated scf accuracy    <       0.00000507 Ry

     iteration # 17     ecut=   120.00 Ry     beta= 0.70
     Davidson diagonalization with overlap
     ethr =  1.32E-10,  avg # of iterations =  5.3

     total cpu time spent up to now is       29.2 secs

     total energy              =    -505.05552118 Ry
     estimated scf accuracy    <       0.00000470 Ry

     iteration # 18     ecut=   120.00 Ry     beta= 0.70
     Davidson diagonalization with overlap
     ethr =  1.32E-10,  avg # of iterations =  4.8

     total cpu time spent up to now is       29.7 secs

     total energy              =    -505.05552107 Ry
     estimated scf accuracy    <       0.00000477 Ry

     iteration # 19     ecut=   120.00 Ry     beta= 0.70
     Davidson diagonalization with overlap
     ethr =  1.32E-10,  avg # of iterations =  5.8

     total cpu time spent up to now is       30.4 secs

     total energy              =    -505.05552114 Ry
     estimated scf accuracy    <       0.00000480 Ry

     iteration # 20     ecut=   120.00 Ry     beta= 0.70
     Davidson diagonalization with overlap
     ethr =  1.32E-10,  avg # of iterations =  1.0

     total cpu time spent up to now is       30.7 secs

     total energy              =    -505.05552116 Ry
     estimated scf accuracy    <       0.00000481 Ry

     iteration # 21     ecut=   120.00 Ry     beta= 0.70
     Davidson diagonalization with overlap
     ethr =  1.32E-10,  avg # of iterations =  3.4

     total cpu time spent up to now is       31.2 secs

     total energy              =    -505.05552116 Ry
     estimated scf accuracy    <       0.00000505 Ry

     iteration # 22     ecut=   120.00 Ry     beta= 0.70
     Davidson diagonalization with overlap
     ethr =  1.32E-10,  avg # of iterations =  1.0

     total cpu time spent up to now is       31.6 secs

     total energy              =    -505.05552115 Ry
     estimated scf accuracy    <       0.00000503 Ry

     iteration # 23     ecut=   120.00 Ry     beta= 0.70
     Davidson diagonalization with overlap
     ethr =  1.32E-10,  avg # of iterations =  5.2

     total cpu time spent up to now is       32.1 secs

     total energy              =    -505.05552694 Ry
     estimated scf accuracy    <       0.00000481 Ry

     iteration # 24     ecut=   120.00 Ry     beta= 0.70
     Davidson diagonalization with overlap
     c_bands:  4 eigenvalues not converged
     c_bands:  1 eigenvalues not converged
     c_bands:  2 eigenvalues not converged
     c_bands:  1 eigenvalues not converged
     c_bands:  4 eigenvalues not converged
     c_bands:  1 eigenvalues not converged
     ethr =  1.32E-10,  avg # of iterations = 16.1

     total cpu time spent up to now is       33.8 secs

     total energy              =    -505.05550209 Ry
     estimated scf accuracy    <       0.00020682 Ry

     iteration # 25     ecut=   120.00 Ry     beta= 0.70
     Davidson diagonalization with overlap
     c_bands:  1 eigenvalues not converged
     c_bands:  1 eigenvalues not converged
     c_bands:  4 eigenvalues not converged
     ethr =  1.32E-10,  avg # of iterations = 15.5

     total cpu time spent up to now is       35.4 secs

     total energy              =    -505.05551927 Ry
     estimated scf accuracy    <       0.00000948 Ry

     iteration # 26     ecut=   120.00 Ry     beta= 0.70
     Davidson diagonalization with overlap
     ethr =  1.32E-10,  avg # of iterations =  8.0

     total cpu time spent up to now is       36.2 secs

     total energy              =    -505.05551992 Ry
     estimated scf accuracy    <       0.00000106 Ry

     iteration # 27     ecut=   120.00 Ry     beta= 0.70
     Davidson diagonalization with overlap
     ethr =  1.32E-10,  avg # of iterations =  2.9

     total cpu time spent up to now is       36.7 secs

     total energy              =    -505.05551977 Ry
     estimated scf accuracy    <       0.00000082 Ry

     iteration # 28     ecut=   120.00 Ry     beta= 0.70
     Davidson diagonalization with overlap
     ethr =  1.32E-10,  avg # of iterations =  5.5

     total cpu time spent up to now is       37.3 secs

     total energy              =    -505.05551972 Ry
     estimated scf accuracy    <       0.00000021 Ry

     iteration # 29     ecut=   120.00 Ry     beta= 0.70
     Davidson diagonalization with overlap
     ethr =  1.32E-10,  avg # of iterations =  6.0

     total cpu time spent up to now is       38.0 secs

     total energy              =    -505.05551979 Ry
     estimated scf accuracy    <       0.00000009 Ry

     iteration # 30     ecut=   120.00 Ry     beta= 0.70
     Davidson diagonalization with overlap
     ethr =  1.32E-10,  avg # of iterations =  1.2

     total cpu time spent up to now is       38.3 secs

     total energy              =    -505.05551977 Ry
     estimated scf accuracy    <       0.00000004 Ry

     iteration # 31     ecut=   120.00 Ry     beta= 0.70
     Davidson diagonalization with overlap
     ethr =  8.03E-11,  avg # of iterations =  4.6

     total cpu time spent up to now is       38.9 secs

     End of self-consistent calculation

          k = 0.0000 0.0000 0.0000 (  9357 PWs)   bands (ev):

   -60.5510 -60.5447 -30.8165 -30.8165 -30.4021 -30.3790 -30.3762 -30.3762
    -7.1611  -6.1398  -5.1925  -5.1925   4.5875   4.7116   5.8562   6.2105
     6.2105   8.7462   8.7902   8.7902  10.2069  10.6613  10.6613  11.1732
    11.4465  11.5453  11.6060  11.6060

          k = 0.0000 0.0000 0.1800 (  9385 PWs)   bands (ev):

   -60.5494 -60.5435 -30.8144 -30.8144 -30.4266 -30.4054 -30.3723 -30.3723
    -7.0283  -6.0687  -5.2709  -5.2709   4.7390   4.9172   6.0172   6.2671
     6.2671   8.2926   8.9506   8.9506   9.5011  10.0589  10.0589  10.9885
    11.5605  11.9194  12.1279  12.1930

          k = 0.0000 0.0000 0.3600 (  9424 PWs)   bands (ev):

   -60.5453 -60.5407 -30.8094 -30.8094 -30.4850 -30.4691 -30.3628 -30.3628
    -6.6808  -5.9144  -5.4553  -5.4553   5.1214   5.4437   6.4535   6.4535
     6.4898   7.4369   8.4476   9.0930   9.0930   9.4275   9.4275  10.2823
    11.8351  12.1290  12.4199  12.9763

          k = 0.0000 0.0000 0.5401 (  9388 PWs)   bands (ev):

   -60.5408 -60.5383 -30.8044 -30.8044 -30.5417 -30.5332 -30.3533 -30.3533
    -6.2566  -5.8225  -5.6331  -5.6331   5.5238   5.8773   6.7484   6.7484
     6.9625   7.2404   7.6573   8.4645   8.4645   9.2746   9.6387   9.6387
    12.1293  12.3187  12.5534  13.5617

          k = 0.0000 0.0000-0.7201 (  9420 PWs)   bands (ev):

   -60.5381 -60.5381 -30.8024 -30.8024 -30.5623 -30.5623 -30.3494 -30.3494
    -5.9303  -5.9303  -5.7049  -5.7049   5.7747   5.7747   6.9438   6.9438
     7.2103   7.2103   8.1414   8.1414   8.2048   8.2048   9.7296   9.7296
    12.3213  12.3213  12.9242  12.9242

          k = 0.0000 0.1662 0.0000 (  9383 PWs)   bands (ev):

   -60.5506 -60.5451 -30.8159 -30.8159 -30.4005 -30.3805 -30.3771 -30.3771
    -7.0605  -6.1165  -5.3180  -5.2530   4.7856   4.9411   6.0435   6.2330
     6.2457   8.4263   8.5418   8.6660   9.8104   9.9948  10.3370  11.0594
    11.7317  11.8249  11.9493  11.9826

          k = 0.0000 0.1662 0.1800 (  9389 PWs)   bands (ev):

   -60.5490 -60.5439 -30.8140 -30.8140 -30.4252 -30.4070 -30.3730 -30.3728
    -6.9329  -6.0414  -5.3901  -5.3258   4.9325   5.1219   6.0887   6.2760
     6.4339   8.1385   8.5139   8.7514   9.1863   9.9014   9.9803  10.9330
    11.6063  12.1419  12.1672  12.4610

          k = 0.0000 0.1662 0.3600 (  9393 PWs)   bands (ev):

   -60.5449 -60.5410 -30.8095 -30.8095 -30.4837 -30.4701 -30.3632 -30.3631
    -6.6054  -5.8888  -5.5455  -5.4920   5.2898   5.5608   6.2956   6.4423
     6.9149   7.3151   7.9396   9.0466   9.1490   9.3247   9.3343  10.4647
    11.6123  12.3784  12.5653  12.8223

          k = 0.0000 0.1662 0.5401 (  9414 PWs)   bands (ev):

   -60.5406 -60.5385 -30.8051 -30.8051 -30.5406 -30.5333 -30.3533 -30.3533
    -6.2326  -5.8768  -5.6283  -5.6071   5.6161   5.9216   6.2867   6.6342
     7.2411   7.4015   7.6807   8.4909   8.6697   9.3967   9.4761   9.6166
    12.0420  12.2609  12.5869  13.0283

          k = 0.0000 0.1662-0.7201 (  9416 PWs)   bands (ev):

   -60.5381 -60.5381 -30.8033 -30.8033 -30.5616 -30.5616 -30.3492 -30.3492
    -5.9991  -5.9991  -5.6303  -5.6303   5.7777   5.7777   6.4873   6.4873
     7.5628   7.5628   8.1746   8.1746   8.5821   8.5821   9.5681   9.5681
    12.3382  12.3382  12.5935  12.5935

          k = 0.0000 0.3324 0.0000 (  9404 PWs)   bands (ev):

   -60.5494 -60.5463 -30.8148 -30.8147 -30.3963 -30.3847 -30.3789 -30.3788
    -6.7802  -6.1242  -5.5592  -5.4047   5.3079   5.4789   6.2880   6.3127
     6.6234   7.7247   7.8193   8.5861   8.8149   9.1913  10.1927  10.7565
    12.1623  12.2860  12.4847  12.5800

          k = 0.0000 0.3324 0.1800 (  9414 PWs)   bands (ev):

   -60.5479 -60.5450 -30.8133 -30.8132 -30.4214 -30.4111 -30.3742 -30.3740
    -6.6666  -6.0283  -5.6304  -5.4653   5.4535   5.6205   6.2369   6.2770
     6.8858   7.8252   8.0113   8.0442   8.4319   9.2239  10.1767  10.6983
    12.0498  12.2813  12.5137  12.8023

          k = 0.0000 0.3324 0.3600 (  9413 PWs)   bands (ev):

   -60.5441 -60.5419 -30.8097 -30.8096 -30.4805 -30.4727 -30.3638 -30.3636
    -6.3952  -5.8160  -5.7843  -5.5872   5.7333   5.8580   6.3370   6.4264
     7.0774   7.2386   7.5906   8.4188   8.5660   9.2274   9.8000  10.4714
    11.6463  12.4839  12.7916  12.8019

          k = 0.0000 0.3324 0.5401 (  9411 PWs)   bands (ev):

   -60.5402 -60.5389 -30.8065 -30.8064 -30.5380 -30.5339 -30.3533 -30.3533
    -6.1686  -5.9784  -5.6128  -5.5841   5.7805   5.9103   6.0849   6.4063
     7.2051   7.5701   7.9603   8.7298   8.8140   8.9804   9.4472  10.1502
    11.5036  12.2958  12.5047  12.6434

          k = 0.0000 0.3324-0.7201 (  9406 PWs)   bands (ev):

   -60.5381 -60.5381 -30.8052 -30.8052 -30.5602 -30.5602 -30.3490 -30.3490
    -6.0862  -6.0862  -5.5315  -5.5315   5.6601   5.6601   6.2736   6.2736
     7.7390   7.7390   8.3174   8.3174   9.0668   9.0668   9.5479   9.5479
    11.8553  11.8553  12.3734  12.3734

          k = 0.0000-0.4985 0.0000 (  9410 PWs)   bands (ev):

   -60.5478 -60.5478 -30.8142 -30.8142 -30.3905 -30.3905 -30.3798 -30.3798
    -6.3977  -6.3977  -5.5657  -5.5657   5.7815   5.7815   6.3323   6.3323
     7.2979   7.2979   7.5995   7.5995   8.7417   8.7417  10.4046  10.4046
    12.4781  12.4781  12.6070  12.6070

          k = 0.0000-0.4985 0.1800 (  9400 PWs)   bands (ev):

   -60.5464 -60.5464 -30.8129 -30.8129 -30.4163 -30.4163 -30.3747 -30.3747
    -6.2977  -6.2977  -5.6221  -5.6221   5.9932   5.9932   6.1895   6.1895
     7.3526   7.3526   7.7578   7.7578   8.4035   8.4035  10.4549  10.4549
    12.2937  12.2937  12.8829  12.8829

          k = 0.0000-0.4985 0.3600 (  9414 PWs)   bands (ev):

   -60.5430 -60.5430 -30.8098 -30.8098 -30.4765 -30.4765 -30.3640 -30.3640
    -6.0973  -6.0973  -5.7066  -5.7066   6.0825   6.0825   6.4657   6.4657
     6.8209   6.8209   8.0697   8.0697   8.6111   8.6111  10.1954  10.1954
    12.0886  12.0886  12.9362  12.9362

          k = 0.0000-0.4985 0.5401 (  9404 PWs)   bands (ev):

   -60.5395 -60.5395 -30.8071 -30.8071 -30.5355 -30.5355 -30.3533 -30.3533
    -6.0802  -6.0802  -5.5915  -5.5915   5.8203   5.8203   6.2361   6.2361
     7.3970   7.3970   8.3191   8.3191   8.9047   8.9047  10.0211  10.0211
    11.6000  11.6000  12.6338  12.6338

          k = 0.0000-0.4985-0.7201 (  9412 PWs)   bands (ev):

   -60.5381 -60.5381 -30.8062 -30.8062 -30.5595 -30.5595 -30.3489 -30.3489
    -6.1198  -6.1198  -5.4919  -5.4919   5.5555   5.5555   6.2797   6.2797
     7.7897   7.7897   8.5867   8.5867   8.7057   8.7057  10.1539  10.1539
    11.2719  11.2719  12.3847  12.3847

          k = 0.1662 0.1662 0.0000 (  9379 PWs)   bands (ev):

   -60.5502 -60.5455 -30.8169 -30.8146 -30.3992 -30.3819 -30.3789 -30.3762
    -6.9791  -6.1027  -5.4717  -5.2293   4.6439   5.4274   6.1884   6.2172
     6.3139   7.7985   8.6039   8.7081   9.7450   9.7766  10.1761  10.9428
    11.6050  11.6148  12.2909  12.4022

          k = 0.1662 0.1662 0.1800 (  9392 PWs)   bands (ev):

   -60.5486 -60.5442 -30.8148 -30.8130 -30.4240 -30.4083 -30.3741 -30.3724
    -6.8554  -6.0207  -5.5369  -5.3061   4.8172   5.5604   6.0733   6.3660
     6.5383   7.8836   8.1418   8.8501   9.0082   9.9001  10.0109  10.7624
    11.6195  11.8436  12.4218  12.5999

          k = 0.1662 0.1662 0.3600 (  9397 PWs)   bands (ev):

   -60.5447 -60.5413 -30.8098 -30.8095 -30.4828 -30.4708 -30.3636 -30.3630
    -6.5419  -5.8616  -5.6553  -5.4869   5.2605   5.8094   6.1519   6.6170
     7.0742   7.0840   8.0125   8.5065   8.9735   9.3878   9.6938  10.5560
    11.4987  12.2244  12.7045  12.9293

          k = 0.1662 0.1662 0.5401 (  9414 PWs)   bands (ev):

   -60.5405 -60.5386 -30.8063 -30.8047 -30.5401 -30.5333 -30.3535 -30.3532
    -6.2080  -5.8932  -5.6615  -5.5804   5.6719   5.9920   6.1900   6.3712
     7.1885   7.6557   7.7962   8.4377   8.7069   9.2885   9.5177   9.8312
    11.8497  12.2954  12.6204  13.1136

          k = 0.1662 0.1662-0.7201 (  9430 PWs)   bands (ev):

   -60.5381 -60.5381 -30.8051 -30.8026 -30.5629 -30.5596 -30.3496 -30.3489
    -6.0943  -5.8983  -5.7322  -5.5257   5.6471   5.9649   6.2830   6.5148
     6.9254   8.1396   8.2409   8.4788   8.4907   9.0243   9.1605   9.7007
    12.1731  12.3422  12.3620  12.8047

          k = 0.1662 0.3324 0.0000 (  9397 PWs)   bands (ev):

   -60.5492 -60.5465 -30.8166 -30.8142 -30.3955 -30.3855 -30.3798 -30.3771
    -6.7537  -6.1684  -5.6015  -5.3295   4.8547   5.8254   6.2039   6.3334
     6.7506   7.3408   8.2857   8.6269   9.1959   9.3765   9.8596  10.5927
    11.8967  11.9268  12.5624  12.6236

          k = 0.1662 0.3324 0.1800 (  9395 PWs)   bands (ev):

   -60.5477 -60.5451 -30.8147 -30.8129 -30.4207 -30.4116 -30.3747 -30.3730
    -6.6406  -6.0706  -5.6668  -5.3991   5.0202   6.0337   6.1238   6.1964
     7.0031   7.6473   7.8937   8.3794   8.8991   9.3849   9.9371  10.4522
    11.9395  12.0623  12.5124  12.9153

          k = 0.1662 0.3324 0.3600 (  9395 PWs)   bands (ev):

   -60.5440 -60.5420 -30.8100 -30.8098 -30.4802 -30.4731 -30.3640 -30.3633
    -6.3670  -5.8684  -5.7835  -5.5548   5.4303   6.0672   6.1444   6.5263
     6.8577   7.5369   7.7650   8.2692   8.9733   9.1247   9.7674  10.3951
    11.6864  12.3361  12.6306  13.0045

          k = 0.1662 0.3324 0.5401 (  9408 PWs)   bands (ev):

   -60.5401 -60.5390 -30.8071 -30.8055 -30.5384 -30.5339 -30.3536 -30.3533
    -6.1417  -5.9564  -5.6594  -5.5826   5.7675   5.9015   6.1594   6.2718
     7.0026   7.6815   8.1131   8.5679   8.6538   9.2330   9.5842  10.2488
    11.5169  12.3801  12.5032  12.6617

          k = 0.1662 0.3324-0.7201 (  9416 PWs)   bands (ev):

   -60.5381 -60.5381 -30.8062 -30.8037 -30.5621 -30.5589 -30.3495 -30.3489
    -6.1233  -5.9746  -5.6474  -5.4882   5.5702   5.9085   6.2010   6.2815
     7.0557   8.0350   8.2781   8.5183   8.6990   9.3883   9.5271   9.8901
    11.6601  12.2368  12.3703  12.3845

          k = 0.1662-0.4985 0.0000 (  9404 PWs)   bands (ev):

   -60.5478 -60.5478 -30.8153 -30.8153 -30.3905 -30.3905 -30.3789 -30.3789
    -6.4420  -6.4420  -5.5020  -5.5020   5.3849   5.3849   6.2738   6.2738
     7.4285   7.4285   8.1628   8.1628   8.9127   8.9127  10.1404  10.1404
    12.3389  12.3389  12.3850  12.3850

          k = 0.1662-0.4985 0.1800 (  9408 PWs)   bands (ev):

   -60.5464 -60.5464 -30.8137 -30.8137 -30.4162 -30.4162 -30.3742 -30.3742
    -6.3414  -6.3414  -5.5616  -5.5616   5.5401   5.5401   6.2082   6.2082
     7.5453   7.5453   8.2225   8.2225   8.5529   8.5529  10.1823  10.1823
    12.2070  12.2070  12.7194  12.7194

          k = 0.1662-0.4985 0.3600 (  9402 PWs)   bands (ev):

   -60.5430 -60.5430 -30.8101 -30.8101 -30.4766 -30.4766 -30.3638 -30.3638
    -6.1236  -6.1236  -5.6703  -5.6703   5.8097   5.8097   6.2827   6.2827
     7.1367   7.1367   8.3340   8.3340   8.7255   8.7255  10.0187  10.0187
    12.1587  12.1587  12.7979  12.7979

          k = 0.1662-0.4985 0.5401 (  9410 PWs)   bands (ev):

   -60.5395 -60.5395 -30.8067 -30.8067 -30.5359 -30.5359 -30.3535 -30.3535
    -6.0504  -6.0504  -5.6187  -5.6187   5.7998   5.7998   6.2299   6.2299
     7.2431   7.2431   8.4375   8.4375   8.9254   8.9254  10.0814  10.0814
    11.7692  11.7692  12.5722  12.5722

          k = 0.1662-0.4985-0.7201 (  9392 PWs)   bands (ev):

   -60.5381 -60.5381 -30.8055 -30.8055 -30.5602 -30.5602 -30.3492 -30.3492
    -6.0780  -6.0780  -5.5344  -5.5344   5.6351   5.6351   6.2443   6.2443
     7.5552   7.5552   8.3164   8.3164   9.0663   9.0663  10.2030  10.2030
    11.5127  11.5127  12.3885  12.3885

          k = 0.3324 0.3324 0.0000 (  9415 PWs)   bands (ev):

   -60.5486 -60.5470 -30.8179 -30.8155 -30.3934 -30.3876 -30.3789 -30.3763
    -6.6673  -6.3248  -5.5306  -5.3007   4.6533   5.3958   6.1445   6.2611
     7.1842   7.8926   8.5540   8.8802   9.2220   9.5300   9.5460  10.3597
    11.6002  11.6334  12.3553  12.3940

          k = 0.3324 0.3324 0.1800 (  9419 PWs)   bands (ev):

   -60.5471 -60.5457 -30.8158 -30.8140 -30.4188 -30.4133 -30.3742 -30.3724
    -6.5572  -6.2278  -5.5914  -5.3744   4.8287   5.5520   6.0609   6.1974
     7.4396   8.0933   8.2017   8.6675   8.9320   9.5848   9.6806   9.9284
    11.7874  11.9289  12.3878  12.6944

          k = 0.3324 0.3324 0.3600 (  9396 PWs)   bands (ev):

   -60.5435 -60.5424 -30.8105 -30.8102 -30.4789 -30.4745 -30.3638 -30.3632
    -6.2873  -6.0185  -5.7017  -5.5485   5.2903   5.8147   6.0103   6.2707
     7.1972   7.9404   7.9600   8.6649   8.8749   9.2540   9.5577  10.1236
    11.9863  12.1659  12.6251  12.8555

          k = 0.3324 0.3324 0.5401 (  9396 PWs)   bands (ev):

   -60.5398 -60.5392 -30.8069 -30.8053 -30.5383 -30.5349 -30.3538 -30.3536
    -6.0687  -5.9248  -5.7172  -5.6213   5.7713   5.8603   6.0800   6.2392
     6.8902   7.4949   8.2957   8.4892   8.7791   9.3439   9.8095  10.3720
    11.7205  12.3601  12.5652  12.8098

          k = 0.3324 0.3324-0.7201 (  9398 PWs)   bands (ev):

   -60.5381 -60.5381 -30.8056 -30.8031 -30.5628 -30.5595 -30.3500 -30.3493
    -6.0781  -5.8346  -5.7856  -5.5316   5.6296   6.1407   6.1489   6.2389
     6.6174   7.7570   8.1618   8.2534   9.0478   9.4610   9.9548  10.3042
    11.6648  12.3798  12.3947  12.5707

          k = 0.3324-0.4985 0.0000 (  9442 PWs)   bands (ev):

   -60.5478 -60.5478 -30.8174 -30.8174 -30.3905 -30.3905 -30.3771 -30.3771
    -6.5167  -6.5167  -5.3879  -5.3879   4.8605   4.8605   6.1696   6.1696
     7.8442   7.8442   8.8621   8.8621   9.2921   9.2921   9.7847   9.7847
    11.9134  11.9134  11.9272  11.9272

          k = 0.3324-0.4985 0.1800 (  9420 PWs)   bands (ev):

   -60.5464 -60.5464 -30.8154 -30.8154 -30.4160 -30.4160 -30.3730 -30.3730
    -6.4133  -6.4133  -5.4557  -5.4557   5.0275   5.0275   6.1013   6.1013
     8.0193   8.0193   8.7234   8.7234   9.0778   9.0778   9.6443   9.6443
    12.0033  12.0033  12.2720  12.2720

          k = 0.3324-0.4985 0.3600 (  9400 PWs)   bands (ev):

   -60.5430 -60.5430 -30.8106 -30.8106 -30.4768 -30.4768 -30.3634 -30.3634
    -6.1666  -6.1666  -5.6071  -5.6071   5.4417   5.4417   6.0581   6.0581
     7.6560   7.6560   8.5801   8.5801   9.0481   9.0481   9.6930   9.6930
    12.3165  12.3165  12.5106  12.5106

          k = 0.3324-0.4985 0.5401 (  9402 PWs)   bands (ev):

   -60.5395 -60.5395 -30.8060 -30.8060 -30.5368 -30.5368 -30.3538 -30.3538
    -5.9750  -5.9750  -5.6890  -5.6890   5.7975   5.7975   6.1187   6.1187
     7.1346   7.1346   8.4119   8.4119   9.1073   9.1073  10.1829  10.1829
    12.2240  12.2240  12.4518  12.4518

          k = 0.3324-0.4985-0.7201 (  9380 PWs)   bands (ev):

   -60.5381 -60.5381 -30.8041 -30.8041 -30.5614 -30.5614 -30.3498 -30.3498
    -5.9638  -5.9638  -5.6502  -5.6502   5.8480   5.8480   6.1731   6.1731
     7.0731   7.0731   8.2036   8.2036   9.2994   9.2994  10.3646  10.3646
    12.0509  12.0509  12.3941  12.3941

          k =-0.4985-0.4985 0.0000 (  9432 PWs)   bands (ev):

   -60.5478 -60.5478 -30.8184 -30.8184 -30.3905 -30.3905 -30.3762 -30.3762
    -6.5492  -6.5492  -5.3353  -5.3353   4.6559   4.6559   6.1226   6.1226
     8.4186   8.4186   8.4837   8.4837   9.5200   9.5200  10.0777  10.0777
    11.5676  11.5676  11.6432  11.6432

          k =-0.4985-0.4985 0.1800 (  9416 PWs)   bands (ev):

   -60.5464 -60.5464 -30.8162 -30.8162 -30.4159 -30.4159 -30.3725 -30.3725
    -6.4441  -6.4441  -5.4076  -5.4076   4.8312   4.8312   6.0494   6.0494
     8.5850   8.5850   8.6978   8.6978   8.9538   8.9538   9.7544   9.7544
    11.8708  11.8708  11.9889  11.9889

          k =-0.4985-0.4985 0.3600 (  9388 PWs)   bands (ev):

   -60.5430 -60.5430 -30.8109 -30.8109 -30.4769 -30.4769 -30.3633 -30.3633
    -6.1849  -6.1849  -5.5785  -5.5785   5.2929   5.2929   5.9770   5.9770
     7.9523   7.9523   8.7986   8.7986   8.8586   8.8586   9.7136   9.7136
    12.2359  12.2359  12.5586  12.5586

          k =-0.4985-0.4985 0.5401 (  9416 PWs)   bands (ev):

   -60.5395 -60.5395 -30.8056 -30.8056 -30.5372 -30.5372 -30.3540 -30.3540
    -5.9169  -5.9169  -5.7444  -5.7444   5.8356   5.8356   6.0024   6.0024
     7.1344   7.1344   8.3682   8.3682   9.1924   9.1924  10.2429  10.2429
    12.3805  12.3805  12.6830  12.6830

          k =-0.4985-0.4985-0.7201 (  9368 PWs)   bands (ev):

   -60.5381 -60.5381 -30.8034 -30.8034 -30.5621 -30.5621 -30.3502 -30.3502
    -5.8117  -5.8117  -5.8030  -5.8030   6.0378   6.0378   6.1163   6.1163
     6.7940   6.7940   8.1749   8.1749   9.3592   9.3592  10.4678  10.4678
    12.3954  12.3954  12.4562  12.4562

     highest occupied level (ev):    13.5617

!    total energy              =    -505.05551979 Ry
     estimated scf accuracy    <          2.9E-09 Ry

     The total energy is the sum of the following terms:
     one-electron contribution =    -165.85479619 Ry
     hartree contribution      =     113.21038174 Ry
     xc contribution           =     -67.43083885 Ry
     ewald contribution        =    -384.90110349 Ry
     DFT-D3 Dispersion         =      -0.07916300 Ry

     convergence has been achieved in  31 iterations

     Forces acting on atoms (cartesian axes, Ry/au):

     atom    1 type  1   force =     0.00000000    0.00000000    0.00000000
     atom    2 type  1   force =     0.00000000    0.00000000    0.00000000
     atom    3 type  2   force =     0.00212782    0.00212782    0.00000000
     atom    4 type  2   force =    -0.00212782   -0.00212782    0.00000000
     atom    5 type  2   force =     0.00212782   -0.00212782    0.00000000
     atom    6 type  2   force =    -0.00212782    0.00212782    0.00000000

     Total force =     0.006018     Total SCF correction =     0.000007


     Computing stress (Cartesian axis) and pressure

          total   stress  (Ry/bohr**3)                   (kbar)     P=       -1.75
  -0.00001628   0.00000000   0.00000000           -2.39        0.00        0.00
   0.00000000  -0.00001628   0.00000000            0.00       -2.39        0.00
   0.00000000   0.00000000  -0.00000319            0.00        0.00       -0.47

     Energy error            =      1.3E-04 Ry
     Gradient error          =      2.1E-03 Ry/Bohr
     Cell gradient error     =      2.4E+00 kbar

     number of scf cycles    =   3
     number of bfgs steps    =   2

     enthalpy           old  =    -505.0553918926 Ry
     enthalpy           new  =    -505.0555197856 Ry

     CASE: enthalpy          _new < enthalpy          _old

     new trust radius        =       0.0061755501 bohr
     new conv_thr            =       0.0000000128 Ry

     new unit-cell volume =    428.08422 a.u.^3 (    63.43554 Ang^3 )
     density =      6.96659 g/cm^3

CELL_PARAMETERS (angstrom)
   4.507152245   0.000000000   0.000000000
   0.000000000   4.507152245   0.000000000
   0.000000000   0.000000000   3.122684919

ATOMIC_POSITIONS (angstrom)
Ru            0.0000000000        0.0000000000       -0.0000000000
Ru            2.2535761223        2.2535761223        1.5613424594
O             1.3818081150        1.3818081150       -0.0000000000
O             3.1253441295        3.1253441295       -0.0000000000
O             3.6353842373        0.8717680073        1.5613424594
O             0.8717680073        3.6353842373        1.5613424594



     Writing config-only to output data dir ./pwscf.save/
     NEW-OLD atomic charge density approx. for the potential
     extrapolated charge   55.93056, renormalised to   56.00000

     total cpu time spent up to now is       39.7 secs

     per-process dynamical memory:   144.4 Mb

     Self-consistent Calculation

     iteration #  1     ecut=   120.00 Ry     beta= 0.70
     Davidson diagonalization with overlap
     ethr =  1.00E-06,  avg # of iterations =  5.1

     total cpu time spent up to now is       40.5 secs

     total energy              =    -505.05514192 Ry
     estimated scf accuracy    <       0.00030967 Ry

     iteration #  2     ecut=   120.00 Ry     beta= 0.70
     Davidson diagonalization with overlap
     ethr =  5.53E-07,  avg # of iterations =  6.0

     total cpu time spent up to now is       41.2 secs

     total energy              =    -505.05544070 Ry
     estimated scf accuracy    <       0.00142963 Ry

     iteration #  3     ecut=   120.00 Ry     beta= 0.70
     Davidson diagonalization with overlap
     ethr =  5.53E-07,  avg # of iterations =  5.1

     total cpu time spent up to now is       41.8 secs

     total energy              =    -505.05556764 Ry
     estimated scf accuracy    <       0.00013396 Ry

     iteration #  4     ecut=   120.00 Ry     beta= 0.70
     Davidson diagonalization with overlap
     ethr =  2.39E-07,  avg # of iterations =  1.8

     total cpu time spent up to now is       42.2 secs

     total energy              =    -505.05554320 Ry
     estimated scf accuracy    <       0.00005929 Ry

     iteration #  5     ecut=   120.00 Ry     beta= 0.70
     Davidson diagonalization with overlap
     ethr =  1.06E-07,  avg # of iterations =  4.7

     total cpu time spent up to now is       42.8 secs

     total energy              =    -505.05556476 Ry
     estimated scf accuracy    <       0.00000184 Ry

     iteration #  6     ecut=   120.00 Ry     beta= 0.70
     Davidson diagonalization with overlap
     ethr =  3.29E-09,  avg # of iterations =  6.1

     total cpu time spent up to now is       43.4 secs

     total energy              =    -505.05556663 Ry
     estimated scf accuracy    <       0.00000372 Ry

     iteration #  7     ecut=   120.00 Ry     beta= 0.70
     Davidson diagonalization with overlap
     ethr =  3.29E-09,  avg # of iterations =  1.4

     total cpu time spent up to now is       43.8 secs

     total energy              =    -505.05556628 Ry
     estimated scf accuracy    <       0.00000445 Ry

     iteration #  8     ecut=   120.00 Ry     beta= 0.70
     Davidson diagonalization with overlap
     ethr =  3.29E-09,  avg # of iterations =  1.0

     total cpu time spent up to now is       44.1 secs

     total energy              =    -505.05556842 Ry
     estimated scf accuracy    <       0.00000356 Ry

     iteration #  9     ecut=   120.00 Ry     beta= 0.70
     Davidson diagonalization with overlap
     ethr =  3.29E-09,  avg # of iterations =  4.7

     total cpu time spent up to now is       44.7 secs

     total energy              =    -505.05556119 Ry
     estimated scf accuracy    <       0.00001354 Ry

     iteration # 10     ecut=   120.00 Ry     beta= 0.70
     Davidson diagonalization with overlap
     ethr =  3.29E-09,  avg # of iterations =  7.2

     total cpu time spent up to now is       45.5 secs

     total energy              =    -505.05556344 Ry
     estimated scf accuracy    <       0.00000565 Ry

     iteration # 11     ecut=   120.00 Ry     beta= 0.70
     Davidson diagonalization with overlap
     ethr =  3.29E-09,  avg # of iterations =  5.8

     total cpu time spent up to now is       46.2 secs

     total energy              =    -505.05556520 Ry
     estimated scf accuracy    <       0.00000315 Ry

     iteration # 12     ecut=   120.00 Ry     beta= 0.70
     Davidson diagonalization with overlap
     ethr =  3.29E-09,  avg # of iterations =  2.6

     total cpu time spent up to now is       46.6 secs

     total energy              =    -505.05556493 Ry
     estimated scf accuracy    <       0.00000080 Ry

     iteration # 13     ecut=   120.00 Ry     beta= 0.70
     Davidson diagonalization with overlap
     ethr =  1.42E-09,  avg # of iterations =  5.9

     total cpu time spent up to now is       47.2 secs

     total energy              =    -505.05556522 Ry
     estimated scf accuracy    <       0.00000118 Ry

     iteration # 14     ecut=   120.00 Ry     beta= 0.70
     Davidson diagonalization with overlap
     ethr =  1.42E-09,  avg # of iterations =  4.0

     total cpu time spent up to now is       47.7 secs

     total energy              =    -505.05556535 Ry
     estimated scf accuracy    <       0.00000006 Ry

     iteration # 15     ecut=   120.00 Ry     beta= 0.70
     Davidson diagonalization with overlap
     ethr =  1.14E-10,  avg # of iterations =  5.0

     total cpu time spent up to now is       48.3 secs

     total energy              =    -505.05560346 Ry
     estimated scf accuracy    <       0.00006216 Ry

     iteration # 16     ecut=   120.00 Ry     beta= 0.70
     Davidson diagonalization with overlap
     ethr =  1.14E-10,  avg # of iterations =  1.0

     total cpu time spent up to now is       48.6 secs

     total energy              =    -505.05560352 Ry
     estimated scf accuracy    <       0.00006219 Ry

     iteration # 17     ecut=   120.00 Ry     beta= 0.70
     Davidson diagonalization with overlap
     ethr =  1.14E-10,  avg # of iterations =  1.1

     total cpu time spent up to now is       49.0 secs

     total energy              =    -505.05560365 Ry
     estimated scf accuracy    <       0.00006237 Ry

     iteration # 18     ecut=   120.00 Ry     beta= 0.70
     Davidson diagonalization with overlap
     ethr =  1.14E-10,  avg # of iterations =  1.0

     total cpu time spent up to now is       49.4 secs

     total energy              =    -505.05560356 Ry
     estimated scf accuracy    <       0.00006270 Ry

     iteration # 19     ecut=   120.00 Ry     beta= 0.70
     Davidson diagonalization with overlap
     ethr =  1.14E-10,  avg # of iterations =  1.1

     total cpu time spent up to now is       49.7 secs

     total energy              =    -505.05560353 Ry
     estimated scf accuracy    <       0.00006245 Ry

     iteration # 20     ecut=   120.00 Ry     beta= 0.70
     Davidson diagonalization with overlap
     ethr =  1.14E-10,  avg # of iterations =  3.8

     total cpu time spent up to now is       50.2 secs

     total energy              =    -505.05560378 Ry
     estimated scf accuracy    <       0.00006237 Ry

     iteration # 21     ecut=   120.00 Ry     beta= 0.70
     Davidson diagonalization with overlap
     ethr =  1.14E-10,  avg # of iterations =  1.1

     total cpu time spent up to now is       50.5 secs

     total energy              =    -505.05560392 Ry
     estimated scf accuracy    <       0.00006305 Ry

     iteration # 22     ecut=   120.00 Ry     beta= 0.70
     Davidson diagonalization with overlap
     ethr =  1.14E-10,  avg # of iterations =  1.2

     total cpu time spent up to now is       50.9 secs

     total energy              =    -505.05560418 Ry
     estimated scf accuracy    <       0.00006337 Ry

     iteration # 23     ecut=   120.00 Ry     beta= 0.70
     Davidson diagonalization with overlap
     ethr =  1.14E-10,  avg # of iterations =  3.3

     total cpu time spent up to now is       51.4 secs

     total energy              =    -505.05558878 Ry
     estimated scf accuracy    <       0.00006416 Ry

     iteration # 24     ecut=   120.00 Ry     beta= 0.70
     Davidson diagonalization with overlap
     c_bands:  1 eigenvalues not converged
     c_bands:  1 eigenvalues not converged
     c_bands:  1 eigenvalues not converged
     c_bands:  1 eigenvalues not converged
     c_bands:  5 eigenvalues not converged
     c_bands:  2 eigenvalues not converged
     c_bands:  3 eigenvalues not converged
     c_bands:  1 eigenvalues not converged
     c_bands:  5 eigenvalues not converged
     ethr =  1.14E-10,  avg # of iterations = 22.0

     total cpu time spent up to now is       53.6 secs

     total energy              =    -505.05554978 Ry
     estimated scf accuracy    <       0.00032282 Ry

     iteration # 25     ecut=   120.00 Ry     beta= 0.70
     Davidson diagonalization with overlap
     c_bands:  1 eigenvalues not converged
     c_bands:  1 eigenvalues not converged
     c_bands:  5 eigenvalues not converged
     c_bands:  1 eigenvalues not converged
     c_bands:  3 eigenvalues not converged
     c_bands:  5 eigenvalues not converged
     c_bands:  4 eigenvalues not converged
     c_bands:  1 eigenvalues not converged
     c_bands:  1 eigenvalues not converged
     ethr =  1.14E-10,  avg # of iterations = 18.8

     total cpu time spent up to now is       55.4 secs

     total energy              =    -505.05558103 Ry
     estimated scf accuracy    <       0.00000779 Ry

     iteration # 26     ecut=   120.00 Ry     beta= 0.70
     Davidson diagonalization with overlap
     c_bands:  1 eigenvalues not converged
     c_bands:  1 eigenvalues not converged
     c_bands:  1 eigenvalues not converged
     c_bands:  2 eigenvalues not converged
     ethr =  1.14E-10,  avg # of iterations = 14.3

     total cpu time spent up to now is       56.9 secs

     total energy              =    -505.05558467 Ry
     estimated scf accuracy    <       0.00000835 Ry

     iteration # 27     ecut=   120.00 Ry     beta= 0.70
     Davidson diagonalization with overlap
     ethr =  1.14E-10,  avg # of iterations =  7.8

     total cpu time spent up to now is       57.7 secs

     total energy              =    -505.05558347 Ry
     estimated scf accuracy    <       0.00000484 Ry

     iteration # 28     ecut=   120.00 Ry     beta= 0.70
     Davidson diagonalization with overlap
     ethr =  1.14E-10,  avg # of iterations =  8.8

     total cpu time spent up to now is       58.6 secs

     total energy              =    -505.05558381 Ry
     estimated scf accuracy    <       0.00000030 Ry

     iteration # 29     ecut=   120.00 Ry     beta= 0.70
     Davidson diagonalization with overlap
     ethr =  1.14E-10,  avg # of iterations =  6.2

     total cpu time spent up to now is       59.2 secs

     End of self-consistent calculation

          k = 0.0000 0.0000 0.0000 (  9357 PWs)   bands (ev):

   -60.5238 -60.5174 -30.7753 -30.7753 -30.3855 -30.3622 -30.3558 -30.3558
    -7.1473  -6.1262  -5.1665  -5.1665   4.6029   4.7239   5.8809   6.2097
     6.2097   8.7640   8.8151   8.8151  10.2252  10.6893  10.6893  11.1953
    11.4707  11.5797  11.6336  11.6336

          k = 0.0000 0.0000 0.1800 (  9385 PWs)   bands (ev):

   -60.5222 -60.5162 -30.7732 -30.7732 -30.4101 -30.3888 -30.3519 -30.3519
    -7.0134  -6.0538  -5.2462  -5.2462   4.7554   4.9302   6.0421   6.2714
     6.2714   8.3092   8.9716   8.9716   9.5181  10.0873  10.0873  11.0207
    11.5837  11.9428  12.1653  12.2239

          k = 0.0000 0.0000 0.3600 (  9424 PWs)   bands (ev):

   -60.5180 -60.5135 -30.7681 -30.7681 -30.4689 -30.4528 -30.3425 -30.3425
    -6.6633  -5.8964  -5.4334  -5.4334   5.1405   5.4597   6.4672   6.4672
     6.5155   7.4502   8.4620   9.1063   9.1063   9.4613   9.4613  10.3171
    11.8535  12.1565  12.4386  13.0114

          k = 0.0000 0.0000 0.5400 (  9388 PWs)   bands (ev):

   -60.5135 -60.5111 -30.7631 -30.7631 -30.5259 -30.5173 -30.3330 -30.3330
    -6.2361  -5.8014  -5.6137  -5.6137   5.5460   5.8996   6.7679   6.7679
     6.9720   7.2676   7.6702   8.4933   8.4933   9.3067   9.6597   9.6597
    12.1420  12.3379  12.5612  13.5861

          k = 0.0000 0.0000-0.7200 (  9420 PWs)   bands (ev):

   -60.5109 -60.5109 -30.7610 -30.7610 -30.5466 -30.5466 -30.3290 -30.3290
    -5.9082  -5.9082  -5.6865  -5.6865   5.7974   5.7974   6.9633   6.9633
     7.2229   7.2229   8.1757   8.1757   8.2341   8.2341   9.7486   9.7486
    12.3238  12.3238  12.9456  12.9456

          k = 0.0000 0.1663 0.0000 (  9383 PWs)   bands (ev):

   -60.5234 -60.5178 -30.7747 -30.7747 -30.3839 -30.3638 -30.3568 -30.3567
    -7.0467  -6.1037  -5.2912  -5.2271   4.8005   4.9529   6.0681   6.2318
     6.2442   8.4528   8.5710   8.6859   9.8319  10.0225  10.3617  11.0808
    11.7584  11.8505  11.9818  12.0063

          k = 0.0000 0.1663 0.1800 (  9389 PWs)   bands (ev):

   -60.5218 -60.5166 -30.7728 -30.7727 -30.4087 -30.3904 -30.3526 -30.3525
    -6.9181  -6.0273  -5.3648  -5.3012   4.9485   5.1348   6.1064   6.2802
     6.4445   8.1562   8.5331   8.7793   9.2142   9.9243  10.0024  10.9561
    11.6364  12.1679  12.1974  12.4971

          k = 0.0000 0.1663 0.3600 (  9393 PWs)   bands (ev):

   -60.5177 -60.5138 -30.7682 -30.7682 -30.4675 -30.4538 -30.3428 -30.3427
    -6.5877  -5.8705  -5.5240  -5.4704   5.3095   5.5784   6.3131   6.4557
     6.9362   7.3276   7.9553   9.0805   9.1781   9.3428   9.3465  10.4961
    11.6330  12.4061  12.5857  12.8575

          k = 0.0000 0.1663 0.5400 (  9414 PWs)   bands (ev):

   -60.5134 -60.5112 -30.7638 -30.7638 -30.5247 -30.5174 -30.3330 -30.3329
    -6.2117  -5.8548  -5.6095  -5.5888   5.6396   5.9458   6.3041   6.6514
     7.2568   7.4224   7.7035   8.5204   8.6918   9.4234   9.4931   9.6419
    12.0621  12.2745  12.5956  13.0597

          k = 0.0000 0.1663-0.7200 (  9416 PWs)   bands (ev):

   -60.5109 -60.5109 -30.7621 -30.7621 -30.5458 -30.5458 -30.3289 -30.3289
    -5.9771  -5.9771  -5.6119  -5.6119   5.8000   5.8000   6.5079   6.5079
     7.5834   7.5834   8.2006   8.2006   8.6105   8.6105   9.5863   9.5863
    12.3415  12.3415  12.6171  12.6171

          k = 0.0000 0.3326 0.0000 (  9404 PWs)   bands (ev):

   -60.5222 -60.5190 -30.7735 -30.7734 -30.3796 -30.3680 -30.3587 -30.3586
    -6.7668  -6.1141  -5.5300  -5.3788   5.3201   5.4879   6.2855   6.3095
     6.6482   7.7560   7.8559   8.6096   8.8417   9.2156  10.2126  10.7765
    12.1921  12.3077  12.5043  12.6151

          k = 0.0000 0.3326 0.1800 (  9414 PWs)   bands (ev):

   -60.5207 -60.5177 -30.7720 -30.7719 -30.4048 -30.3945 -30.3540 -30.3538
    -6.6519  -6.0170  -5.6024  -5.4408   5.4676   5.6317   6.2450   6.2817
     6.9043   7.8467   8.0384   8.0712   8.4616   9.2472  10.1951  10.7184
    12.0792  12.3103  12.5414  12.8338

          k = 0.0000 0.3326 0.3600 (  9413 PWs)   bands (ev):

   -60.5169 -60.5146 -30.7685 -30.7684 -30.4642 -30.4564 -30.3435 -30.3433
    -6.3768  -5.7964  -5.7644  -5.5664   5.7551   5.8790   6.3529   6.4385
     7.0870   7.2558   7.6156   8.4473   8.5934   9.2478   9.8145  10.4933
    11.6736  12.5192  12.8167  12.8242

          k = 0.0000 0.3326 0.5400 (  9411 PWs)   bands (ev):

   -60.5129 -60.5117 -30.7653 -30.7652 -30.5219 -30.5178 -30.3330 -30.3329
    -6.1466  -5.9554  -5.5952  -5.5671   5.8043   5.9278   6.1142   6.4284
     7.2245   7.5816   7.9878   8.7557   8.8348   9.0008   9.4603  10.1770
    11.5252  12.3259  12.5190  12.6536

          k = 0.0000 0.3326-0.7200 (  9406 PWs)   bands (ev):

   -60.5108 -60.5108 -30.7642 -30.7642 -30.5441 -30.5441 -30.3287 -30.3287
    -6.0640  -6.0640  -5.5135  -5.5135   5.6775   5.6775   6.3060   6.3060
     7.7637   7.7637   8.3329   8.3329   9.0899   9.0899   9.5689   9.5689
    11.8795  11.8795  12.3787  12.3787

          k = 0.0000-0.4989 0.0000 (  9410 PWs)   bands (ev):

   -60.5206 -60.5206 -30.7729 -30.7729 -30.3738 -30.3738 -30.3596 -30.3596
    -6.3858  -6.3858  -5.5384  -5.5384   5.7866   5.7866   6.3287   6.3287
     7.3379   7.3379   7.6254   7.6254   8.7670   8.7670  10.4237  10.4237
    12.5105  12.5105  12.6256  12.6256

          k = 0.0000-0.4989 0.1800 (  9400 PWs)   bands (ev):

   -60.5192 -60.5192 -30.7715 -30.7715 -30.3997 -30.3997 -30.3546 -30.3546
    -6.2841  -6.2841  -5.5966  -5.5966   5.9988   5.9988   6.1994   6.1994
     7.3783   7.3783   7.7865   7.7865   8.4271   8.4271  10.4741  10.4741
    12.3228  12.3228  12.9097  12.9097

          k = 0.0000-0.4989 0.3600 (  9414 PWs)   bands (ev):

   -60.5157 -60.5157 -30.7685 -30.7685 -30.4601 -30.4601 -30.3437 -30.3437
    -6.0779  -6.0779  -5.6868  -5.6868   6.1069   6.1069   6.4779   6.4779
     6.8348   6.8348   8.0981   8.0981   8.6320   8.6320  10.2121  10.2121
    12.1211  12.1211  12.9586  12.9586

          k = 0.0000-0.4989 0.5400 (  9404 PWs)   bands (ev):

   -60.5123 -60.5123 -30.7660 -30.7660 -30.5193 -30.5193 -30.3330 -30.3330
    -6.0573  -6.0573  -5.5748  -5.5748   5.8387   5.8387   6.2688   6.2688
     7.4098   7.4098   8.3440   8.3440   8.9231   8.9231  10.0403  10.0403
    11.6285  11.6285  12.6454  12.6454

          k = 0.0000-0.4989-0.7200 (  9412 PWs)   bands (ev):

   -60.5108 -60.5108 -30.7652 -30.7652 -30.5433 -30.5433 -30.3285 -30.3285
    -6.0975  -6.0975  -5.4741  -5.4741   5.5714   5.5714   6.3183   6.3183
     7.8096   7.8096   8.6036   8.6036   8.7242   8.7242  10.1777  10.1777
    11.2965  11.2965  12.3903  12.3903

          k = 0.1663 0.1663 0.0000 (  9379 PWs)   bands (ev):

   -60.5230 -60.5182 -30.7758 -30.7732 -30.3826 -30.3651 -30.3586 -30.3559
    -6.9654  -6.0911  -5.4440  -5.2034   4.6584   5.4373   6.1877   6.2418
     6.3110   7.8328   8.6260   8.7334   9.7652   9.7977  10.2064  10.9661
    11.6330  11.6422  12.3219  12.4226

          k = 0.1663 0.1663 0.1800 (  9392 PWs)   bands (ev):

   -60.5214 -60.5170 -30.7736 -30.7717 -30.4075 -30.3916 -30.3538 -30.3520
    -6.8405  -6.0076  -5.5107  -5.2815   4.8325   5.5726   6.0845   6.3694
     6.5562   7.9048   8.1700   8.8722   9.0274   9.9330  10.0299  10.7816
    11.6538  11.8713  12.4516  12.6276

          k = 0.1663 0.1663 0.3600 (  9397 PWs)   bands (ev):

   -60.5174 -60.5140 -30.7685 -30.7682 -30.4666 -30.4546 -30.3433 -30.3426
    -6.5240  -5.8430  -5.6346  -5.4651   5.2788   5.8301   6.1678   6.6301
     7.0962   7.0977   8.0279   8.5341   8.9910   9.4224   9.7078  10.5845
    11.5223  12.2489  12.7361  12.9543

          k = 0.1663 0.1663 0.5400 (  9414 PWs)   bands (ev):

   -60.5132 -60.5114 -30.7651 -30.7634 -30.5242 -30.5172 -30.3331 -30.3329
    -6.1867  -5.8713  -5.6422  -5.5631   5.6943   6.0197   6.2056   6.3906
     7.2089   7.6645   7.8244   8.4665   8.7320   9.2994   9.5460   9.8581
    11.8696  12.3078  12.6310  13.1389

          k = 0.1663 0.1663-0.7200 (  9430 PWs)   bands (ev):

   -60.5109 -60.5109 -30.7641 -30.7612 -30.5471 -30.5436 -30.3292 -30.3286
    -6.0721  -5.8761  -5.7138  -5.5077   5.6655   5.9929   6.3039   6.5347
     6.9486   8.1732   8.2557   8.5097   8.5098   9.0543   9.1734   9.7215
    12.1953  12.3453  12.3663  12.8252

          k = 0.1663 0.3326 0.0000 (  9397 PWs)   bands (ev):

   -60.5220 -60.5192 -30.7754 -30.7729 -30.3788 -30.3688 -30.3596 -30.3568
    -6.7401  -6.1580  -5.5727  -5.3036   4.8688   5.8300   6.2027   6.3297
     6.7749   7.3819   8.3124   8.6512   9.2228   9.3981   9.8825  10.6153
    11.9214  11.9569  12.5963  12.6420

          k = 0.1663 0.3326 0.1800 (  9395 PWs)   bands (ev):

   -60.5205 -60.5179 -30.7735 -30.7715 -30.4041 -30.3950 -30.3545 -30.3526
    -6.6258  -6.0589  -5.6394  -5.3745   5.0354   6.0387   6.1304   6.2064
     7.0245   7.6777   7.9153   8.4009   8.9255   9.4115   9.9581  10.4713
    11.9713  12.0907  12.5421  12.9431

          k = 0.1663 0.3326 0.3600 (  9395 PWs)   bands (ev):

   -60.5167 -60.5147 -30.7688 -30.7685 -30.4639 -30.4568 -30.3437 -30.3429
    -6.3488  -5.8485  -5.7644  -5.5334   5.4492   6.0894   6.1598   6.5391
     6.8715   7.5567   7.7854   8.2936   8.9986   9.1536   9.7812  10.4154
    11.7163  12.3649  12.6604  13.0267

          k = 0.1663 0.3326 0.5400 (  9408 PWs)   bands (ev):

   -60.5128 -60.5117 -30.7660 -30.7642 -30.5224 -30.5178 -30.3332 -30.3330
    -6.1196  -5.9340  -5.6409  -5.5658   5.7893   5.9199   6.1874   6.2950
     7.0207   7.6913   8.1417   8.5902   8.6793   9.2577   9.5980  10.2757
    11.5378  12.3983  12.5277  12.6728

          k = 0.1663 0.3326-0.7200 (  9416 PWs)   bands (ev):

   -60.5108 -60.5108 -30.7652 -30.7624 -30.5463 -30.5427 -30.3292 -30.3286
    -6.1010  -5.9529  -5.6287  -5.4704   5.5862   5.9276   6.2278   6.3173
     7.0747   8.0642   8.2894   8.5385   8.7257   9.4159   9.5428   9.9150
    11.6804  12.2615  12.3744  12.3907

          k = 0.1663-0.4989 0.0000 (  9404 PWs)   bands (ev):

   -60.5206 -60.5206 -30.7740 -30.7740 -30.3738 -30.3738 -30.3586 -30.3586
    -6.4294  -6.4294  -5.4754  -5.4754   5.3962   5.3962   6.2711   6.2711
     7.4556   7.4556   8.1950   8.1950   8.9365   8.9365  10.1616  10.1616
    12.3710  12.3710  12.4056  12.4056

          k = 0.1663-0.4989 0.1800 (  9408 PWs)   bands (ev):

   -60.5192 -60.5192 -30.7724 -30.7724 -30.3996 -30.3996 -30.3539 -30.3539
    -6.3273  -6.3273  -5.5366  -5.5366   5.5535   5.5535   6.2130   6.2130
     7.5671   7.5671   8.2527   8.2527   8.5760   8.5760  10.2021  10.2021
    12.2365  12.2365  12.7466  12.7466

          k = 0.1663-0.4989 0.3600 (  9402 PWs)   bands (ev):

   -60.5157 -60.5157 -30.7688 -30.7688 -30.4603 -30.4603 -30.3435 -30.3435
    -6.1047  -6.1047  -5.6499  -5.6499   5.8315   5.8315   6.2944   6.2944
     7.1535   7.1535   8.3621   8.3621   8.7484   8.7484  10.0347  10.0347
    12.1919  12.1919  12.8206  12.8206

          k = 0.1663-0.4989 0.5400 (  9410 PWs)   bands (ev):

   -60.5123 -60.5123 -30.7656 -30.7656 -30.5198 -30.5198 -30.3332 -30.3332
    -6.0278  -6.0278  -5.6015  -5.6015   5.8197   5.8197   6.2572   6.2572
     7.2584   7.2584   8.4605   8.4605   8.9498   8.9498  10.0993  10.0993
    11.7974  11.7974  12.5840  12.5840

          k = 0.1663-0.4989-0.7200 (  9392 PWs)   bands (ev):

   -60.5108 -60.5108 -30.7644 -30.7644 -30.5441 -30.5441 -30.3289 -30.3289
    -6.0560  -6.0560  -5.5163  -5.5163   5.6509   5.6509   6.2794   6.2794
     7.5752   7.5752   8.3329   8.3329   9.0929   9.0929  10.2244  10.2244
    11.5366  11.5366  12.3938  12.3938

          k = 0.3326 0.3326 0.0000 (  9415 PWs)   bands (ev):

   -60.5214 -60.5198 -30.7768 -30.7743 -30.3767 -30.3709 -30.3586 -30.3558
    -6.6536  -6.3124  -5.5037  -5.2749   4.6683   5.4075   6.1439   6.2585
     7.2080   7.9233   8.5808   8.9035   9.2455   9.5547   9.5647  10.3913
    11.6300  11.6605  12.3880  12.4145

          k = 0.3326 0.3326 0.1800 (  9419 PWs)   bands (ev):

   -60.5199 -60.5184 -30.7746 -30.7727 -30.4022 -30.3968 -30.3539 -30.3520
    -6.5423  -6.2139  -5.5660  -5.3499   4.8444   5.5658   6.0665   6.2014
     7.4619   8.1106   8.2322   8.6936   8.9495   9.6059   9.7087   9.9536
    11.8159  11.9613  12.4171  12.7207

          k = 0.3326 0.3326 0.3600 (  9396 PWs)   bands (ev):

   -60.5163 -60.5152 -30.7692 -30.7690 -30.4627 -30.4583 -30.3436 -30.3428
    -6.2693  -5.9997  -5.6814  -5.5267   5.3083   5.8363   6.0240   6.2817
     7.2148   7.9558   7.9844   8.6904   8.8997   9.2882   9.5706  10.1432
    12.0185  12.1908  12.6568  12.8790

          k = 0.3326 0.3326 0.5400 (  9396 PWs)   bands (ev):

   -60.5126 -60.5120 -30.7657 -30.7639 -30.5224 -30.5188 -30.3335 -30.3332
    -6.0465  -5.9034  -5.6979  -5.6041   5.7919   5.8803   6.0981   6.2678
     6.9058   7.5070   8.3256   8.5107   8.8100   9.3748   9.8216  10.3953
    11.7436  12.3714  12.5781  12.8313

          k = 0.3326 0.3326-0.7200 (  9398 PWs)   bands (ev):

   -60.5108 -60.5108 -30.7645 -30.7617 -30.5470 -30.5434 -30.3296 -30.3290
    -6.0561  -5.8123  -5.7673  -5.5133   5.6451   6.1597   6.1737   6.2748
     6.6308   7.7733   8.1951   8.2707   9.0813   9.4919   9.9678  10.3288
    11.6836  12.3834  12.3997  12.5893

          k = 0.3326-0.4989 0.0000 (  9442 PWs)   bands (ev):

   -60.5206 -60.5206 -30.7762 -30.7762 -30.3738 -30.3738 -30.3567 -30.3567
    -6.5032  -6.5032  -5.3620  -5.3620   4.8752   4.8752   6.1685   6.1685
     7.8672   7.8672   8.8883   8.8883   9.3126   9.3126   9.8151   9.8151
    11.9379  11.9379  11.9586  11.9586

          k = 0.3326-0.4989 0.1800 (  9420 PWs)   bands (ev):

   -60.5192 -60.5192 -30.7742 -30.7742 -30.3994 -30.3994 -30.3527 -30.3527
    -6.3985  -6.3985  -5.4312  -5.4312   5.0432   5.0432   6.1059   6.1059
     8.0400   8.0400   8.7445   8.7445   9.1046   9.1046   9.6695   9.6695
    12.0335  12.0335  12.3006  12.3006

          k = 0.3326-0.4989 0.3600 (  9400 PWs)   bands (ev):

   -60.5157 -60.5157 -30.7694 -30.7694 -30.4605 -30.4605 -30.3431 -30.3431
    -6.1484  -6.1484  -5.5858  -5.5858   5.4608   5.4608   6.0706   6.0706
     7.6728   7.6728   8.6053   8.6053   9.0780   9.0780   9.7095   9.7095
    12.3473  12.3473  12.5367  12.5367

          k = 0.3326-0.4989 0.5400 (  9402 PWs)   bands (ev):

   -60.5123 -60.5123 -30.7647 -30.7647 -30.5209 -30.5209 -30.3335 -30.3335
    -5.9533  -5.9533  -5.6706  -5.6706   5.8187   5.8187   6.1385   6.1385
     7.1506   7.1506   8.4383   8.4383   9.1387   9.1387  10.1995  10.1995
    12.2505  12.2505  12.4633  12.4633

          k = 0.3326-0.4989-0.7200 (  9380 PWs)   bands (ev):

   -60.5108 -60.5108 -30.7628 -30.7628 -30.5456 -30.5456 -30.3295 -30.3295
    -5.9425  -5.9425  -5.6310  -5.6310   5.8644   5.8644   6.2014   6.2014
     7.0888   7.0888   8.2313   8.2313   9.3326   9.3326  10.3819  10.3819
    12.0732  12.0732  12.3985  12.3985

          k =-0.4989-0.4989 0.0000 (  9432 PWs)   bands (ev):

   -60.5206 -60.5206 -30.7773 -30.7773 -30.3738 -30.3738 -30.3558 -30.3558
    -6.5354  -6.5354  -5.3096  -5.3096   4.6712   4.6712   6.1221   6.1221
     8.4348   8.4348   8.5116   8.5116   9.5382   9.5382  10.1144  10.1144
    11.5979  11.5979  11.6703  11.6703

          k =-0.4989-0.4989 0.1800 (  9416 PWs)   bands (ev):

   -60.5192 -60.5192 -30.7751 -30.7751 -30.3994 -30.3994 -30.3520 -30.3520
    -6.4291  -6.4291  -5.3832  -5.3832   4.8472   4.8472   6.0542   6.0542
     8.6136   8.6136   8.7098   8.7098   8.9716   8.9716   9.7904   9.7904
    11.8990  11.8990  12.0198  12.0198

          k =-0.4989-0.4989 0.3600 (  9388 PWs)   bands (ev):

   -60.5157 -60.5157 -30.7696 -30.7696 -30.4607 -30.4607 -30.3429 -30.3429
    -6.1670  -6.1670  -5.5568  -5.5568   5.3110   5.3110   5.9899   5.9899
     7.9683   7.9683   8.8196   8.8196   8.8889   8.8889   9.7376   9.7376
    12.2573  12.2573  12.5949  12.5949

          k =-0.4989-0.4989 0.5400 (  9416 PWs)   bands (ev):

   -60.5123 -60.5123 -30.7642 -30.7642 -30.5214 -30.5214 -30.3337 -30.3337
    -5.8959  -5.8959  -5.7252  -5.7252   5.8573   5.8573   6.0198   6.0198
     7.1484   7.1484   8.3986   8.3986   9.2256   9.2256  10.2597  10.2597
    12.3906  12.3906  12.7031  12.7031

          k =-0.4989-0.4989-0.7200 (  9368 PWs)   bands (ev):

   -60.5108 -60.5108 -30.7620 -30.7620 -30.5463 -30.5463 -30.3298 -30.3298
    -5.7935  -5.7935  -5.7806  -5.7806   6.0563   6.0563   6.1407   6.1407
     6.8067   6.8067   8.2082   8.2082   9.3942   9.3942  10.4838  10.4838
    12.3991  12.3991  12.4739  12.4739

     highest occupied level (ev):    13.5861

!    total energy              =    -505.05558386 Ry
     estimated scf accuracy    <          2.3E-09 Ry

     The total energy is the sum of the following terms:
     one-electron contribution =    -165.66682875 Ry
     hartree contribution      =     113.16762824 Ry
     xc contribution           =     -67.43812584 Ry
     ewald contribution        =    -385.03903759 Ry
     DFT-D3 Dispersion         =      -0.07921991 Ry

     convergence has been achieved in  29 iterations

     Forces acting on atoms (cartesian axes, Ry/au):

     atom    1 type  1   force =     0.00000000    0.00000000    0.00000000
     atom    2 type  1   force =     0.00000000    0.00000000    0.00000000
     atom    3 type  2   force =     0.00233870    0.00233870    0.00000000
     atom    4 type  2   force =    -0.00233870   -0.00233870    0.00000000
     atom    5 type  2   force =     0.00233870   -0.00233870    0.00000000
     atom    6 type  2   force =    -0.00233870    0.00233870    0.00000000

     Total force =     0.006615     Total SCF correction =     0.000035


     Computing stress (Cartesian axis) and pressure

          total   stress  (Ry/bohr**3)                   (kbar)     P=        1.69
  -0.00000178   0.00000000   0.00000000           -0.26        0.00        0.00
   0.00000000  -0.00000178   0.00000000            0.00       -0.26        0.00
   0.00000000   0.00000000   0.00003796            0.00        0.00        5.58

     Energy error            =      6.4E-05 Ry
     Gradient error          =      2.3E-03 Ry/Bohr
     Cell gradient error     =      5.6E+00 kbar

     number of scf cycles    =   4
     number of bfgs steps    =   3

     enthalpy           old  =    -505.0555197856 Ry
     enthalpy           new  =    -505.0555838556 Ry

     CASE: enthalpy          _new < enthalpy          _old


     WARNING: bfgs curvature condition failed, Theta= 0.797
     new trust radius        =       0.0092572800 bohr
     new conv_thr            =       0.0000000100 Ry

     new unit-cell volume =    427.27231 a.u.^3 (    63.31522 Ang^3 )
     density =      6.97983 g/cm^3

CELL_PARAMETERS (angstrom)
   4.502710329   0.000000000   0.000000000
   0.000000000   4.502710329   0.000000000
   0.000000000   0.000000000   3.122914794

ATOMIC_POSITIONS (angstrom)
Ru            0.0000000000        0.0000000000       -0.0000000000
Ru            2.2513551645        2.2513551645        1.5614573969
O             1.3839068268        1.3839068268        0.0000000000
O             3.1188035021        3.1188035021        0.0000000000
O             3.6352619913        0.8674483376        1.5614573969
O             0.8674483376        3.6352619913        1.5614573969



     Writing config-only to output data dir ./pwscf.save/
     NEW-OLD atomic charge density approx. for the potential
     extrapolated charge   55.89383, renormalised to   56.00000

     total cpu time spent up to now is       60.1 secs

     per-process dynamical memory:   144.4 Mb

     Self-consistent Calculation

     iteration #  1     ecut=   120.00 Ry     beta= 0.70
     Davidson diagonalization with overlap
     ethr =  1.00E-06,  avg # of iterations =  6.9

     total cpu time spent up to now is       60.9 secs

     total energy              =    -505.05443817 Ry
     estimated scf accuracy    <       0.00092054 Ry

     iteration #  2     ecut=   120.00 Ry     beta= 0.70
     Davidson diagonalization with overlap
     ethr =  1.64E-06,  avg # of iterations =  6.1

     total cpu time spent up to now is       61.7 secs

     total energy              =    -505.05518979 Ry
     estimated scf accuracy    <       0.00507074 Ry

     iteration #  3     ecut=   120.00 Ry     beta= 0.70
     Davidson diagonalization with overlap
     ethr =  1.64E-06,  avg # of iterations =  5.2

     total cpu time spent up to now is       62.2 secs

     total energy              =    -505.05562452 Ry
     estimated scf accuracy    <       0.00043652 Ry

     iteration #  4     ecut=   120.00 Ry     beta= 0.70
     Davidson diagonalization with overlap
     ethr =  7.79E-07,  avg # of iterations =  2.0

     total cpu time spent up to now is       62.6 secs

     total energy              =    -505.05555031 Ry
     estimated scf accuracy    <       0.00019855 Ry

     iteration #  5     ecut=   120.00 Ry     beta= 0.70
     Davidson diagonalization with overlap
     ethr =  3.55E-07,  avg # of iterations =  4.6

     total cpu time spent up to now is       63.2 secs

     total energy              =    -505.05562151 Ry
     estimated scf accuracy    <       0.00000737 Ry

     iteration #  6     ecut=   120.00 Ry     beta= 0.70
     Davidson diagonalization with overlap
     ethr =  1.32E-08,  avg # of iterations =  5.3

     total cpu time spent up to now is       63.7 secs

     total energy              =    -505.05562571 Ry
     estimated scf accuracy    <       0.00001301 Ry

     iteration #  7     ecut=   120.00 Ry     beta= 0.70
     Davidson diagonalization with overlap
     ethr =  1.32E-08,  avg # of iterations =  1.0

     total cpu time spent up to now is       64.1 secs

     total energy              =    -505.05563006 Ry
     estimated scf accuracy    <       0.00001317 Ry

     iteration #  8     ecut=   120.00 Ry     beta= 0.70
     Davidson diagonalization with overlap
     ethr =  1.32E-08,  avg # of iterations =  2.9

     total cpu time spent up to now is       64.6 secs

     total energy              =    -505.05561471 Ry
     estimated scf accuracy    <       0.00003283 Ry

     iteration #  9     ecut=   120.00 Ry     beta= 0.70
     Davidson diagonalization with overlap
     ethr =  1.32E-08,  avg # of iterations =  5.7

     total cpu time spent up to now is       65.2 secs

     total energy              =    -505.05562428 Ry
     estimated scf accuracy    <       0.00000436 Ry

     iteration # 10     ecut=   120.00 Ry     beta= 0.70
     Davidson diagonalization with overlap
     ethr =  7.78E-09,  avg # of iterations =  1.3

     total cpu time spent up to now is       65.6 secs

     total energy              =    -505.05562269 Ry
     estimated scf accuracy    <       0.00000573 Ry

     iteration # 11     ecut=   120.00 Ry     beta= 0.70
     Davidson diagonalization with overlap
     ethr =  7.78E-09,  avg # of iterations =  1.9

     total cpu time spent up to now is       66.0 secs

     total energy              =    -505.05562249 Ry
     estimated scf accuracy    <       0.00000180 Ry

     iteration # 12     ecut=   120.00 Ry     beta= 0.70
     Davidson diagonalization with overlap
     ethr =  3.21E-09,  avg # of iterations =  4.7

     total cpu time spent up to now is       66.5 secs

     total energy              =    -505.05562290 Ry
     estimated scf accuracy    <       0.00000005 Ry

     iteration # 13     ecut=   120.00 Ry     beta= 0.70
     Davidson diagonalization with overlap
     ethr =  8.39E-11,  avg # of iterations =  4.8

     total cpu time spent up to now is       67.0 secs

     total energy              =    -505.05562289 Ry
     estimated scf accuracy    <       0.00000007 Ry

     iteration # 14     ecut=   120.00 Ry     beta= 0.70
     Davidson diagonalization with overlap
     ethr =  8.39E-11,  avg # of iterations =  6.0

     total cpu time spent up to now is       67.7 secs

     total energy              =    -505.05562289 Ry
     estimated scf accuracy    <       0.00000025 Ry

     iteration # 15     ecut=   120.00 Ry     beta= 0.70
     Davidson diagonalization with overlap
     ethr =  8.39E-11,  avg # of iterations =  3.2

     total cpu time spent up to now is       68.2 secs

     total energy              =    -505.05562288 Ry
     estimated scf accuracy    <       0.00000010 Ry

     iteration # 16     ecut=   120.00 Ry     beta= 0.70
     Davidson diagonalization with overlap
     ethr =  8.39E-11,  avg # of iterations =  5.0

     total cpu time spent up to now is       68.7 secs

     End of self-consistent calculation

          k = 0.0000 0.0000 0.0000 (  9357 PWs)   bands (ev):

   -60.4848 -60.4783 -30.7317 -30.7317 -30.3560 -30.3325 -30.3159 -30.3159
    -7.1291  -6.1088  -5.1299  -5.1299   4.6232   4.7424   5.9143   6.2104
     6.2104   8.7898   8.8493   8.8493  10.2513  10.7284  10.7284  11.2216
    11.5166  11.6296  11.6665  11.6665

          k = 0.0000 0.0000 0.1800 (  9385 PWs)   bands (ev):

   -60.4831 -60.4771 -30.7296 -30.7296 -30.3809 -30.3593 -30.3120 -30.3120
    -6.9937  -6.0344  -5.2114  -5.2114   4.7769   4.9495   6.0759   6.2790
     6.2790   8.3336   8.9994   8.9994   9.5445  10.1270  10.1270  11.0627
    11.6164  11.9862  12.2291  12.2628

          k = 0.0000 0.0000 0.3600 (  9424 PWs)   bands (ev):

   -60.4789 -60.4743 -30.7245 -30.7245 -30.4401 -30.4239 -30.3025 -30.3025
    -6.6397  -5.8724  -5.4027  -5.4027   5.1658   5.4828   6.4875   6.4875
     6.5505   7.4700   8.4852   9.1215   9.1215   9.5113   9.5113  10.3644
    11.8777  12.2052  12.4757  13.0568

          k = 0.0000 0.0000 0.5400 (  9388 PWs)   bands (ev):

   -60.4744 -60.4719 -30.7194 -30.7194 -30.4976 -30.4890 -30.2929 -30.2929
    -6.2081  -5.7727  -5.5866  -5.5866   5.5757   5.9312   6.7944   6.7944
     6.9859   7.3045   7.6906   8.5351   8.5351   9.3505   9.6889   9.6889
    12.1703  12.3630  12.5841  13.6188

          k = 0.0000 0.0000-0.7200 (  9420 PWs)   bands (ev):

   -60.4717 -60.4717 -30.7173 -30.7173 -30.5185 -30.5185 -30.2889 -30.2889
    -5.8779  -5.8779  -5.6608  -5.6608   5.8288   5.8288   6.9877   6.9877
     7.2415   7.2415   8.2283   8.2283   8.2740   8.2740   9.7744   9.7744
    12.3388  12.3388  12.9739  12.9739

          k = 0.0000 0.1664 0.0000 (  9383 PWs)   bands (ev):

   -60.4843 -60.4787 -30.7311 -30.7311 -30.3544 -30.3341 -30.3169 -30.3168
    -7.0286  -6.0876  -5.2535  -5.1906   4.8203   4.9708   6.1016   6.2319
     6.2439   8.4896   8.6120   8.7141   9.8618  10.0617  10.3948  11.1072
    11.8076  11.8807  12.0275  12.0342

          k = 0.0000 0.1664 0.1800 (  9389 PWs)   bands (ev):

   -60.4827 -60.4775 -30.7292 -30.7291 -30.3794 -30.3609 -30.3127 -30.3126
    -6.8983  -6.0090  -5.3291  -5.2666   4.9699   5.1540   6.1299   6.2878
     6.4612   8.1815   8.5592   8.8185   9.2543   9.9574  10.0321  10.9851
    11.6784  12.2135  12.2350  12.5318

          k = 0.0000 0.1664 0.3600 (  9393 PWs)   bands (ev):

   -60.4786 -60.4746 -30.7246 -30.7245 -30.4388 -30.4249 -30.3028 -30.3027
    -6.5637  -5.8461  -5.4939  -5.4402   5.3358   5.6038   6.3373   6.4757
     6.9662   7.3459   7.9784   9.1295   9.2190   9.3612   9.3691  10.5381
    11.6604  12.4546  12.6251  12.9045

          k = 0.0000 0.1664 0.5400 (  9414 PWs)   bands (ev):

   -60.4742 -60.4721 -30.7202 -30.7202 -30.4963 -30.4890 -30.2929 -30.2929
    -6.1829  -5.8244  -5.5833  -5.5636   5.6713   5.9803   6.3281   6.6744
     7.2782   7.4547   7.7360   8.5628   8.7239   9.4603   9.5159   9.6762
    12.0882  12.3043  12.6198  13.1012

          k = 0.0000 0.1664-0.7200 (  9416 PWs)   bands (ev):

   -60.4717 -60.4717 -30.7185 -30.7185 -30.5176 -30.5176 -30.2888 -30.2888
    -5.9466  -5.9466  -5.5866  -5.5866   5.8307   5.8307   6.5360   6.5360
     7.6126   7.6126   8.2401   8.2401   8.6494   8.6494   9.6107   9.6107
    12.3577  12.3577  12.6480  12.6480

          k = 0.0000 0.3329 0.0000 (  9404 PWs)   bands (ev):

   -60.4832 -60.4799 -30.7299 -30.7298 -30.3501 -30.3384 -30.3188 -30.3187
    -6.7492  -6.1017  -5.4889  -5.3423   5.3366   5.5016   6.2840   6.3072
     6.6819   7.8001   7.9077   8.6424   8.8792   9.2491  10.2375  10.8013
    12.2460  12.3321  12.5260  12.6782

          k = 0.0000 0.3329 0.1800 (  9414 PWs)   bands (ev):

   -60.4816 -60.4786 -30.7284 -30.7283 -30.3754 -30.3649 -30.3141 -30.3140
    -6.6324  -6.0028  -5.5630  -5.4065   5.4866   5.6488   6.2569   6.2902
     6.9305   7.8763   8.0735   8.1125   8.5040   9.2804  10.2186  10.7437
    12.1208  12.3475  12.5863  12.8892

          k = 0.0000 0.3329 0.3600 (  9413 PWs)   bands (ev):

   -60.4778 -60.4755 -30.7249 -30.7248 -30.4353 -30.4275 -30.3035 -30.3034
    -6.3519  -5.7732  -5.7337  -5.5374   5.7849   5.9100   6.3746   6.4563
     7.1009   7.2804   7.6510   8.4885   8.6329   9.2771   9.8322  10.5212
    11.7103  12.5656  12.8637  12.8660

          k = 0.0000 0.3329 0.5400 (  9411 PWs)   bands (ev):

   -60.4738 -60.4725 -30.7219 -30.7217 -30.4934 -30.4893 -30.2930 -30.2929
    -6.1160  -5.9234  -5.5710  -5.5441   5.8368   5.9515   6.1570   6.4592
     7.2538   7.5970   8.0281   8.7929   8.8652   9.0285   9.4755  10.2129
    11.5530  12.3655  12.5511  12.6798

          k = 0.0000 0.3329-0.7200 (  9406 PWs)   bands (ev):

   -60.4717 -60.4717 -30.7208 -30.7208 -30.5158 -30.5158 -30.2886 -30.2886
    -6.0331  -6.0331  -5.4890  -5.4890   5.7011   5.7011   6.3526   6.3526
     7.8000   7.8000   8.3541   8.3541   9.1223   9.1223   9.5962   9.5962
    11.9110  11.9110  12.3984  12.3984

          k = 0.0000-0.4993 0.0000 (  9410 PWs)   bands (ev):

   -60.4815 -60.4815 -30.7292 -30.7292 -30.3442 -30.3442 -30.3197 -30.3197
    -6.3707  -6.3707  -5.5000  -5.5000   5.7944   5.7944   6.3257   6.3257
     7.3937   7.3937   7.6615   7.6615   8.8019   8.8019  10.4472  10.4472
    12.5691  12.5691  12.6455  12.6455

          k = 0.0000-0.4993 0.1800 (  9400 PWs)   bands (ev):

   -60.4801 -60.4801 -30.7279 -30.7279 -30.3702 -30.3702 -30.3148 -30.3148
    -6.2665  -6.2665  -5.5607  -5.5607   6.0072   6.0072   6.2147   6.2147
     7.4133   7.4133   7.8279   7.8279   8.4599   8.4599  10.4981  10.4981
    12.3641  12.3641  12.9540  12.9540

          k = 0.0000-0.4993 0.3600 (  9414 PWs)   bands (ev):

   -60.4766 -60.4766 -30.7250 -30.7250 -30.4311 -30.4311 -30.3038 -30.3038
    -6.0516  -6.0516  -5.6594  -5.6594   6.1427   6.1427   6.4945   6.4945
     6.8541   6.8541   8.1387   8.1387   8.6619   8.6619  10.2329  10.2329
    12.1647  12.1647  13.0009  13.0009

          k = 0.0000-0.4993 0.5400 (  9404 PWs)   bands (ev):

   -60.4731 -60.4731 -30.7226 -30.7226 -30.4907 -30.4907 -30.2930 -30.2930
    -6.0252  -6.0252  -5.5522  -5.5522   5.8633   5.8633   6.3168   6.3168
     7.4277   7.4277   8.3793   8.3793   8.9490   8.9490  10.0648  10.0648
    11.6660  11.6660  12.6737  12.6737

          k = 0.0000-0.4993-0.7200 (  9412 PWs)   bands (ev):

   -60.4717 -60.4717 -30.7219 -30.7219 -30.5149 -30.5149 -30.2885 -30.2885
    -6.0664  -6.0664  -5.4500  -5.4500   5.5927   5.5927   6.3746   6.3746
     7.8383   7.8383   8.6252   8.6252   8.7508   8.7508  10.2093  10.2093
    11.3281  11.3281  12.4108  12.4108

          k = 0.1664 0.1664 0.0000 (  9379 PWs)   bands (ev):

   -60.4840 -60.4791 -30.7322 -30.7296 -30.3530 -30.3355 -30.3188 -30.3159
    -6.9473  -6.0766  -5.4049  -5.1669   4.6784   5.4519   6.1885   6.2750
     6.3089   7.8818   8.6570   8.7678   9.7937   9.8250  10.2493  10.9961
    11.6749  11.6838  12.3649  12.4454

          k = 0.1664 0.1664 0.1800 (  9392 PWs)   bands (ev):

   -60.4823 -60.4778 -30.7300 -30.7281 -30.3782 -30.3621 -30.3140 -30.3120
    -6.8208  -5.9910  -5.4738  -5.2468   4.8535   5.5902   6.1000   6.3761
     6.5817   7.9344   8.2101   8.9016   9.0554   9.9799  10.0559  10.8052
    11.6998  11.9181  12.4948  12.6637

          k = 0.1664 0.1664 0.3600 (  9397 PWs)   bands (ev):

   -60.4783 -60.4749 -30.7248 -30.7246 -30.4378 -30.4256 -30.3034 -30.3026
    -6.4999  -5.8183  -5.6056  -5.4344   5.3034   5.8600   6.1901   6.6492
     7.1137   7.1304   8.0510   8.5743   9.0131   9.4730   9.7262  10.6221
    11.5541  12.2921  12.7866  12.9924

          k = 0.1664 0.1664 0.5400 (  9414 PWs)   bands (ev):

   -60.4741 -60.4722 -30.7216 -30.7197 -30.4959 -30.4888 -30.2931 -30.2928
    -6.1573  -5.8410  -5.6152  -5.5395   5.7245   6.0593   6.2272   6.4166
     7.2401   7.6770   7.8637   8.5083   8.7690   9.3123   9.5857   9.8941
    11.8955  12.3361  12.6576  13.1723

          k = 0.1664 0.1664-0.7200 (  9430 PWs)   bands (ev):

   -60.4717 -60.4717 -30.7206 -30.7175 -30.5191 -30.5152 -30.2891 -30.2885
    -6.0411  -5.8457  -5.6882  -5.4833   5.6905   6.0320   6.3325   6.5600
     6.9841   8.2245   8.2776   8.5362   8.5523   9.0953   9.1898   9.7491
    12.2242  12.3614  12.3845  12.8521

          k = 0.1664 0.3329 0.0000 (  9397 PWs)   bands (ev):

   -60.4829 -60.4801 -30.7319 -30.7292 -30.3493 -30.3392 -30.3197 -30.3169
    -6.7225  -6.1450  -5.5321  -5.2671   4.8885   5.8375   6.2027   6.3267
     6.8078   7.4401   8.3488   8.6850   9.2609   9.4283   9.9128  10.6443
    11.9505  12.0110  12.6575  12.6617

          k = 0.1664 0.3329 0.1800 (  9395 PWs)   bands (ev):

   -60.4814 -60.4788 -30.7299 -30.7279 -30.3748 -30.3655 -30.3148 -30.3127
    -6.6062  -6.0441  -5.6008  -5.3399   5.0564   6.0466   6.1407   6.2217
     7.0540   7.7212   7.9450   8.4306   8.9629   9.4503   9.9858  10.4952
    12.0133  12.1360  12.5892  12.9852

          k = 0.1664 0.3329 0.3600 (  9395 PWs)   bands (ev):

   -60.4776 -60.4756 -30.7252 -30.7249 -30.4350 -30.4279 -30.3038 -30.3029
    -6.3241  -5.8224  -5.7370  -5.5035   5.4754   6.1212   6.1823   6.5573
     6.8904   7.5844   7.8147   8.3294   9.0326   9.1965   9.7989  10.4412
    11.7563  12.4100  12.7086  13.0652

          k = 0.1664 0.3329 0.5400 (  9408 PWs)   bands (ev):

   -60.4737 -60.4726 -30.7226 -30.7206 -30.4940 -30.4893 -30.2932 -30.2930
    -6.0888  -5.9030  -5.6153  -5.5432   5.8190   5.9449   6.2262   6.3288
     7.0481   7.7048   8.1831   8.6227   8.7152   9.2917   9.6153  10.3115
    11.5649  12.4298  12.5668  12.6985

          k = 0.1664 0.3329-0.7200 (  9416 PWs)   bands (ev):

   -60.4717 -60.4717 -30.7219 -30.7188 -30.5181 -30.5143 -30.2891 -30.2885
    -6.0700  -5.9227  -5.6031  -5.4463   5.6077   5.9529   6.2654   6.3693
     7.1024   8.1083   8.3053   8.5673   8.7619   9.4545   9.5631   9.9475
    11.7065  12.2932  12.3923  12.4123

          k = 0.1664-0.4993 0.0000 (  9404 PWs)   bands (ev):

   -60.4815 -60.4815 -30.7304 -30.7304 -30.3442 -30.3442 -30.3187 -30.3187
    -6.4132  -6.4132  -5.4378  -5.4378   5.4123   5.4123   6.2694   6.2694
     7.4923   7.4923   8.2412   8.2412   8.9694   8.9694  10.1885  10.1885
    12.4286  12.4286  12.4287  12.4287

          k = 0.1664-0.4993 0.1800 (  9408 PWs)   bands (ev):

   -60.4801 -60.4801 -30.7288 -30.7288 -30.3701 -30.3701 -30.3141 -30.3141
    -6.3088  -6.3088  -5.5014  -5.5014   5.5724   5.5724   6.2212   6.2212
     7.5966   7.5966   8.2959   8.2959   8.6090   8.6090  10.2277  10.2277
    12.2775  12.2775  12.7921  12.7921

          k = 0.1664-0.4993 0.3600 (  9402 PWs)   bands (ev):

   -60.4766 -60.4766 -30.7252 -30.7252 -30.4313 -30.4313 -30.3036 -30.3036
    -6.0792  -6.0792  -5.6215  -5.6215   5.8626   5.8626   6.3107   6.3107
     7.1774   7.1774   8.4016   8.4016   8.7822   8.7822  10.0547  10.0547
    12.2361  12.2361  12.8634  12.8634

          k = 0.1664-0.4993 0.5400 (  9410 PWs)   bands (ev):

   -60.4731 -60.4731 -30.7221 -30.7221 -30.4913 -30.4913 -30.2931 -30.2931
    -5.9963  -5.9963  -5.5782  -5.5782   5.8466   5.8466   6.2966   6.2966
     7.2804   7.2804   8.4942   8.4942   8.9836   8.9836  10.1222  10.1222
    11.8344  11.8344  12.6127  12.6127

          k = 0.1664-0.4993-0.7200 (  9392 PWs)   bands (ev):

   -60.4717 -60.4717 -30.7210 -30.7210 -30.5157 -30.5157 -30.2888 -30.2888
    -6.0252  -6.0252  -5.4916  -5.4916   5.6721   5.6721   6.3298   6.3298
     7.6039   7.6039   8.3570   8.3570   9.1294   9.1294  10.2527  10.2527
    11.5674  11.5674  12.4136  12.4136

          k = 0.3329 0.3329 0.0000 (  9415 PWs)   bands (ev):

   -60.4823 -60.4807 -30.7333 -30.7307 -30.3471 -30.3413 -30.3187 -30.3159
    -6.6358  -6.2966  -5.4657  -5.2387   4.6892   5.4243   6.1447   6.2569
     7.2397   7.9669   8.6170   8.9358   9.2769   9.5888   9.5915  10.4357
    11.6832  11.6929  12.4374  12.4465

          k = 0.3329 0.3329 0.1800 (  9419 PWs)   bands (ev):

   -60.4808 -60.4793 -30.7310 -30.7291 -30.3728 -30.3673 -30.3141 -30.3121
    -6.5227  -6.1960  -5.5303  -5.3155   4.8661   5.5854   6.0756   6.2087
     7.4921   8.1341   8.2765   8.7286   8.9754   9.6352   9.7473   9.9886
    11.8638  12.0024  12.4610  12.7641

          k = 0.3329 0.3329 0.3600 (  9396 PWs)   bands (ev):

   -60.4772 -60.4760 -30.7256 -30.7254 -30.4339 -30.4294 -30.3036 -30.3028
    -6.2449  -5.9745  -5.6531  -5.4963   5.3331   5.8672   6.0434   6.2974
     7.2399   7.9791   8.0180   8.7286   8.9327   9.3372   9.5873  10.1695
    12.0611  12.2336  12.7063  12.9168

          k = 0.3329 0.3329 0.5400 (  9396 PWs)   bands (ev):

   -60.4734 -60.4728 -30.7222 -30.7203 -30.4941 -30.4903 -30.2934 -30.2932
    -6.0157  -5.8740  -5.6711  -5.5809   5.8199   5.9078   6.1222   6.3087
     6.9294   7.5243   8.3701   8.5427   8.8524   9.4173   9.8370  10.4263
    11.7737  12.3983  12.6081  12.8596

          k = 0.3329 0.3329-0.7200 (  9398 PWs)   bands (ev):

   -60.4717 -60.4717 -30.7211 -30.7181 -30.5189 -30.5151 -30.2895 -30.2889
    -6.0256  -5.7817  -5.7418  -5.4884   5.6657   6.1841   6.2081   6.3263
     6.6510   7.7959   8.2464   8.2964   9.1271   9.5345   9.9844  10.3616
    11.7075  12.4004  12.4190  12.6135

          k = 0.3329-0.4993 0.0000 (  9442 PWs)   bands (ev):

   -60.4815 -60.4815 -30.7327 -30.7327 -30.3442 -30.3442 -30.3168 -30.3168
    -6.4857  -6.4857  -5.3255  -5.3255   4.8958   4.8958   6.1687   6.1687
     7.8978   7.8978   8.9248   8.9248   9.3415   9.3415   9.8579   9.8579
    11.9667  11.9667  12.0143  12.0143

          k = 0.3329-0.4993 0.1800 (  9420 PWs)   bands (ev):

   -60.4801 -60.4801 -30.7306 -30.7306 -30.3700 -30.3700 -30.3127 -30.3127
    -6.3792  -6.3792  -5.3966  -5.3966   5.0650   5.0650   6.1137   6.1137
     8.0676   8.0676   8.7744   8.7744   9.1425   9.1425   9.7052   9.7052
    12.0757  12.0757  12.3468  12.3468

          k = 0.3329-0.4993 0.3600 (  9400 PWs)   bands (ev):

   -60.4766 -60.4766 -30.7258 -30.7258 -30.4317 -30.4317 -30.3031 -30.3031
    -6.1239  -6.1239  -5.5560  -5.5560   5.4873   5.4873   6.0884   6.0884
     7.6974   7.6974   8.6399   8.6399   9.1213   9.1213   9.7316   9.7316
    12.3918  12.3918  12.5794  12.5794

          k = 0.3329-0.4993 0.5400 (  9402 PWs)   bands (ev):

   -60.4731 -60.4731 -30.7211 -30.7211 -30.4925 -30.4925 -30.2934 -30.2934
    -5.9232  -5.9232  -5.6454  -5.6454   5.8476   5.8476   6.1657   6.1657
     7.1743   7.1743   8.4780   8.4780   9.1818   9.1818  10.2215  10.2215
    12.2852  12.2852  12.4910  12.4910

          k = 0.3329-0.4993-0.7200 (  9380 PWs)   bands (ev):

   -60.4717 -60.4717 -30.7192 -30.7192 -30.5174 -30.5174 -30.2894 -30.2894
    -5.9129  -5.9129  -5.6047  -5.6047   5.8862   5.8862   6.2412   6.2412
     7.1110   7.1110   8.2736   8.2736   9.3780   9.3780  10.4049  10.4049
    12.1020  12.1020  12.4168  12.4168

          k =-0.4993-0.4993 0.0000 (  9432 PWs)   bands (ev):

   -60.4815 -60.4815 -30.7338 -30.7338 -30.3442 -30.3442 -30.3159 -30.3159
    -6.5174  -6.5174  -5.2735  -5.2735   4.6926   4.6926   6.1230   6.1230
     8.4554   8.4554   8.5493   8.5493   9.5645   9.5645  10.1679  10.1679
    11.6516  11.6516  11.7025  11.7025

          k =-0.4993-0.4993 0.1800 (  9416 PWs)   bands (ev):

   -60.4801 -60.4801 -30.7315 -30.7315 -30.3700 -30.3700 -30.3121 -30.3121
    -6.4095  -6.4095  -5.3488  -5.3488   4.8694   4.8694   6.0621   6.0621
     8.6521   8.6521   8.7244   8.7244   8.9982   8.9982   9.8427   9.8427
    11.9491  11.9491  12.0583  12.0583

          k =-0.4993-0.4993 0.3600 (  9388 PWs)   bands (ev):

   -60.4766 -60.4766 -30.7260 -30.7260 -30.4319 -30.4319 -30.3029 -30.3029
    -6.1430  -6.1430  -5.5264  -5.5264   5.3360   5.3360   6.0082   6.0082
     7.9924   7.9924   8.8483   8.8483   8.9300   8.9300   9.7726   9.7726
    12.2982  12.2982  12.6414  12.6414

          k =-0.4993-0.4993 0.5400 (  9416 PWs)   bands (ev):

   -60.4731 -60.4731 -30.7206 -30.7206 -30.4931 -30.4931 -30.2936 -30.2936
    -5.8672  -5.8672  -5.6984  -5.6984   5.8873   5.8873   6.0430   6.0430
     7.1693   7.1693   8.4444   8.4444   9.2709   9.2709  10.2825  10.2825
    12.4166  12.4166  12.7295  12.7295

          k =-0.4993-0.4993-0.7200 (  9368 PWs)   bands (ev):

   -60.4717 -60.4717 -30.7183 -30.7183 -30.5183 -30.5183 -30.2897 -30.2897
    -5.7681  -5.7681  -5.7499  -5.7499   6.0801   6.0801   6.1750   6.1750
     6.8249   6.8249   8.2593   8.2593   9.4421   9.4421  10.5049  10.5049
    12.4165  12.4165  12.4968  12.4968

     highest occupied level (ev):    13.6188

!    total energy              =    -505.05562288 Ry
     estimated scf accuracy    <          5.8E-09 Ry

     The total energy is the sum of the following terms:
     one-electron contribution =    -165.37647892 Ry
     hartree contribution      =     113.09550020 Ry
     xc contribution           =     -67.44765271 Ry
     ewald contribution        =    -385.24768405 Ry
     DFT-D3 Dispersion         =      -0.07930740 Ry

     convergence has been achieved in  16 iterations

     Forces acting on atoms (cartesian axes, Ry/au):

     atom    1 type  1   force =     0.00000000    0.00000000    0.00000000
     atom    2 type  1   force =     0.00000000    0.00000000    0.00000000
     atom    3 type  2   force =    -0.00056350   -0.00056350   -0.00000000
     atom    4 type  2   force =     0.00056350    0.00056350   -0.00000000
     atom    5 type  2   force =    -0.00056350    0.00056350    0.00000000
     atom    6 type  2   force =     0.00056350   -0.00056350    0.00000000

     Total force =     0.001594     Total SCF correction =     0.000005


     Computing stress (Cartesian axis) and pressure

          total   stress  (Ry/bohr**3)                   (kbar)     P=        7.12
   0.00002521   0.00000000   0.00000000            3.71        0.00        0.00
   0.00000000   0.00002521   0.00000000            0.00        3.71        0.00
   0.00000000   0.00000000   0.00009478            0.00        0.00       13.94

     Energy error            =      3.9E-05 Ry
     Gradient error          =      5.6E-04 Ry/Bohr
     Cell gradient error     =      1.4E+01 kbar

     number of scf cycles    =   5
     number of bfgs steps    =   4

     enthalpy           old  =    -505.0555838556 Ry
     enthalpy           new  =    -505.0556228843 Ry

     CASE: enthalpy          _new < enthalpy          _old

     new trust radius        =       0.0021004987 bohr
     new conv_thr            =       0.0000000100 Ry

     new unit-cell volume =    427.54999 a.u.^3 (    63.35637 Ang^3 )
     density =      6.97529 g/cm^3

CELL_PARAMETERS (angstrom)
   4.503155251   0.000000000   0.000000000
   0.000000000   4.503155251   0.000000000
   0.000000000   0.000000000   3.124326820

ATOMIC_POSITIONS (angstrom)
Ru            0.0000000000        0.0000000000       -0.0000000000
Ru            2.2515776256        2.2515776256        1.5621634098
O             1.3832575212        1.3832575212       -0.0000000000
O             3.1198977300        3.1198977300       -0.0000000000
O             3.6348351468        0.8683201044        1.5621634098
O             0.8683201044        3.6348351468        1.5621634098



     Writing config-only to output data dir ./pwscf.save/
     NEW-OLD atomic charge density approx. for the potential
     extrapolated charge   56.03629, renormalised to   56.00000

     total cpu time spent up to now is       69.6 secs

     per-process dynamical memory:   144.4 Mb

     Self-consistent Calculation

     iteration #  1     ecut=   120.00 Ry     beta= 0.70
     Davidson diagonalization with overlap
     ethr =  1.00E-06,  avg # of iterations =  3.1

     total cpu time spent up to now is       70.2 secs

     total energy              =    -505.05554890 Ry
     estimated scf accuracy    <       0.00006242 Ry

     iteration #  2     ecut=   120.00 Ry     beta= 0.70
     Davidson diagonalization with overlap
     ethr =  1.11E-07,  avg # of iterations =  5.9

     total cpu time spent up to now is       70.9 secs

     total energy              =    -505.05562472 Ry
     estimated scf accuracy    <       0.00020128 Ry

     iteration #  3     ecut=   120.00 Ry     beta= 0.70
     Davidson diagonalization with overlap
     ethr =  1.11E-07,  avg # of iterations =  4.6

     total cpu time spent up to now is       71.5 secs

     total energy              =    -505.05564268 Ry
     estimated scf accuracy    <       0.00002521 Ry

     iteration #  4     ecut=   120.00 Ry     beta= 0.70
     Davidson diagonalization with overlap
     ethr =  4.50E-08,  avg # of iterations =  1.9

     total cpu time spent up to now is       71.9 secs

     total energy              =    -505.05563802 Ry
     estimated scf accuracy    <       0.00001091 Ry

     iteration #  5     ecut=   120.00 Ry     beta= 0.70
     Davidson diagonalization with overlap
     ethr =  1.95E-08,  avg # of iterations =  3.8

     total cpu time spent up to now is       72.4 secs

     total energy              =    -505.05564131 Ry
     estimated scf accuracy    <       0.00000034 Ry

     iteration #  6     ecut=   120.00 Ry     beta= 0.70
     Davidson diagonalization with overlap
     ethr =  6.04E-10,  avg # of iterations =  7.4

     total cpu time spent up to now is       73.1 secs

     total energy              =    -505.05564206 Ry
     estimated scf accuracy    <       0.00000049 Ry

     iteration #  7     ecut=   120.00 Ry     beta= 0.70
     Davidson diagonalization with overlap
     ethr =  6.04E-10,  avg # of iterations =  2.8

     total cpu time spent up to now is       73.6 secs

     total energy              =    -505.05564201 Ry
     estimated scf accuracy    <       0.00000093 Ry

     iteration #  8     ecut=   120.00 Ry     beta= 0.70
     Davidson diagonalization with overlap
     ethr =  6.04E-10,  avg # of iterations =  1.0

     total cpu time spent up to now is       73.9 secs

     total energy              =    -505.05564142 Ry
     estimated scf accuracy    <       0.00000075 Ry

     iteration #  9     ecut=   120.00 Ry     beta= 0.70
     Davidson diagonalization with overlap
     ethr =  6.04E-10,  avg # of iterations =  7.1

     total cpu time spent up to now is       74.7 secs

     total energy              =    -505.05564160 Ry
     estimated scf accuracy    <       0.00000383 Ry

     iteration # 10     ecut=   120.00 Ry     beta= 0.70
     Davidson diagonalization with overlap
     ethr =  6.04E-10,  avg # of iterations =  5.5

     total cpu time spent up to now is       75.4 secs

     total energy              =    -505.05564189 Ry
     estimated scf accuracy    <       0.00000040 Ry

     iteration # 11     ecut=   120.00 Ry     beta= 0.70
     Davidson diagonalization with overlap
     ethr =  6.04E-10,  avg # of iterations =  1.0

     total cpu time spent up to now is       75.7 secs

     total energy              =    -505.05564187 Ry
     estimated scf accuracy    <       0.00000036 Ry

     iteration # 12     ecut=   120.00 Ry     beta= 0.70
     Davidson diagonalization with overlap
     ethr =  6.04E-10,  avg # of iterations =  1.0

     total cpu time spent up to now is       76.1 secs

     total energy              =    -505.05564173 Ry
     estimated scf accuracy    <       0.00000031 Ry

     iteration # 13     ecut=   120.00 Ry     beta= 0.70
     Davidson diagonalization with overlap
     ethr =  5.59E-10,  avg # of iterations =  4.5

     total cpu time spent up to now is       76.6 secs

     total energy              =    -505.05564182 Ry
     estimated scf accuracy    <       0.00000001 Ry

     iteration # 14     ecut=   120.00 Ry     beta= 0.70
     Davidson diagonalization with overlap
     ethr =  1.93E-11,  avg # of iterations =  7.4

     total cpu time spent up to now is       77.4 secs

     total energy              =    -505.05564184 Ry
     estimated scf accuracy    <       0.00000011 Ry

     iteration # 15     ecut=   120.00 Ry     beta= 0.70
     Davidson diagonalization with overlap
     ethr =  1.93E-11,  avg # of iterations =  1.1

     total cpu time spent up to now is       77.8 secs

     total energy              =    -505.05564185 Ry
     estimated scf accuracy    <       0.00000011 Ry

     iteration # 16     ecut=   120.00 Ry     beta= 0.70
     Davidson diagonalization with overlap
     ethr =  1.93E-11,  avg # of iterations =  1.0

     total cpu time spent up to now is       78.1 secs

     total energy              =    -505.05564182 Ry
     estimated scf accuracy    <       0.00000012 Ry

     iteration # 17     ecut=   120.00 Ry     beta= 0.70
     Davidson diagonalization with overlap
     ethr =  1.93E-11,  avg # of iterations =  4.4

     total cpu time spent up to now is       78.7 secs

     total energy              =    -505.05564182 Ry
     estimated scf accuracy    <       0.00000005 Ry

     iteration # 18     ecut=   120.00 Ry     beta= 0.70
     Davidson diagonalization with overlap
     ethr =  1.93E-11,  avg # of iterations =  4.3

     total cpu time spent up to now is       79.2 secs

     total energy              =    -505.05564183 Ry
     estimated scf accuracy    <       0.00000002 Ry

     iteration # 19     ecut=   120.00 Ry     beta= 0.70
     Davidson diagonalization with overlap
     ethr =  1.93E-11,  avg # of iterations =  1.0

     total cpu time spent up to now is       79.5 secs

     total energy              =    -505.05564183 Ry
     estimated scf accuracy    <       0.00000002 Ry

     iteration # 20     ecut=   120.00 Ry     beta= 0.70
     Davidson diagonalization with overlap
     ethr =  1.93E-11,  avg # of iterations =  1.0

     total cpu time spent up to now is       79.9 secs

     total energy              =    -505.05564183 Ry
     estimated scf accuracy    <       0.00000002 Ry

     iteration # 21     ecut=   120.00 Ry     beta= 0.70
     Davidson diagonalization with overlap
     ethr =  1.93E-11,  avg # of iterations =  1.0

     total cpu time spent up to now is       80.2 secs

     total energy              =    -505.05564182 Ry
     estimated scf accuracy    <       0.00000003 Ry

     iteration # 22     ecut=   120.00 Ry     beta= 0.70
     Davidson diagonalization with overlap
     ethr =  1.93E-11,  avg # of iterations =  2.3

     total cpu time spent up to now is       80.6 secs

     total energy              =    -505.05564182 Ry
     estimated scf accuracy    <       0.00000001 Ry

     iteration # 23     ecut=   120.00 Ry     beta= 0.70
     Davidson diagonalization with overlap
     ethr =  1.93E-11,  avg # of iterations =  5.1

     total cpu time spent up to now is       81.2 secs

     End of self-consistent calculation

          k = 0.0000 0.0000 0.0000 (  9357 PWs)   bands (ev):

   -60.4986 -60.4921 -30.7465 -30.7465 -30.3677 -30.3442 -30.3292 -30.3292
    -7.1357  -6.1152  -5.1408  -5.1408   4.6165   4.7361   5.9049   6.2080
     6.2080   8.7777   8.8404   8.8404  10.2412  10.7169  10.7169  11.2131
    11.5031  11.6128  11.6537  11.6537

          k = 0.0000 0.0000 0.1799 (  9385 PWs)   bands (ev):

   -60.4969 -60.4909 -30.7444 -30.7444 -30.3924 -30.3709 -30.3253 -30.3253
    -7.0008  -6.0416  -5.2217  -5.2217   4.7696   4.9426   6.0662   6.2753
     6.2753   8.3229   8.9915   8.9915   9.5356  10.1154  10.1154  11.0474
    11.6068  11.9720  12.2109  12.2488

          k = 0.0000 0.0000 0.3598 (  9424 PWs)   bands (ev):

   -60.4927 -60.4881 -30.7393 -30.7393 -30.4512 -30.4350 -30.3158 -30.3158
    -6.6484  -5.8813  -5.4115  -5.4115   5.1567   5.4741   6.4815   6.4815
     6.5399   7.4621   8.4782   9.1166   9.1166   9.4975   9.4975  10.3469
    11.8713  12.1892  12.4611  13.0412

          k = 0.0000 0.0000 0.5397 (  9388 PWs)   bands (ev):

   -60.4882 -60.4858 -30.7342 -30.7342 -30.5083 -30.4997 -30.3063 -30.3063
    -6.2184  -5.7834  -5.5942  -5.5942   5.5650   5.9200   6.7869   6.7869
     6.9802   7.2927   7.6846   8.5252   8.5252   9.3347   9.6800   9.6800
    12.1574  12.3558  12.5707  13.6078

          k = 0.0000 0.0000-0.7196 (  9420 PWs)   bands (ev):

   -60.4856 -60.4856 -30.7321 -30.7321 -30.5290 -30.5290 -30.3024 -30.3024
    -5.8891  -5.8891  -5.6679  -5.6679   5.8179   5.8179   6.9801   6.9801
     7.2349   7.2349   8.2167   8.2167   8.2603   8.2603   9.7665   9.7665
    12.3272  12.3272  12.9651  12.9651

          k = 0.0000 0.1664 0.0000 (  9383 PWs)   bands (ev):

   -60.4981 -60.4925 -30.7459 -30.7458 -30.3661 -30.3458 -30.3302 -30.3301
    -7.0351  -6.0936  -5.2648  -5.2016   4.8139   4.9648   6.0921   6.2296
     6.2417   8.4796   8.6013   8.7014   9.8502  10.0506  10.3845  11.0984
    11.7931  11.8687  12.0116  12.0231

          k = 0.0000 0.1664 0.1799 (  9389 PWs)   bands (ev):

   -60.4965 -60.4913 -30.7440 -30.7439 -30.3909 -30.3724 -30.3260 -30.3259
    -6.9054  -6.0158  -5.3397  -5.2769   4.9628   5.1474   6.1227   6.2842
     6.4553   8.1707   8.5511   8.8075   9.2418   9.9476  10.0228  10.9753
    11.6640  12.1985  12.2212  12.5194

          k = 0.0000 0.1664 0.3598 (  9393 PWs)   bands (ev):

   -60.4924 -60.4885 -30.7394 -30.7394 -30.4498 -30.4360 -30.3162 -30.3161
    -6.5724  -5.8550  -5.5027  -5.4490   5.3267   5.5951   6.3298   6.4696
     6.9573   7.3383   7.9712   9.1157   9.2071   9.3562   9.3613  10.5230
    11.6523  12.4383  12.6098  12.8884

          k = 0.0000 0.1664 0.5397 (  9414 PWs)   bands (ev):

   -60.4881 -60.4859 -30.7351 -30.7350 -30.5070 -30.4997 -30.3064 -30.3063
    -6.1931  -5.8344  -5.5910  -5.5718   5.6606   5.9691   6.3206   6.6669
     7.2704   7.4467   7.7260   8.5519   8.7151   9.4486   9.5084   9.6641
    12.0804  12.2909  12.6061  13.0875

          k = 0.0000 0.1664-0.7196 (  9416 PWs)   bands (ev):

   -60.4856 -60.4856 -30.7333 -30.7333 -30.5281 -30.5281 -30.3023 -30.3023
    -5.9567  -5.9567  -5.5948  -5.5948   5.8208   5.8208   6.5269   6.5269
     7.6044   7.6044   8.2299   8.2299   8.6366   8.6366   9.6031   9.6031
    12.3459  12.3459  12.6383  12.6383

          k = 0.0000 0.3329 0.0000 (  9404 PWs)   bands (ev):

   -60.4969 -60.4937 -30.7447 -30.7446 -30.3618 -30.3501 -30.3321 -30.3320
    -6.7554  -6.1065  -5.5014  -5.3534   5.3314   5.4972   6.2821   6.3056
     6.6723   7.7879   7.8939   8.6286   8.8687   9.2360  10.2290  10.7929
    12.2300  12.3218  12.5168  12.6601

          k = 0.0000 0.3329 0.1799 (  9414 PWs)   bands (ev):

   -60.4954 -60.4924 -30.7432 -30.7431 -30.3870 -30.3765 -30.3274 -30.3273
    -6.6393  -6.0083  -5.5749  -5.4169   5.4806   5.6433   6.2527   6.2867
     6.9223   7.8667   8.0617   8.0992   8.4906   9.2704  10.2108  10.7351
    12.1068  12.3342  12.5705  12.8717

          k = 0.0000 0.3329 0.3598 (  9413 PWs)   bands (ev):

   -60.4916 -60.4893 -30.7397 -30.7396 -30.4464 -30.4386 -30.3169 -30.3167
    -6.3605  -5.7813  -5.7432  -5.5463   5.7758   5.9011   6.3675   6.4505
     7.0946   7.2725   7.6408   8.4754   8.6204   9.2685   9.8266  10.5118
    11.6979  12.5497  12.8468  12.8498

          k = 0.0000 0.3329 0.5397 (  9411 PWs)   bands (ev):

   -60.4876 -60.4864 -30.7367 -30.7365 -30.5041 -30.5000 -30.3064 -30.3063
    -6.1259  -5.9329  -5.5792  -5.5528   5.8270   5.9438   6.1454   6.4499
     7.2456   7.5905   8.0166   8.7810   8.8555   9.0198   9.4706  10.2008
    11.5442  12.3519  12.5370  12.6658

          k = 0.0000 0.3329-0.7196 (  9406 PWs)   bands (ev):

   -60.4856 -60.4856 -30.7355 -30.7355 -30.5264 -30.5264 -30.3020 -30.3020
    -6.0424  -6.0424  -5.4980  -5.4980   5.6938   5.6938   6.3399   6.3399
     7.7897   7.7897   8.3463   8.3463   9.1122   9.1122   9.5872   9.5872
    11.9008  11.9008  12.3862  12.3862

          k = 0.0000-0.4993 0.0000 (  9410 PWs)   bands (ev):

   -60.4953 -60.4953 -30.7440 -30.7440 -30.3559 -30.3559 -30.3330 -30.3330
    -6.3761  -6.3761  -5.5118  -5.5118   5.7919   5.7919   6.3244   6.3244
     7.3783   7.3783   7.6513   7.6513   8.7879   8.7879  10.4390  10.4390
    12.5519  12.5519  12.6367  12.6367

          k = 0.0000-0.4993 0.1799 (  9400 PWs)   bands (ev):

   -60.4939 -60.4939 -30.7427 -30.7427 -30.3817 -30.3817 -30.3280 -30.3280
    -6.2727  -6.2727  -5.5718  -5.5718   6.0043   6.0043   6.2099   6.2099
     7.4023   7.4023   7.8147   7.8147   8.4489   8.4489  10.4900  10.4900
    12.3504  12.3504  12.9383  12.9383

          k = 0.0000-0.4993 0.3598 (  9414 PWs)   bands (ev):

   -60.4904 -60.4904 -30.7398 -30.7398 -30.4423 -30.4423 -30.3171 -30.3171
    -6.0602  -6.0602  -5.6684  -5.6684   6.1335   6.1335   6.4888   6.4888
     6.8465   6.8465   8.1260   8.1260   8.6524   8.6524  10.2262  10.2262
    12.1499  12.1499  12.9844  12.9844

          k = 0.0000-0.4993 0.5397 (  9404 PWs)   bands (ev):

   -60.4870 -60.4870 -30.7374 -30.7374 -30.5015 -30.5015 -30.3064 -30.3064
    -6.0347  -6.0347  -5.5607  -5.5607   5.8555   5.8555   6.3049   6.3049
     7.4204   7.4204   8.3682   8.3682   8.9405   8.9405  10.0570  10.0570
    11.6536  11.6536  12.6596  12.6596

          k = 0.0000-0.4993-0.7196 (  9412 PWs)   bands (ev):

   -60.4855 -60.4855 -30.7367 -30.7367 -30.5255 -30.5255 -30.3019 -30.3019
    -6.0755  -6.0755  -5.4593  -5.4593   5.5859   5.5859   6.3607   6.3607
     7.8283   7.8283   8.6182   8.6182   8.7416   8.7416  10.1994  10.1994
    11.3177  11.3177  12.3984  12.3984

          k = 0.1664 0.1664 0.0000 (  9379 PWs)   bands (ev):

   -60.4977 -60.4929 -30.7470 -30.7444 -30.3647 -30.3472 -30.3320 -30.3292
    -6.9538  -6.0821  -5.4168  -5.1778   4.6718   5.4472   6.1859   6.2656
     6.3073   7.8686   8.6436   8.7586   9.7824   9.8159  10.2380  10.9859
    11.6622  11.6692  12.3497  12.4358

          k = 0.1664 0.1664 0.1799 (  9392 PWs)   bands (ev):

   -60.4961 -60.4916 -30.7448 -30.7429 -30.3897 -30.3737 -30.3273 -30.3253
    -6.8279  -5.9973  -5.4849  -5.2571   4.8463   5.5845   6.0945   6.3732
     6.5738   7.9236   8.1972   8.8932   9.0453   9.9668  10.0475  10.7978
    11.6831  11.9031  12.4806  12.6509

          k = 0.1664 0.1664 0.3598 (  9397 PWs)   bands (ev):

   -60.4922 -60.4887 -30.7397 -30.7394 -30.4489 -30.4367 -30.3168 -30.3159
    -6.5085  -5.8271  -5.6145  -5.4433   5.2944   5.8511   6.1831   6.6432
     7.1065   7.1207   8.0435   8.5615   9.0060   9.4592   9.7207  10.6090
    11.5438  12.2767  12.7693  12.9778

          k = 0.1664 0.1664 0.5397 (  9414 PWs)   bands (ev):

   -60.4879 -60.4861 -30.7364 -30.7345 -30.5065 -30.4995 -30.3065 -30.3063
    -6.1673  -5.8510  -5.6228  -5.5479   5.7140   6.0480   6.2197   6.4085
     7.2320   7.6714   7.8520   8.4979   8.7576   9.3082   9.5736   9.8817
    11.8876  12.3228  12.6436  13.1611

          k = 0.1664 0.1664-0.7196 (  9430 PWs)   bands (ev):

   -60.4856 -60.4856 -30.7354 -30.7324 -30.5296 -30.5258 -30.3026 -30.3019
    -6.0505  -5.8569  -5.6953  -5.4922   5.6823   6.0208   6.3220   6.5517
     6.9753   8.2131   8.2697   8.5281   8.5383   9.0819   9.1844   9.7407
    12.2151  12.3496  12.3724  12.8435

          k = 0.1664 0.3329 0.0000 (  9397 PWs)   bands (ev):

   -60.4967 -60.4939 -30.7466 -30.7440 -30.3610 -30.3508 -30.3330 -30.3301
    -6.7287  -6.1500  -5.5445  -5.2781   4.8821   5.8351   6.2004   6.3253
     6.7984   7.4240   8.3387   8.6711   9.2506   9.4161   9.9033  10.6346
    11.9389  11.9955  12.6398  12.6530

          k = 0.1664 0.3329 0.1799 (  9395 PWs)   bands (ev):

   -60.4952 -60.4926 -30.7447 -30.7427 -30.3863 -30.3770 -30.3280 -30.3260
    -6.6131  -6.0497  -5.6126  -5.3503   5.0494   6.0438   6.1364   6.2169
     7.0451   7.7075   7.9339   8.4208   8.9511   9.4396   9.9766  10.4873
    11.9983  12.1213  12.5741  12.9704

          k = 0.1664 0.3329 0.3598 (  9395 PWs)   bands (ev):

   -60.4914 -60.4894 -30.7400 -30.7397 -30.4461 -30.4390 -30.3171 -30.3163
    -6.3327  -5.8308  -5.7463  -5.5124   5.4663   6.1127   6.1755   6.5513
     6.8826   7.5760   7.8055   8.3173   9.0225   9.1845   9.7932  10.4328
    11.7423  12.3940  12.6922  13.0499

          k = 0.1664 0.3329 0.5397 (  9408 PWs)   bands (ev):

   -60.4875 -60.4864 -30.7374 -30.7355 -30.5047 -30.5000 -30.3066 -30.3064
    -6.0986  -5.9127  -5.6233  -5.5519   5.8093   5.9370   6.2154   6.3188
     7.0400   7.6991   8.1716   8.6125   8.7047   9.2813   9.6096  10.2997
    11.5558  12.4161  12.5529  12.6850

          k = 0.1664 0.3329-0.7196 (  9416 PWs)   bands (ev):

   -60.4855 -60.4855 -30.7367 -30.7337 -30.5286 -30.5249 -30.3026 -30.3019
    -6.0790  -5.9322  -5.6118  -5.4555   5.6009   5.9452   6.2529   6.3561
     7.0941   8.0975   8.2982   8.5589   8.7501   9.4424   9.5564   9.9371
    11.6979  12.2826  12.3803  12.3998

          k = 0.1664-0.4993 0.0000 (  9404 PWs)   bands (ev):

   -60.4953 -60.4953 -30.7452 -30.7452 -30.3559 -30.3559 -30.3320 -30.3320
    -6.4190  -6.4190  -5.4493  -5.4493   5.4073   5.4073   6.2676   6.2676
     7.4818   7.4818   8.2288   8.2288   8.9560   8.9560  10.1794  10.1794
    12.4120  12.4120  12.4189  12.4189

          k = 0.1664-0.4993 0.1799 (  9408 PWs)   bands (ev):

   -60.4939 -60.4939 -30.7436 -30.7436 -30.3817 -30.3817 -30.3274 -30.3274
    -6.3154  -6.3154  -5.5122  -5.5122   5.5664   5.5664   6.2176   6.2176
     7.5872   7.5872   8.2826   8.2826   8.5984   8.5984  10.2191  10.2191
    12.2637  12.2637  12.7767  12.7767

          k = 0.1664-0.4993 0.3598 (  9402 PWs)   bands (ev):

   -60.4904 -60.4904 -30.7400 -30.7400 -30.4424 -30.4424 -30.3169 -30.3169
    -6.0878  -6.0878  -5.6305  -5.6305   5.8534   5.8534   6.3048   6.3048
     7.1694   7.1694   8.3899   8.3899   8.7717   8.7717  10.0480  10.0480
    12.2211  12.2211  12.8472  12.8472

          k = 0.1664-0.4993 0.5397 (  9410 PWs)   bands (ev):

   -60.4870 -60.4870 -30.7369 -30.7369 -30.5020 -30.5020 -30.3065 -30.3065
    -6.0058  -6.0058  -5.5867  -5.5867   5.8383   5.8383   6.2854   6.2854
     7.2732   7.2732   8.4844   8.4844   8.9729   8.9729  10.1145  10.1145
    11.8220  11.8220  12.5987  12.5987

          k = 0.1664-0.4993-0.7196 (  9392 PWs)   bands (ev):

   -60.4855 -60.4855 -30.7358 -30.7358 -30.5263 -30.5263 -30.3023 -30.3023
    -6.0343  -6.0343  -5.5008  -5.5008   5.6653   5.6653   6.3162   6.3162
     7.5951   7.5951   8.3494   8.3494   9.1178   9.1178  10.2437  10.2437
    11.5572  11.5572  12.4013  12.4013

          k = 0.3329 0.3329 0.0000 (  9415 PWs)   bands (ev):

   -60.4961 -60.4945 -30.7480 -30.7454 -30.3588 -30.3530 -30.3320 -30.3292
    -6.6421  -6.3023  -5.4773  -5.2496   4.6823   5.4191   6.1420   6.2550
     7.2306   7.9549   8.6073   8.9226   9.2664   9.5801   9.5803  10.4223
    11.6682  11.6803  12.4277  12.4297

          k = 0.3329 0.3329 0.1799 (  9419 PWs)   bands (ev):

   -60.4946 -60.4931 -30.7458 -30.7438 -30.3843 -30.3788 -30.3274 -30.3254
    -6.5297  -6.2024  -5.5413  -5.3257   4.8587   5.5792   6.0714   6.2053
     7.4831   8.1247   8.2634   8.7189   8.9656   9.6254   9.7372   9.9778
    11.8488  11.9875  12.4468  12.7492

          k = 0.3329 0.3329 0.3598 (  9396 PWs)   bands (ev):

   -60.4910 -60.4898 -30.7404 -30.7402 -30.4449 -30.4405 -30.3170 -30.3161
    -6.2536  -5.9831  -5.6621  -5.5052   5.3241   5.8581   6.0370   6.2916
     7.2315   7.9714   8.0082   8.7169   8.9230   9.3241   9.5813  10.1610
    12.0462  12.2182  12.6898  12.9021

          k = 0.3329 0.3329 0.5397 (  9396 PWs)   bands (ev):

   -60.4873 -60.4867 -30.7370 -30.7351 -30.5048 -30.5010 -30.3069 -30.3066
    -6.0254  -5.8842  -5.6787  -5.5895   5.8110   5.8976   6.1144   6.2970
     6.9221   7.5185   8.3595   8.5335   8.8397   9.4046   9.8313  10.4162
    11.7634  12.3849  12.5939  12.8498

          k = 0.3329 0.3329-0.7196 (  9398 PWs)   bands (ev):

   -60.4855 -60.4855 -30.7359 -30.7329 -30.5294 -30.5257 -30.3030 -30.3024
    -6.0345  -5.7928  -5.7489  -5.4978   5.6590   6.1759   6.1954   6.3124
     6.6450   7.7889   8.2352   8.2883   9.1127   9.5215   9.9789  10.3511
    11.6996  12.3885  12.4068  12.6054

          k = 0.3329-0.4993 0.0000 (  9442 PWs)   bands (ev):

   -60.4953 -60.4953 -30.7474 -30.7474 -30.3559 -30.3559 -30.3301 -30.3301
    -6.4919  -6.4919  -5.3366  -5.3366   4.8891   4.8891   6.1662   6.1662
     7.8889   7.8889   8.9152   8.9152   9.3295   9.3295   9.8452   9.8452
    11.9552  11.9552  11.9985  11.9985

          k = 0.3329-0.4993 0.1799 (  9420 PWs)   bands (ev):

   -60.4939 -60.4939 -30.7454 -30.7454 -30.3816 -30.3816 -30.3260 -30.3260
    -6.3861  -6.3861  -5.4070  -5.4070   5.0577   5.0577   6.1098   6.1098
     8.0589   8.0589   8.7640   8.7640   9.1319   9.1319   9.6943   9.6943
    12.0614  12.0614  12.3318  12.3318

          k = 0.3329-0.4993 0.3598 (  9400 PWs)   bands (ev):

   -60.4904 -60.4904 -30.7406 -30.7406 -30.4428 -30.4428 -30.3165 -30.3165
    -6.1326  -6.1326  -5.5649  -5.5649   5.4781   5.4781   6.0823   6.0823
     7.6894   7.6894   8.6299   8.6299   9.1094   9.1094   9.7237   9.7237
    12.3763  12.3763  12.5642  12.5642

          k = 0.3329-0.4993 0.5397 (  9402 PWs)   bands (ev):

   -60.4870 -60.4870 -30.7359 -30.7359 -30.5032 -30.5032 -30.3069 -30.3069
    -5.9330  -5.9330  -5.6536  -5.6536   5.8382   5.8382   6.1561   6.1561
     7.1675   7.1675   8.4682   8.4682   9.1688   9.1688  10.2139  10.2139
    12.2733  12.2733  12.4776  12.4776

          k = 0.3329-0.4993-0.7196 (  9380 PWs)   bands (ev):

   -60.4855 -60.4855 -30.7341 -30.7341 -30.5279 -30.5279 -30.3029 -30.3029
    -5.9219  -5.9219  -5.6140  -5.6140   5.8790   5.8790   6.2281   6.2281
     7.1044   7.1044   8.2635   8.2635   9.3640   9.3640  10.3974  10.3974
    12.0924  12.0924  12.4047  12.4047

          k =-0.4993-0.4993 0.0000 (  9432 PWs)   bands (ev):

   -60.4953 -60.4953 -30.7485 -30.7485 -30.3559 -30.3559 -30.3292 -30.3292
    -6.5238  -6.5238  -5.2844  -5.2844   4.6856   4.6856   6.1202   6.1202
     8.4484   8.4484   8.5394   8.5394   9.5534   9.5534  10.1534  10.1534
    11.6365  11.6365  11.6900  11.6900

          k =-0.4993-0.4993 0.1799 (  9416 PWs)   bands (ev):

   -60.4939 -60.4939 -30.7463 -30.7463 -30.3815 -30.3815 -30.3254 -30.3254
    -6.4165  -6.4165  -5.3591  -5.3591   4.8618   4.8618   6.0581   6.0581
     8.6418   8.6418   8.7182   8.7182   8.9882   8.9882   9.8288   9.8288
    11.9337  11.9337  12.0444  12.0444

          k =-0.4993-0.4993 0.3598 (  9388 PWs)   bands (ev):

   -60.4904 -60.4904 -30.7408 -30.7408 -30.4429 -30.4429 -30.3162 -30.3162
    -6.1517  -6.1517  -5.5353  -5.5353   5.3269   5.3269   6.0020   6.0020
     7.9845   7.9845   8.8402   8.8402   8.9184   8.9184   9.7618   9.7618
    12.2832  12.2832  12.6257  12.6257

          k =-0.4993-0.4993 0.5397 (  9416 PWs)   bands (ev):

   -60.4870 -60.4870 -30.7354 -30.7354 -30.5038 -30.5038 -30.3070 -30.3070
    -5.8776  -5.8776  -5.7060  -5.7060   5.8762   5.8762   6.0354   6.0354
     7.1630   7.1630   8.4339   8.4339   9.2574   9.2574  10.2747  10.2747
    12.4034  12.4034  12.7202  12.7202

          k =-0.4993-0.4993-0.7196 (  9368 PWs)   bands (ev):

   -60.4855 -60.4855 -30.7332 -30.7332 -30.5288 -30.5288 -30.3032 -30.3032
    -5.7752  -5.7752  -5.7611  -5.7611   6.0720   6.0720   6.1626   6.1626
     6.8193   6.8193   8.2482   8.2482   9.4274   9.4274  10.4979  10.4979
    12.4045  12.4045  12.4889  12.4889

     highest occupied level (ev):    13.6078

!    total energy              =    -505.05564182 Ry
     estimated scf accuracy    <          6.5E-09 Ry

     The total energy is the sum of the following terms:
     one-electron contribution =    -165.43930101 Ry
     hartree contribution      =     113.10197552 Ry
     xc contribution           =     -67.44376266 Ry
     ewald contribution        =    -385.19528107 Ry
     DFT-D3 Dispersion         =      -0.07927260 Ry

     convergence has been achieved in  23 iterations

     Forces acting on atoms (cartesian axes, Ry/au):

     atom    1 type  1   force =     0.00000000    0.00000000    0.00000000
     atom    2 type  1   force =     0.00000000    0.00000000   -0.00000000
     atom    3 type  2   force =     0.00025123    0.00025123    0.00000000
     atom    4 type  2   force =    -0.00025123   -0.00025123    0.00000000
     atom    5 type  2   force =     0.00025123   -0.00025123    0.00000000
     atom    6 type  2   force =    -0.00025123    0.00025123    0.00000000

     Total force =     0.000711     Total SCF correction =     0.000012


     Computing stress (Cartesian axis) and pressure

          total   stress  (Ry/bohr**3)                   (kbar)     P=        4.97
   0.00001846   0.00000000   0.00000000            2.72        0.00        0.00
   0.00000000   0.00001846   0.00000000            0.00        2.72        0.00
   0.00000000   0.00000000   0.00006450            0.00        0.00        9.49

     Energy error            =      1.9E-05 Ry
     Gradient error          =      2.5E-04 Ry/Bohr
     Cell gradient error     =      9.5E+00 kbar

     number of scf cycles    =   6
     number of bfgs steps    =   5

     enthalpy           old  =    -505.0556228843 Ry
     enthalpy           new  =    -505.0556418163 Ry

     CASE: enthalpy          _new < enthalpy          _old

     new trust radius        =       0.0031770321 bohr
     new conv_thr            =       0.0000000100 Ry

     new unit-cell volume =    427.83387 a.u.^3 (    63.39844 Ang^3 )
     density =      6.97066 g/cm^3

CELL_PARAMETERS (angstrom)
   4.502920636   0.000000000   0.000000000
   0.000000000   4.502920636   0.000000000
   0.000000000   0.000000000   3.126727059

ATOMIC_POSITIONS (angstrom)
Ru            0.0000000000        0.0000000000       -0.0000000000
Ru            2.2514603182        2.2514603182        1.5633635297
O             1.3830717405        1.3830717405        0.0000000000
O             3.1198488959        3.1198488959        0.0000000000
O             3.6345320586        0.8683885777        1.5633635297
O             0.8683885777        3.6345320586        1.5633635297



     Writing config-only to output data dir ./pwscf.save/
     NEW-OLD atomic charge density approx. for the potential
     extrapolated charge   56.03707, renormalised to   56.00000

     total cpu time spent up to now is       82.1 secs

     per-process dynamical memory:   144.4 Mb

     Self-consistent Calculation

     iteration #  1     ecut=   120.00 Ry     beta= 0.70
     Davidson diagonalization with overlap
     ethr =  1.00E-06,  avg # of iterations =  2.0

     Threshold (ethr) on eigenvalues was too large:
     Diagonalizing with lowered threshold

     Davidson diagonalization with overlap
     ethr =  9.89E-08,  avg # of iterations =  4.3

     total cpu time spent up to now is       83.2 secs

     total energy              =    -505.05552114 Ry
     estimated scf accuracy    <       0.00010197 Ry

     iteration #  2     ecut=   120.00 Ry     beta= 0.70
     Davidson diagonalization with overlap
     ethr =  1.82E-07,  avg # of iterations =  6.0

     total cpu time spent up to now is       83.9 secs

     total energy              =    -505.05560903 Ry
     estimated scf accuracy    <       0.00055154 Ry

     iteration #  3     ecut=   120.00 Ry     beta= 0.70
     Davidson diagonalization with overlap
     ethr =  1.82E-07,  avg # of iterations =  5.2

     total cpu time spent up to now is       84.5 secs

     total energy              =    -505.05565660 Ry
     estimated scf accuracy    <       0.00004878 Ry

     iteration #  4     ecut=   120.00 Ry     beta= 0.70
     Davidson diagonalization with overlap
     ethr =  8.71E-08,  avg # of iterations =  1.9

     total cpu time spent up to now is       84.9 secs

     total energy              =    -505.05564960 Ry
     estimated scf accuracy    <       0.00002267 Ry

     iteration #  5     ecut=   120.00 Ry     beta= 0.70
     Davidson diagonalization with overlap
     ethr =  4.05E-08,  avg # of iterations =  4.3

     total cpu time spent up to now is       85.4 secs

     total energy              =    -505.05565594 Ry
     estimated scf accuracy    <       0.00000017 Ry

     iteration #  6     ecut=   120.00 Ry     beta= 0.70
     Davidson diagonalization with overlap
     ethr =  3.09E-10,  avg # of iterations =  6.8

     total cpu time spent up to now is       86.1 secs

     total energy              =    -505.05565620 Ry
     estimated scf accuracy    <       0.00000056 Ry

     iteration #  7     ecut=   120.00 Ry     beta= 0.70
     Davidson diagonalization with overlap
     ethr =  3.09E-10,  avg # of iterations =  2.0

     total cpu time spent up to now is       86.6 secs

     total energy              =    -505.05565610 Ry
     estimated scf accuracy    <       0.00000030 Ry

     iteration #  8     ecut=   120.00 Ry     beta= 0.70
     Davidson diagonalization with overlap
     ethr =  3.09E-10,  avg # of iterations =  5.7

     total cpu time spent up to now is       87.2 secs

     total energy              =    -505.05565676 Ry
     estimated scf accuracy    <       0.00000040 Ry

     iteration #  9     ecut=   120.00 Ry     beta= 0.70
     Davidson diagonalization with overlap
     ethr =  3.09E-10,  avg # of iterations =  6.7

     total cpu time spent up to now is       88.0 secs

     total energy              =    -505.05565716 Ry
     estimated scf accuracy    <       0.00000461 Ry

     iteration # 10     ecut=   120.00 Ry     beta= 0.70
     Davidson diagonalization with overlap
     ethr =  3.09E-10,  avg # of iterations =  1.0

     total cpu time spent up to now is       88.4 secs

     total energy              =    -505.05565601 Ry
     estimated scf accuracy    <       0.00000461 Ry

     iteration # 11     ecut=   120.00 Ry     beta= 0.70
     Davidson diagonalization with overlap
     ethr =  3.09E-10,  avg # of iterations =  6.0

     total cpu time spent up to now is       89.1 secs

     total energy              =    -505.05565611 Ry
     estimated scf accuracy    <       0.00000061 Ry

     iteration # 12     ecut=   120.00 Ry     beta= 0.70
     Davidson diagonalization with overlap
     ethr =  3.09E-10,  avg # of iterations =  5.6

     total cpu time spent up to now is       89.6 secs

     End of self-consistent calculation

          k = 0.0000 0.0000 0.0000 (  9357 PWs)   bands (ev):

   -60.5124 -60.5059 -30.7602 -30.7602 -30.3810 -30.3576 -30.3420 -30.3420
    -7.1435  -6.1236  -5.1506  -5.1506   4.6097   4.7290   5.8978   6.2009
     6.2009   8.7631   8.8328   8.8328  10.2292  10.7066  10.7066  11.2028
    11.4918  11.5981  11.6397  11.6397

          k = 0.0000 0.0000 0.1798 (  9385 PWs)   bands (ev):

   -60.5107 -60.5048 -30.7581 -30.7581 -30.4055 -30.3840 -30.3382 -30.3382
    -7.0092  -6.0505  -5.2311  -5.2311   4.7621   4.9348   6.0588   6.2685
     6.2685   8.3100   8.9835   8.9835   9.5255  10.1053  10.1053  11.0321
    11.5975  11.9587  12.1978  12.2345

          k = 0.0000 0.0000 0.3595 (  9424 PWs)   bands (ev):

   -60.5066 -60.5021 -30.7531 -30.7531 -30.4638 -30.4476 -30.3288 -30.3288
    -6.6580  -5.8915  -5.4199  -5.4199   5.1476   5.4645   6.4749   6.4749
     6.5316   7.4520   8.4704   9.1093   9.1093   9.4873   9.4873  10.3307
    11.8638  12.1749  12.4450  13.0262

          k = 0.0000 0.0000 0.5393 (  9388 PWs)   bands (ev):

   -60.5022 -60.4997 -30.7481 -30.7481 -30.5204 -30.5118 -30.3194 -30.3194
    -6.2295  -5.7948  -5.6016  -5.6016   5.5546   5.9092   6.7800   6.7800
     6.9716   7.2827   7.6774   8.5186   8.5186   9.3204   9.6706   9.6706
    12.1415  12.3472  12.5522  13.5953

          k = 0.0000 0.0000-0.7191 (  9420 PWs)   bands (ev):

   -60.4995 -60.4995 -30.7460 -30.7460 -30.5409 -30.5409 -30.3155 -30.3155
    -5.9009  -5.9009  -5.6749  -5.6749   5.8078   5.8078   6.9727   6.9727
     7.2264   7.2264   8.2109   8.2109   8.2483   8.2483   9.7575   9.7575
    12.3092  12.3092  12.9546  12.9546

          k = 0.0000 0.1664 0.0000 (  9383 PWs)   bands (ev):

   -60.5120 -60.5064 -30.7596 -30.7596 -30.3794 -30.3592 -30.3430 -30.3430
    -7.0429  -6.1018  -5.2748  -5.2115   4.8072   4.9579   6.0850   6.2226
     6.2348   8.4716   8.5933   8.6867   9.8374  10.0412  10.3744  11.0881
    11.7813  11.8549  11.9967  12.0098

          k = 0.0000 0.1664 0.1798 (  9389 PWs)   bands (ev):

   -60.5103 -60.5052 -30.7577 -30.7577 -30.4040 -30.3856 -30.3389 -30.3388
    -6.9138  -6.0245  -5.3493  -5.2864   4.9554   5.1398   6.1157   6.2775
     6.4483   8.1582   8.5424   8.7984   9.2308   9.9384  10.0134  10.9643
    11.6503  12.1846  12.2069  12.5060

          k = 0.0000 0.1664 0.3595 (  9393 PWs)   bands (ev):

   -60.5063 -60.5024 -30.7533 -30.7532 -30.4625 -30.4486 -30.3292 -30.3291
    -6.5819  -5.8651  -5.5113  -5.4575   5.3178   5.5861   6.3225   6.4629
     6.9495   7.3284   7.9632   9.1052   9.1967   9.3487   9.3532  10.5084
    11.6432  12.4234  12.5935  12.8731

          k = 0.0000 0.1664 0.5393 (  9414 PWs)   bands (ev):

   -60.5020 -60.4999 -30.7489 -30.7488 -30.5191 -30.5118 -30.3194 -30.3194
    -6.2036  -5.8443  -5.5990  -5.5808   5.6508   5.9591   6.3131   6.6590
     7.2614   7.4403   7.7171   8.5442   8.7072   9.4376   9.4994   9.6523
    12.0713  12.2748  12.5877  13.0738

          k = 0.0000 0.1664-0.7191 (  9416 PWs)   bands (ev):

   -60.4995 -60.4995 -30.7472 -30.7472 -30.5400 -30.5400 -30.3154 -30.3154
    -5.9666  -5.9666  -5.6038  -5.6038   5.8118   5.8118   6.5183   6.5183
     7.5967   7.5967   8.2222   8.2222   8.6252   8.6252   9.5944   9.5944
    12.3281  12.3281  12.6275  12.6275

          k = 0.0000 0.3329 0.0000 (  9404 PWs)   bands (ev):

   -60.5108 -60.5075 -30.7584 -30.7584 -30.3751 -30.3634 -30.3449 -30.3448
    -6.7633  -6.1141  -5.5119  -5.3634   5.3253   5.4911   6.2754   6.2990
     6.6648   7.7789   7.8846   8.6138   8.8601   9.2223  10.2191  10.7827
    12.2171  12.3086  12.5041  12.6466

          k = 0.0000 0.3329 0.1798 (  9414 PWs)   bands (ev):

   -60.5092 -60.5063 -30.7569 -30.7568 -30.4001 -30.3896 -30.3403 -30.3401
    -6.6476  -6.0164  -5.5850  -5.4266   5.4738   5.6365   6.2465   6.2802
     6.9145   7.8574   8.0501   8.0880   8.4791   9.2612  10.2014  10.7250
    12.0932  12.3202  12.5552  12.8568

          k = 0.0000 0.3329 0.3595 (  9413 PWs)   bands (ev):

   -60.5055 -60.5032 -30.7535 -30.7534 -30.4590 -30.4512 -30.3298 -30.3297
    -6.3699  -5.7910  -5.7521  -5.5552   5.7677   5.8936   6.3600   6.4435
     7.0855   7.2643   7.6325   8.4639   8.6094   9.2601   9.8188  10.5013
    11.6854  12.5348  12.8304  12.8328

          k = 0.0000 0.3329 0.5393 (  9411 PWs)   bands (ev):

   -60.5016 -60.5003 -30.7505 -30.7504 -30.5163 -30.5122 -30.3195 -30.3194
    -6.1353  -5.9414  -5.5885  -5.5632   5.8189   5.9361   6.1375   6.4418
     7.2380   7.5813   8.0075   8.7702   8.8457   9.0108   9.4633  10.1891
    11.5343  12.3383  12.5204  12.6475

          k = 0.0000 0.3329-0.7191 (  9406 PWs)   bands (ev):

   -60.4995 -60.4995 -30.7494 -30.7494 -30.5383 -30.5383 -30.3151 -30.3151
    -6.0508  -6.0508  -5.5086  -5.5086   5.6867   5.6867   6.3314   6.3314
     7.7810   7.7810   8.3366   8.3366   9.1022   9.1022   9.5778   9.5778
    11.8898  11.8898  12.3688  12.3688

          k = 0.0000-0.4993 0.0000 (  9410 PWs)   bands (ev):

   -60.5092 -60.5092 -30.7578 -30.7578 -30.3693 -30.3693 -30.3458 -30.3458
    -6.3837  -6.3837  -5.5221  -5.5221   5.7869   5.7869   6.3178   6.3178
     7.3683   7.3683   7.6431   7.6431   8.7734   8.7734  10.4290  10.4290
    12.5386  12.5386  12.6240  12.6240

          k = 0.0000-0.4993 0.1798 (  9400 PWs)   bands (ev):

   -60.5077 -60.5077 -30.7565 -30.7565 -30.3949 -30.3949 -30.3409 -30.3409
    -6.2809  -6.2809  -5.5817  -5.5817   5.9987   5.9987   6.2036   6.2036
     7.3928   7.3928   7.8034   7.8034   8.4382   8.4382  10.4801  10.4801
    12.3370  12.3370  12.9227  12.9227

          k = 0.0000-0.4993 0.3595 (  9414 PWs)   bands (ev):

   -60.5043 -60.5043 -30.7536 -30.7536 -30.4549 -30.4549 -30.3301 -30.3301
    -6.0694  -6.0694  -5.6777  -5.6777   6.1270   6.1270   6.4816   6.4816
     6.8370   6.8370   8.1151   8.1151   8.6430   8.6430  10.2175  10.2175
    12.1360  12.1360  12.9671  12.9671

          k = 0.0000-0.4993 0.5393 (  9404 PWs)   bands (ev):

   -60.5009 -60.5009 -30.7512 -30.7512 -30.5136 -30.5136 -30.3195 -30.3195
    -6.0432  -6.0432  -5.5712  -5.5712   5.8479   5.8479   6.2981   6.2981
     7.4107   7.4107   8.3583   8.3583   8.9310   8.9310  10.0480  10.0480
    11.6413  11.6413  12.6417  12.6417

          k = 0.0000-0.4993-0.7191 (  9412 PWs)   bands (ev):

   -60.4995 -60.4995 -30.7505 -30.7505 -30.5374 -30.5374 -30.3150 -30.3150
    -6.0835  -6.0835  -5.4704  -5.4704   5.5790   5.5790   6.3533   6.3533
     7.8175   7.8175   8.6097   8.6097   8.7315   8.7315  10.1894  10.1894
    11.3068  11.3068  12.3810  12.3810

          k = 0.1664 0.1664 0.0000 (  9379 PWs)   bands (ev):

   -60.5116 -60.5067 -30.7607 -30.7582 -30.3781 -30.3605 -30.3448 -30.3420
    -6.9616  -6.0900  -5.4270  -5.1877   4.6648   5.4411   6.1788   6.2584
     6.3007   7.8594   8.6288   8.7508   9.7695   9.8059  10.2292  10.9747
    11.6482  11.6578  12.3347  12.4229

          k = 0.1664 0.1664 0.1798 (  9392 PWs)   bands (ev):

   -60.5100 -60.5055 -30.7586 -30.7567 -30.4028 -30.3868 -30.3402 -30.3382
    -6.8362  -6.0058  -5.4947  -5.2665   4.8386   5.5777   6.0875   6.3670
     6.5663   7.9123   8.1858   8.8849   9.0343   9.9566  10.0382  10.7888
    11.6674  11.8898  12.4670  12.6373

          k = 0.1664 0.1664 0.3595 (  9397 PWs)   bands (ev):

   -60.5061 -60.5026 -30.7535 -30.7533 -30.4615 -30.4494 -30.3297 -30.3289
    -6.5181  -5.8370  -5.6233  -5.4517   5.2852   5.8433   6.1761   6.6364
     7.0971   7.1126   8.0350   8.5502   8.9978   9.4491   9.7133  10.5962
    11.5330  12.2615  12.7534  12.9619

          k = 0.1664 0.1664 0.5393 (  9414 PWs)   bands (ev):

   -60.5019 -60.5000 -30.7503 -30.7484 -30.5187 -30.5116 -30.3196 -30.3193
    -6.1775  -5.8609  -5.6302  -5.5579   5.7039   6.0395   6.2115   6.4009
     7.2251   7.6626   7.8426   8.4906   8.7473   9.3013   9.5626   9.8697
    11.8782  12.3064  12.6253  13.1487

          k = 0.1664 0.1664-0.7191 (  9430 PWs)   bands (ev):

   -60.4995 -60.4995 -30.7493 -30.7463 -30.5415 -30.5377 -30.3157 -30.3150
    -6.0591  -5.8687  -5.7023  -5.5026   5.6744   6.0124   6.3113   6.5436
     6.9687   8.2071   8.2599   8.5195   8.5265   9.0701   9.1766   9.7316
    12.2047  12.3317  12.3548  12.8331

          k = 0.1664 0.3329 0.0000 (  9397 PWs)   bands (ev):

   -60.5106 -60.5078 -30.7604 -30.7578 -30.3743 -30.3642 -30.3458 -30.3430
    -6.7366  -6.1575  -5.5550  -5.2880   4.8753   5.8301   6.1933   6.3188
     6.7910   7.4136   8.3305   8.6563   9.2421   9.4026   9.8936  10.6239
    11.9253  11.9836  12.6264  12.6404

          k = 0.1664 0.3329 0.1798 (  9395 PWs)   bands (ev):

   -60.5090 -60.5064 -30.7584 -30.7565 -30.3994 -30.3902 -30.3409 -30.3389
    -6.6215  -6.0577  -5.6228  -5.3598   5.0419   6.0382   6.1295   6.2107
     7.0372   7.6962   7.9225   8.4108   8.9402   9.4306   9.9665  10.4779
    11.9836  12.1078  12.5604  12.9556

          k = 0.1664 0.3329 0.3595 (  9395 PWs)   bands (ev):

   -60.5053 -60.5033 -30.7538 -30.7536 -30.4587 -30.4516 -30.3301 -30.3293
    -6.3422  -5.8400  -5.7558  -5.5210   5.4573   6.1060   6.1687   6.5440
     6.8728   7.5679   7.7965   8.3057   9.0132   9.1751   9.7851  10.4231
    11.7286  12.3786  12.6770  13.0332

          k = 0.1664 0.3329 0.5393 (  9408 PWs)   bands (ev):

   -60.5015 -60.5004 -30.7512 -30.7493 -30.5169 -30.5121 -30.3197 -30.3195
    -6.1079  -5.9219  -5.6318  -5.5625   5.8003   5.9292   6.2072   6.3110
     7.0322   7.6903   8.1627   8.6027   8.6956   9.2714   9.6017  10.2882
    11.5455  12.3999  12.5386  12.6674

          k = 0.1664 0.3329-0.7191 (  9416 PWs)   bands (ev):

   -60.4995 -60.4995 -30.7505 -30.7475 -30.5405 -30.5369 -30.3157 -30.3150
    -6.0870  -5.9415  -5.6214  -5.4666   5.5939   5.9379   6.2420   6.3486
     7.0860   8.0901   8.2879   8.5505   8.7394   9.4315   9.5479   9.9270
    11.6879  12.2709  12.3627  12.3828

          k = 0.1664-0.4993 0.0000 (  9404 PWs)   bands (ev):

   -60.5091 -60.5091 -30.7589 -30.7589 -30.3693 -30.3693 -30.3448 -30.3448
    -6.4268  -6.4268  -5.4595  -5.4595   5.4011   5.4011   6.2608   6.2608
     7.4735   7.4735   8.2201   8.2201   8.9419   8.9419  10.1694  10.1694
    12.3992  12.3992  12.4059  12.4059

          k = 0.1664-0.4993 0.1798 (  9408 PWs)   bands (ev):

   -60.5077 -60.5077 -30.7574 -30.7574 -30.3948 -30.3948 -30.3402 -30.3402
    -6.3237  -6.3237  -5.5219  -5.5219   5.5595   5.5595   6.2112   6.2112
     7.5782   7.5782   8.2715   8.2715   8.5884   8.5884  10.2093  10.2093
    12.2502  12.2502  12.7619  12.7619

          k = 0.1664-0.4993 0.3595 (  9402 PWs)   bands (ev):

   -60.5043 -60.5043 -30.7538 -30.7538 -30.4551 -30.4551 -30.3299 -30.3299
    -6.0972  -6.0972  -5.6395  -5.6395   5.8456   5.8456   6.2974   6.2974
     7.1607   7.1607   8.3802   8.3802   8.7619   8.7619  10.0392  10.0392
    12.2069  12.2069  12.8306  12.8306

          k = 0.1664-0.4993 0.5393 (  9410 PWs)   bands (ev):

   -60.5009 -60.5009 -30.7507 -30.7507 -30.5142 -30.5142 -30.3196 -30.3196
    -6.0146  -6.0146  -5.5968  -5.5968   5.8307   5.8307   6.2769   6.2769
     7.2648   7.2648   8.4755   8.4755   8.9628   8.9628  10.1053  10.1053
    11.8097  11.8097  12.5812  12.5812

          k = 0.1664-0.4993-0.7191 (  9392 PWs)   bands (ev):

   -60.4995 -60.4995 -30.7496 -30.7496 -30.5382 -30.5382 -30.3154 -30.3154
    -6.0425  -6.0425  -5.5118  -5.5118   5.6582   5.6582   6.3074   6.3074
     7.5863   7.5863   8.3408   8.3408   9.1073   9.1073  10.2340  10.2340
    11.5464  11.5464  12.3839  12.3839

          k = 0.3329 0.3329 0.0000 (  9415 PWs)   bands (ev):

   -60.5100 -60.5083 -30.7618 -30.7592 -30.3722 -30.3663 -30.3448 -30.3420
    -6.6501  -6.3101  -5.4876  -5.2595   4.6752   5.4129   6.1347   6.2481
     7.2229   7.9460   8.5996   8.9084   9.2560   9.5671   9.5726  10.4110
    11.6569  11.6664  12.4148  12.4168

          k = 0.3329 0.3329 0.1798 (  9419 PWs)   bands (ev):

   -60.5085 -60.5070 -30.7595 -30.7576 -30.3975 -30.3920 -30.3403 -30.3383
    -6.5381  -6.2107  -5.5511  -5.3352   4.8510   5.5723   6.0644   6.1988
     7.4750   8.1136   8.2529   8.7107   8.9542   9.6150   9.7288   9.9677
    11.8357  11.9728  12.4334  12.7349

          k = 0.3329 0.3329 0.3595 (  9396 PWs)   bands (ev):

   -60.5049 -60.5038 -30.7542 -30.7540 -30.4576 -30.4531 -30.3299 -30.3291
    -6.2632  -5.9926  -5.6712  -5.5136   5.3146   5.8503   6.0300   6.2841
     7.2226   7.9626   7.9997   8.7066   8.9141   9.3148   9.5726  10.1516
    12.0318  12.2029  12.6747  12.8860

          k = 0.3329 0.3329 0.5393 (  9396 PWs)   bands (ev):

   -60.5012 -60.5006 -30.7509 -30.7490 -30.5169 -30.5132 -30.3199 -30.3197
    -6.0346  -5.8947  -5.6862  -5.5998   5.8027   5.8872   6.1067   6.2884
     6.9143   7.5108   8.3528   8.5248   8.8294   9.3941   9.8225  10.4055
    11.7521  12.3679  12.5765  12.8381

          k = 0.3329 0.3329-0.7191 (  9398 PWs)   bands (ev):

   -60.4995 -60.4995 -30.7498 -30.7468 -30.5413 -30.5376 -30.3161 -30.3155
    -6.0426  -5.8046  -5.7561  -5.5088   5.6520   6.1677   6.1832   6.3036
     6.6382   7.7810   8.2295   8.2793   9.1009   9.5103   9.9707  10.3406
    11.6898  12.3707  12.3892  12.5951

          k = 0.3329-0.4993 0.0000 (  9442 PWs)   bands (ev):

   -60.5091 -60.5091 -30.7612 -30.7612 -30.3692 -30.3692 -30.3430 -30.3430
    -6.4999  -6.4999  -5.3465  -5.3465   4.8822   4.8822   6.1589   6.1589
     7.8808   7.8808   8.9074   8.9074   9.3159   9.3159   9.8345   9.8345
    11.9417  11.9417  11.9866  11.9866

          k = 0.3329-0.4993 0.1798 (  9420 PWs)   bands (ev):

   -60.5077 -60.5077 -30.7592 -30.7592 -30.3947 -30.3947 -30.3389 -30.3389
    -6.3945  -6.3945  -5.4166  -5.4166   5.0501   5.0501   6.1029   6.1029
     8.0503   8.0503   8.7531   8.7531   9.1228   9.1228   9.6843   9.6843
    12.0476  12.0476  12.3181  12.3181

          k = 0.3329-0.4993 0.3595 (  9400 PWs)   bands (ev):

   -60.5043 -60.5043 -30.7544 -30.7544 -30.4554 -30.4554 -30.3294 -30.3294
    -6.1423  -6.1423  -5.5736  -5.5736   5.4691   5.4691   6.0751   6.0751
     7.6808   7.6808   8.6211   8.6211   9.1003   9.1003   9.7140   9.7140
    12.3613  12.3613  12.5491  12.5491

          k = 0.3329-0.4993 0.5393 (  9402 PWs)   bands (ev):

   -60.5009 -60.5009 -30.7498 -30.7498 -30.5153 -30.5153 -30.3199 -30.3199
    -5.9428  -5.9428  -5.6626  -5.6626   5.8294   5.8294   6.1465   6.1465
     7.1605   7.1605   8.4611   8.4611   9.1582   9.1582  10.2041  10.2041
    12.2607  12.2607  12.4607  12.4607

          k = 0.3329-0.4993-0.7191 (  9380 PWs)   bands (ev):

   -60.4995 -60.4995 -30.7479 -30.7479 -30.5399 -30.5399 -30.3160 -30.3160
    -5.9305  -5.9305  -5.6243  -5.6243   5.8716   5.8716   6.2169   6.2169
     7.0972   7.0972   8.2568   8.2568   9.3525   9.3525  10.3881  10.3881
    12.0816  12.0816  12.3871  12.3871

          k =-0.4993-0.4993 0.0000 (  9432 PWs)   bands (ev):

   -60.5091 -60.5091 -30.7623 -30.7623 -30.3692 -30.3692 -30.3420 -30.3420
    -6.5318  -6.5318  -5.2943  -5.2943   4.6785   4.6785   6.1128   6.1128
     8.4399   8.4399   8.5319   8.5319   9.5402   9.5402  10.1431  10.1431
    11.6251  11.6251  11.6761  11.6761

          k =-0.4993-0.4993 0.1798 (  9416 PWs)   bands (ev):

   -60.5077 -60.5077 -30.7600 -30.7600 -30.3946 -30.3946 -30.3383 -30.3383
    -6.4250  -6.4250  -5.3686  -5.3686   4.8540   4.8540   6.0510   6.0510
     8.6339   8.6339   8.7092   8.7092   8.9768   8.9768   9.8190   9.8190
    11.9207  11.9207  12.0303  12.0303

          k =-0.4993-0.4993 0.3595 (  9388 PWs)   bands (ev):

   -60.5043 -60.5043 -30.7546 -30.7546 -30.4556 -30.4556 -30.3292 -30.3292
    -6.1614  -6.1614  -5.5438  -5.5438   5.3174   5.3174   5.9949   5.9949
     7.9757   7.9757   8.8322   8.8322   8.9094   8.9094   9.7516   9.7516
    12.2680  12.2680  12.6111  12.6111

          k =-0.4993-0.4993 0.5393 (  9416 PWs)   bands (ev):

   -60.5009 -60.5009 -30.7493 -30.7493 -30.5159 -30.5159 -30.3201 -30.3201
    -5.8888  -5.8888  -5.7136  -5.7136   5.8649   5.8649   6.0278   6.0278
     7.1558   7.1558   8.4275   8.4275   9.2467   9.2467  10.2648  10.2648
    12.3863  12.3863  12.7087  12.7087

          k =-0.4993-0.4993-0.7191 (  9368 PWs)   bands (ev):

   -60.4995 -60.4995 -30.7470 -30.7470 -30.5407 -30.5407 -30.3163 -30.3163
    -5.7824  -5.7824  -5.7727  -5.7727   6.0639   6.0639   6.1506   6.1506
     6.8126   6.8126   8.2426   8.2426   9.4158   9.4158  10.4887  10.4887
    12.3867  12.3867  12.4786  12.4786

     highest occupied level (ev):    13.5953

!    total energy              =    -505.05565620 Ry
     estimated scf accuracy    <          9.3E-09 Ry

     The total energy is the sum of the following terms:
     one-electron contribution =    -165.50021540 Ry
     hartree contribution      =     113.10743099 Ry
     xc contribution           =     -67.43968106 Ry
     ewald contribution        =    -385.14395842 Ry
     DFT-D3 Dispersion         =      -0.07923232 Ry

     convergence has been achieved in  12 iterations

     Forces acting on atoms (cartesian axes, Ry/au):

     atom    1 type  1   force =     0.00000000    0.00000000   -0.00000000
     atom    2 type  1   force =     0.00000000    0.00000000    0.00000000
     atom    3 type  2   force =     0.00058527    0.00058527    0.00000000
     atom    4 type  2   force =    -0.00058527   -0.00058527    0.00000000
     atom    5 type  2   force =     0.00058527   -0.00058527    0.00000000
     atom    6 type  2   force =    -0.00058527    0.00058527    0.00000000

     Total force =     0.001655     Total SCF correction =     0.000025


     Computing stress (Cartesian axis) and pressure

          total   stress  (Ry/bohr**3)                   (kbar)     P=        2.83
   0.00001244   0.00000000   0.00000000            1.83        0.00        0.00
   0.00000000   0.00001244   0.00000000            0.00        1.83        0.00
   0.00000000   0.00000000   0.00003292            0.00        0.00        4.84

     Energy error            =      1.4E-05 Ry
     Gradient error          =      5.9E-04 Ry/Bohr
     Cell gradient error     =      4.8E+00 kbar

     number of scf cycles    =   7
     number of bfgs steps    =   6

     enthalpy           old  =    -505.0556418163 Ry
     enthalpy           new  =    -505.0556561952 Ry

     CASE: enthalpy          _new < enthalpy          _old

     new trust radius        =       0.0037088980 bohr
     new conv_thr            =       0.0000000100 Ry

     new unit-cell volume =    428.14069 a.u.^3 (    63.44390 Ang^3 )
     density =      6.96567 g/cm^3

CELL_PARAMETERS (angstrom)
   4.502517080   0.000000000   0.000000000
   0.000000000   4.502517080   0.000000000
   0.000000000   0.000000000   3.129530345

ATOMIC_POSITIONS (angstrom)
Ru            0.0000000000        0.0000000000       -0.0000000000
Ru            2.2512585398        2.2512585398        1.5647651723
O             1.3834245589        1.3834245589       -0.0000000000
O             3.1190925206        3.1190925206       -0.0000000000
O             3.6346830987        0.8678339809        1.5647651723
O             0.8678339809        3.6346830987        1.5647651723



     Writing config-only to output data dir ./pwscf.save/
     NEW-OLD atomic charge density approx. for the potential
     extrapolated charge   56.04004, renormalised to   56.00000

     total cpu time spent up to now is       90.5 secs

     per-process dynamical memory:   144.4 Mb

     Self-consistent Calculation

     iteration #  1     ecut=   120.00 Ry     beta= 0.70
     Davidson diagonalization with overlap
     ethr =  1.00E-06,  avg # of iterations =  3.0

     total cpu time spent up to now is       91.1 secs

     total energy              =    -505.05556382 Ry
     estimated scf accuracy    <       0.00006753 Ry

     iteration #  2     ecut=   120.00 Ry     beta= 0.70
     Davidson diagonalization with overlap
     ethr =  1.21E-07,  avg # of iterations =  5.9

     total cpu time spent up to now is       91.8 secs

     total energy              =    -505.05565012 Ry
     estimated scf accuracy    <       0.00020255 Ry

     iteration #  3     ecut=   120.00 Ry     beta= 0.70
     Davidson diagonalization with overlap
     ethr =  1.21E-07,  avg # of iterations =  4.5

     total cpu time spent up to now is       92.4 secs

     total energy              =    -505.05566808 Ry
     estimated scf accuracy    <       0.00002736 Ry

     iteration #  4     ecut=   120.00 Ry     beta= 0.70
     Davidson diagonalization with overlap
     ethr =  4.89E-08,  avg # of iterations =  1.6

     total cpu time spent up to now is       92.8 secs

     total energy              =    -505.05566300 Ry
     estimated scf accuracy    <       0.00001246 Ry

     iteration #  5     ecut=   120.00 Ry     beta= 0.70
     Davidson diagonalization with overlap
     ethr =  2.23E-08,  avg # of iterations =  2.2

     total cpu time spent up to now is       93.2 secs

     total energy              =    -505.05566481 Ry
     estimated scf accuracy    <       0.00000125 Ry

     iteration #  6     ecut=   120.00 Ry     beta= 0.70
     Davidson diagonalization with overlap
     ethr =  2.24E-09,  avg # of iterations =  5.9

     total cpu time spent up to now is       93.9 secs

     total energy              =    -505.05566583 Ry
     estimated scf accuracy    <       0.00000045 Ry

     iteration #  7     ecut=   120.00 Ry     beta= 0.70
     Davidson diagonalization with overlap
     ethr =  8.07E-10,  avg # of iterations =  1.6

     total cpu time spent up to now is       94.3 secs

     total energy              =    -505.05566553 Ry
     estimated scf accuracy    <       0.00000062 Ry

     iteration #  8     ecut=   120.00 Ry     beta= 0.70
     Davidson diagonalization with overlap
     ethr =  8.07E-10,  avg # of iterations =  3.0

     total cpu time spent up to now is       94.7 secs

     total energy              =    -505.05566561 Ry
     estimated scf accuracy    <       0.00000005 Ry

     iteration #  9     ecut=   120.00 Ry     beta= 0.70
     Davidson diagonalization with overlap
     ethr =  8.17E-11,  avg # of iterations =  5.9

     total cpu time spent up to now is       95.4 secs

     End of self-consistent calculation

          k = 0.0000 0.0000 0.0000 (  9357 PWs)   bands (ev):

   -60.5270 -60.5206 -30.7736 -30.7736 -30.3966 -30.3732 -30.3552 -30.3552
    -7.1527  -6.1338  -5.1602  -5.1602   4.6024   4.7207   5.8926   6.1895
     6.1895   8.7471   8.8252   8.8252  10.2153  10.6967  10.6967  11.1904
    11.4815  11.5850  11.6241  11.6241

          k = 0.0000 0.0000 0.1796 (  9385 PWs)   bands (ev):

   -60.5254 -60.5194 -30.7716 -30.7716 -30.4209 -30.3994 -30.3514 -30.3514
    -7.0188  -6.0610  -5.2405  -5.2405   4.7543   4.9259   6.0532   6.2584
     6.2584   8.2956   8.9744   8.9744   9.5140  10.0959  10.0959  11.0176
    11.5867  11.9457  12.1880  12.2195

          k = 0.0000 0.0000 0.3592 (  9424 PWs)   bands (ev):

   -60.5213 -60.5168 -30.7666 -30.7666 -30.4787 -30.4625 -30.3421 -30.3421
    -6.6684  -5.9027  -5.4287  -5.4287   5.1386   5.4543   6.4671   6.4671
     6.5250   7.4400   8.4608   9.0988   9.0988   9.4794   9.4794  10.3166
    11.8531  12.1614  12.4279  13.0111

          k = 0.0000 0.0000 0.5388 (  9388 PWs)   bands (ev):

   -60.5169 -60.5144 -30.7616 -30.7616 -30.5348 -30.5261 -30.3328 -30.3328
    -6.2409  -5.8067  -5.6097  -5.6097   5.5448   5.8992   6.7729   6.7729
     6.9602   7.2746   7.6682   8.5133   8.5133   9.3082   9.6600   9.6600
    12.1231  12.3353  12.5302  13.5802

          k = 0.0000 0.0000-0.7184 (  9420 PWs)   bands (ev):

   -60.5143 -60.5143 -30.7596 -30.7596 -30.5551 -30.5551 -30.3289 -30.3289
    -5.9129  -5.9129  -5.6828  -5.6828   5.7984   5.7984   6.9648   6.9648
     7.2156   7.2156   8.2081   8.2081   8.2382   8.2382   9.7468   9.7468
    12.2865  12.2865  12.9412  12.9412

          k = 0.0000 0.1665 0.0000 (  9383 PWs)   bands (ev):

   -60.5266 -60.5210 -30.7731 -30.7730 -30.3950 -30.3748 -30.3561 -30.3561
    -7.0523  -6.1121  -5.2843  -5.2210   4.7998   4.9496   6.0795   6.2111
     6.2234   8.4642   8.5864   8.6711   9.8236  10.0323  10.3637  11.0758
    11.7708  11.8389  11.9824  11.9938

          k = 0.0000 0.1665 0.1796 (  9389 PWs)   bands (ev):

   -60.5250 -60.5198 -30.7712 -30.7711 -30.4194 -30.4009 -30.3521 -30.3520
    -6.9234  -6.0351  -5.3585  -5.2958   4.9476   5.1311   6.1084   6.2675
     6.4396   8.1444   8.5328   8.7900   9.2205   9.9288  10.0029  10.9520
    11.6366  12.1713  12.1915  12.4909

          k = 0.0000 0.1665 0.3592 (  9393 PWs)   bands (ev):

   -60.5210 -60.5171 -30.7668 -30.7667 -30.4773 -30.4634 -30.3424 -30.3424
    -6.5923  -5.8762  -5.5202  -5.4664   5.3091   5.5768   6.3149   6.4549
     6.9423   7.3164   7.9538   9.0969   9.1873   9.3380   9.3439  10.4951
    11.6317  12.4092  12.5764  12.8582

          k = 0.0000 0.1665 0.5388 (  9414 PWs)   bands (ev):

   -60.5167 -60.5146 -30.7625 -30.7624 -30.5335 -30.5261 -30.3328 -30.3328
    -6.2144  -5.8542  -5.6079  -5.5911   5.6420   5.9504   6.3051   6.6504
     7.2509   7.4340   7.7087   8.5379   8.6990   9.4269   9.4882   9.6406
    12.0594  12.2564  12.5659  13.0594

          k = 0.0000 0.1665-0.7184 (  9416 PWs)   bands (ev):

   -60.5143 -60.5143 -30.7607 -30.7607 -30.5542 -30.5542 -30.3288 -30.3288
    -5.9765  -5.9765  -5.6140  -5.6140   5.8036   5.8036   6.5096   6.5096
     7.5886   7.5886   8.2155   8.2155   8.6154   8.6154   9.5837   9.5837
    12.3057  12.3057  12.6145  12.6145

          k = 0.0000 0.3329 0.0000 (  9404 PWs)   bands (ev):

   -60.5254 -60.5222 -30.7719 -30.7718 -30.3907 -30.3790 -30.3580 -30.3579
    -6.7728  -6.1246  -5.5209  -5.3729   5.3177   5.4828   6.2638   6.2875
     6.6587   7.7722   7.8786   8.5989   8.8522   9.2085  10.2074  10.7706
    12.2060  12.2919  12.4874  12.6363

          k = 0.0000 0.3329 0.1796 (  9414 PWs)   bands (ev):

   -60.5239 -60.5209 -30.7704 -30.7703 -30.4155 -30.4049 -30.3535 -30.3533
    -6.6574  -6.0272  -5.5938  -5.4359   5.4658   5.6280   6.2378   6.2706
     6.9066   7.8480   8.0387   8.0788   8.4691   9.2518  10.1899  10.7129
    12.0794  12.3051  12.5401  12.8436

          k = 0.0000 0.3329 0.3592 (  9413 PWs)   bands (ev):

   -60.5202 -60.5179 -30.7670 -30.7669 -30.4739 -30.4660 -30.3431 -30.3430
    -6.3801  -5.8021  -5.7609  -5.5645   5.7602   5.8866   6.3518   6.4348
     7.0735   7.2551   7.6253   8.4536   8.5993   9.2508   9.8080  10.4895
    11.6720  12.5202  12.8143  12.8153

          k = 0.0000 0.3329 0.5388 (  9411 PWs)   bands (ev):

   -60.5163 -60.5150 -30.7640 -30.7639 -30.5306 -30.5265 -30.3328 -30.3328
    -6.1446  -5.9494  -5.5992  -5.5755   5.8119   5.9281   6.1320   6.4341
     7.2300   7.5693   7.9999   8.7600   8.8353   9.0007   9.4527  10.1777
    11.5221  12.3240  12.5018  12.6261

          k = 0.0000 0.3329-0.7184 (  9406 PWs)   bands (ev):

   -60.5143 -60.5143 -30.7630 -30.7630 -30.5524 -30.5524 -30.3286 -30.3286
    -6.0589  -6.0589  -5.5208  -5.5208   5.6793   5.6793   6.3259   6.3259
     7.7730   7.7730   8.3249   8.3249   9.0919   9.0919   9.5673   9.5673
    11.8770  11.8770  12.3474  12.3474

          k = 0.0000-0.4994 0.0000 (  9410 PWs)   bands (ev):

   -60.5238 -60.5238 -30.7712 -30.7712 -30.3849 -30.3849 -30.3589 -30.3589
    -6.3938  -6.3938  -5.5313  -5.5313   5.7786   5.7786   6.3062   6.3062
     7.3625   7.3625   7.6360   7.6360   8.7592   8.7592  10.4170  10.4170
    12.5276  12.5276  12.6069  12.6069

          k = 0.0000-0.4994 0.1796 (  9400 PWs)   bands (ev):

   -60.5224 -60.5224 -30.7700 -30.7700 -30.4102 -30.4102 -30.3541 -30.3541
    -6.2911  -6.2911  -5.5908  -5.5908   5.9897   5.9897   6.1953   6.1953
     7.3843   7.3843   7.7937   7.7937   8.4278   8.4278  10.4681  10.4681
    12.3231  12.3231  12.9070  12.9070

          k = 0.0000-0.4994 0.3592 (  9414 PWs)   bands (ev):

   -60.5190 -60.5190 -30.7671 -30.7671 -30.4697 -30.4697 -30.3434 -30.3434
    -6.0792  -6.0792  -5.6876  -5.6876   6.1220   6.1220   6.4727   6.4727
     6.8257   6.8257   8.1056   8.1056   8.6331   8.6331  10.2063  10.2063
    12.1221  12.1221  12.9493  12.9493

          k = 0.0000-0.4994 0.5388 (  9404 PWs)   bands (ev):

   -60.5157 -60.5157 -30.7648 -30.7648 -30.5279 -30.5279 -30.3328 -30.3328
    -6.0512  -6.0512  -5.5834  -5.5834   5.8401   5.8401   6.2947   6.2947
     7.3985   7.3985   8.3488   8.3488   8.9202   8.9202  10.0372  10.0372
    11.6284  11.6284  12.6212  12.6212

          k = 0.0000-0.4994-0.7184 (  9412 PWs)   bands (ev):

   -60.5143 -60.5143 -30.7641 -30.7641 -30.5516 -30.5516 -30.3285 -30.3285
    -6.0910  -6.0910  -5.4833  -5.4833   5.5716   5.5716   6.3507   6.3507
     7.8060   7.8060   8.5994   8.5994   8.7203   8.7203  10.1789  10.1789
    11.2944  11.2944  12.3597  12.3597

          k = 0.1665 0.1665 0.0000 (  9379 PWs)   bands (ev):

   -60.5262 -60.5214 -30.7741 -30.7716 -30.3937 -30.3761 -30.3580 -30.3552
    -6.9710  -6.1004  -5.4362  -5.1973   4.6571   5.4329   6.1673   6.2527
     6.2892   7.8530   8.6136   8.7432   9.7553   9.7948  10.2214  10.9624
    11.6326  11.6480  12.3197  12.4062

          k = 0.1665 0.1665 0.1796 (  9392 PWs)   bands (ev):

   -60.5246 -60.5202 -30.7720 -30.7701 -30.4182 -30.4022 -30.3534 -30.3514
    -6.8459  -6.0165  -5.5037  -5.2759   4.8304   5.5693   6.0789   6.3574
     6.5588   7.9006   8.1757   8.8760   9.0222   9.9483  10.0272  10.7775
    11.6524  11.8772  12.4532  12.6223

          k = 0.1665 0.1665 0.3592 (  9397 PWs)   bands (ev):

   -60.5207 -60.5173 -30.7670 -30.7668 -30.4763 -30.4642 -30.3430 -30.3422
    -6.5284  -5.8480  -5.6326  -5.4605   5.2757   5.8359   6.1684   6.6280
     7.0855   7.1054   8.0249   8.5399   8.9877   9.4416   9.7031  10.5836
    11.5206  12.2462  12.7385  12.9447

          k = 0.1665 0.1665 0.5388 (  9414 PWs)   bands (ev):

   -60.5166 -60.5147 -30.7638 -30.7619 -30.5330 -30.5260 -30.3329 -30.3327
    -6.1878  -5.8707  -5.6384  -5.5695   5.6945   6.0330   6.2023   6.3933
     7.2183   7.6503   7.8350   8.4847   8.7374   9.2906   9.5524   9.8582
    11.8660  12.2873  12.6041  13.1342

          k = 0.1665 0.1665-0.7184 (  9430 PWs)   bands (ev):

   -60.5143 -60.5143 -30.7628 -30.7599 -30.5556 -30.5519 -30.3291 -30.3285
    -6.0674  -5.8806  -5.7103  -5.5147   5.6664   6.0060   6.3005   6.5354
     6.9629   8.2041   8.2480   8.5097   8.5169   9.0600   9.1657   9.7213
    12.1919  12.3093  12.3329  12.8196

          k = 0.1665 0.3329 0.0000 (  9397 PWs)   bands (ev):

   -60.5252 -60.5224 -30.7738 -30.7713 -30.3899 -30.3798 -30.3589 -30.3561
    -6.7462  -6.1679  -5.5640  -5.2975   4.8676   5.8217   6.1817   6.3072
     6.7847   7.4076   8.3231   8.6418   9.2342   9.3884   9.8832  10.6121
    11.9093  11.9737  12.6158  12.6233

          k = 0.1665 0.3329 0.1796 (  9395 PWs)   bands (ev):

   -60.5237 -60.5211 -30.7719 -30.7700 -30.4148 -30.4056 -30.3541 -30.3521
    -6.6314  -6.0685  -5.6317  -5.3691   5.0337   6.0291   6.1200   6.2024
     7.0297   7.6869   7.9108   8.4005   8.9299   9.4223   9.9552  10.4664
    11.9687  12.0947  12.5471  12.9403

          k = 0.1665 0.3329 0.3592 (  9395 PWs)   bands (ev):

   -60.5200 -60.5180 -30.7673 -30.7671 -30.4736 -30.4665 -30.3434 -30.3426
    -6.3525  -5.8501  -5.7658  -5.5300   5.4483   6.1001   6.1614   6.5352
     6.8611   7.5594   7.7875   8.2946   9.0039   9.1671   9.7740  10.4117
    11.7146  12.3634  12.6624  13.0153

          k = 0.1665 0.3329 0.5388 (  9408 PWs)   bands (ev):

   -60.5162 -60.5151 -30.7648 -30.7629 -30.5312 -30.5265 -30.3330 -30.3328
    -6.1170  -5.9309  -5.6414  -5.5750   5.7920   5.9212   6.2007   6.3045
     7.0238   7.6783   8.1556   8.5927   8.6871   9.2614   9.5907  10.2768
    11.5327  12.3816  12.5237  12.6466

          k = 0.1665 0.3329-0.7184 (  9416 PWs)   bands (ev):

   -60.5143 -60.5143 -30.7640 -30.7611 -30.5547 -30.5510 -30.3291 -30.3285
    -6.0947  -5.9508  -5.6322  -5.4795   5.5863   5.9305   6.2325   6.3453
     7.0776   8.0846   8.2745   8.5414   8.7294   9.4212   9.5370   9.9167
    11.6751  12.2571  12.3408  12.3622

          k = 0.1665-0.4994 0.0000 (  9404 PWs)   bands (ev):

   -60.5238 -60.5238 -30.7724 -30.7724 -30.3849 -30.3849 -30.3580 -30.3580
    -6.4367  -6.4367  -5.4688  -5.4688   5.3932   5.3932   6.2492   6.2492
     7.4664   7.4664   8.2136   8.2136   8.9276   8.9276  10.1579  10.1579
    12.3886  12.3886  12.3892  12.3892

          k = 0.1665-0.4994 0.1796 (  9408 PWs)   bands (ev):

   -60.5224 -60.5224 -30.7708 -30.7708 -30.4102 -30.4102 -30.3534 -30.3534
    -6.3338  -6.3338  -5.5312  -5.5312   5.5513   5.5513   6.2017   6.2017
     7.5693   7.5693   8.2620   8.2620   8.5786   8.5786  10.1978  10.1978
    12.2361  12.2361  12.7473  12.7473

          k = 0.1665-0.4994 0.3592 (  9402 PWs)   bands (ev):

   -60.5190 -60.5190 -30.7673 -30.7673 -30.4699 -30.4699 -30.3432 -30.3432
    -6.1074  -6.1074  -5.6491  -5.6491   5.8385   5.8385   6.2881   6.2881
     7.1510   7.1510   8.3718   8.3718   8.7521   8.7521  10.0277  10.0277
    12.1928  12.1928  12.8135  12.8135

          k = 0.1665-0.4994 0.5388 (  9410 PWs)   bands (ev):

   -60.5156 -60.5156 -30.7643 -30.7643 -30.5285 -30.5285 -30.3330 -30.3330
    -6.0230  -6.0230  -5.6085  -5.6085   5.8233   5.8233   6.2703   6.2703
     7.2549   7.2549   8.4668   8.4668   8.9528   8.9528  10.0939  10.0939
    11.7965  11.7965  12.5611  12.5611

          k = 0.1665-0.4994-0.7184 (  9392 PWs)   bands (ev):

   -60.5143 -60.5143 -30.7632 -30.7632 -30.5524 -30.5524 -30.3288 -30.3288
    -6.0503  -6.0503  -5.5242  -5.5242   5.6506   5.6506   6.3022   6.3022
     7.5770   7.5770   8.3305   8.3305   9.0972   9.0972  10.2232  10.2232
    11.5337  11.5337  12.3624  12.3624

          k = 0.3329 0.3329 0.0000 (  9415 PWs)   bands (ev):

   -60.5246 -60.5230 -30.7752 -30.7726 -30.3878 -30.3819 -30.3580 -30.3552
    -6.6597  -6.3201  -5.4968  -5.2691   4.6676   5.4049   6.1232   6.2365
     7.2160   7.9388   8.5926   8.8939   9.2453   9.5524   9.5650  10.4010
    11.6476  11.6509  12.3981  12.4064

          k = 0.3329 0.3329 0.1796 (  9419 PWs)   bands (ev):

   -60.5231 -60.5216 -30.7730 -30.7711 -30.4128 -30.4074 -30.3534 -30.3515
    -6.5480  -6.2210  -5.5603  -5.3446   4.8427   5.5641   6.0545   6.1891
     7.4674   8.1012   8.2442   8.7031   8.9413   9.6038   9.7208   9.9577
    11.8237  11.9577  12.4199  12.7203

          k = 0.3329 0.3329 0.3592 (  9396 PWs)   bands (ev):

   -60.5196 -60.5184 -30.7678 -30.7675 -30.4724 -30.4679 -30.3432 -30.3424
    -6.2737  -6.0030  -5.6808  -5.5224   5.3050   5.8432   6.0218   6.2746
     7.2128   7.9523   7.9918   8.6968   8.9054   9.3078   9.5608  10.1404
    12.0175  12.1876  12.6604  12.8687

          k = 0.3329 0.3329 0.5388 (  9396 PWs)   bands (ev):

   -60.5160 -60.5153 -30.7644 -30.7625 -30.5312 -30.5275 -30.3333 -30.3331
    -6.0436  -5.9054  -5.6944  -5.6118   5.7947   5.8767   6.0988   6.2819
     6.9053   7.5008   8.3479   8.5158   8.8210   9.3851   9.8102  10.3941
    11.7388  12.3480  12.5565  12.8237

          k = 0.3329 0.3329-0.7184 (  9398 PWs)   bands (ev):

   -60.5142 -60.5142 -30.7633 -30.7604 -30.5555 -30.5518 -30.3295 -30.3289
    -6.0503  -5.8165  -5.7641  -5.5214   5.6443   6.1594   6.1718   6.2987
     6.6297   7.7716   8.2267   8.2689   9.0914   9.5005   9.9591  10.3297
    11.6770  12.3484  12.3676  12.5815

          k = 0.3329-0.4994 0.0000 (  9442 PWs)   bands (ev):

   -60.5238 -60.5238 -30.7746 -30.7746 -30.3848 -30.3848 -30.3561 -30.3561
    -6.5096  -6.5096  -5.3560  -5.3560   4.8745   4.8745   6.1473   6.1473
     7.8730   7.8730   8.9001   8.9001   9.3013   9.3013   9.8252   9.8252
    11.9257  11.9257  11.9769  11.9769

          k = 0.3329-0.4994 0.1796 (  9420 PWs)   bands (ev):

   -60.5224 -60.5224 -30.7726 -30.7726 -30.4101 -30.4101 -30.3521 -30.3521
    -6.4045  -6.4045  -5.4259  -5.4259   5.0419   5.0419   6.0929   6.0929
     8.0413   8.0413   8.7416   8.7416   9.1142   9.1142   9.6745   9.6745
    12.0336  12.0336  12.3049  12.3049

          k = 0.3329-0.4994 0.3592 (  9400 PWs)   bands (ev):

   -60.5190 -60.5190 -30.7679 -30.7679 -30.4703 -30.4703 -30.3427 -30.3427
    -6.1529  -6.1529  -5.5826  -5.5826   5.4600   5.4600   6.0665   6.0665
     7.6710   7.6710   8.6128   8.6128   9.0927   9.0927   9.7020   9.7020
    12.3464  12.3464  12.5337  12.5337

          k = 0.3329-0.4994 0.5388 (  9402 PWs)   bands (ev):

   -60.5156 -60.5156 -30.7633 -30.7633 -30.5296 -30.5296 -30.3333 -30.3333
    -5.9526  -5.9526  -5.6727  -5.6727   5.8210   5.8210   6.1368   6.1368
     7.1523   7.1523   8.4550   8.4550   9.1493   9.1493  10.1919  10.1919
    12.2468  12.2468  12.4411  12.4411

          k = 0.3329-0.4994-0.7184 (  9380 PWs)   bands (ev):

   -60.5142 -60.5142 -30.7615 -30.7615 -30.5540 -30.5540 -30.3294 -30.3294
    -5.9392  -5.9392  -5.6357  -5.6357   5.8635   5.8635   6.2074   6.2074
     7.0887   7.0887   8.2514   8.2514   9.3430   9.3430  10.3764  10.3764
    12.0685  12.0685  12.3652  12.3652

          k =-0.4994-0.4994 0.0000 (  9432 PWs)   bands (ev):

   -60.5238 -60.5238 -30.7757 -30.7757 -30.3848 -30.3848 -30.3552 -30.3552
    -6.5415  -6.5415  -5.3039  -5.3039   4.6708   4.6708   6.1012   6.1012
     8.4296   8.4296   8.5255   8.5255   9.5253   9.5253  10.1356  10.1356
    11.6157  11.6157  11.6606  11.6606

          k =-0.4994-0.4994 0.1796 (  9416 PWs)   bands (ev):

   -60.5224 -60.5224 -30.7735 -30.7735 -30.4100 -30.4100 -30.3515 -30.3515
    -6.4350  -6.4350  -5.3779  -5.3779   4.8458   4.8458   6.0408   6.0408
     8.6272   8.6272   8.6972   8.6972   8.9641   8.9641   9.8118   9.8118
    11.9090  11.9090  12.0154  12.0154

          k =-0.4994-0.4994 0.3592 (  9388 PWs)   bands (ev):

   -60.5190 -60.5190 -30.7681 -30.7681 -30.4704 -30.4704 -30.3425 -30.3425
    -6.1722  -6.1722  -5.5526  -5.5526   5.3077   5.3077   5.9866   5.9866
     7.9655   7.9655   8.8234   8.8234   8.9018   8.9018   9.7412   9.7412
    12.2523  12.2523  12.5969  12.5969

          k =-0.4994-0.4994 0.5388 (  9416 PWs)   bands (ev):

   -60.5156 -60.5156 -30.7628 -30.7628 -30.5302 -30.5302 -30.3335 -30.3335
    -5.9003  -5.9003  -5.7218  -5.7218   5.8539   5.8539   6.0197   6.0197
     7.1470   7.1470   8.4232   8.4232   9.2380   9.2380  10.2526  10.2526
    12.3662  12.3662  12.6943  12.6943

          k =-0.4994-0.4994-0.7184 (  9368 PWs)   bands (ev):

   -60.5142 -60.5142 -30.7606 -30.7606 -30.5548 -30.5548 -30.3297 -30.3297
    -5.7904  -5.7904  -5.7847  -5.7847   6.0556   6.0556   6.1394   6.1394
     6.8040   6.8040   8.2398   8.2398   9.4065   9.4065  10.4768  10.4768
    12.3645  12.3645  12.4650  12.4650

     highest occupied level (ev):    13.5802

!    total energy              =    -505.05566564 Ry
     estimated scf accuracy    <          6.9E-09 Ry

     The total energy is the sum of the following terms:
     one-electron contribution =    -165.58332647 Ry
     hartree contribution      =     113.12137889 Ry
     xc contribution           =     -67.43523961 Ry
     ewald contribution        =    -385.07929224 Ry
     DFT-D3 Dispersion         =      -0.07918620 Ry

     convergence has been achieved in   9 iterations

     Forces acting on atoms (cartesian axes, Ry/au):

     atom    1 type  1   force =     0.00000000    0.00000000   -0.00000000
     atom    2 type  1   force =     0.00000000    0.00000000    0.00000000
     atom    3 type  2   force =     0.00042687    0.00042687   -0.00000000
     atom    4 type  2   force =    -0.00042687   -0.00042687   -0.00000000
     atom    5 type  2   force =     0.00042687   -0.00042687    0.00000000
     atom    6 type  2   force =    -0.00042687    0.00042687    0.00000000

     Total force =     0.001207     Total SCF correction =     0.000045


     Computing stress (Cartesian axis) and pressure

          total   stress  (Ry/bohr**3)                   (kbar)     P=        0.32
   0.00000256   0.00000000   0.00000000            0.38        0.00        0.00
   0.00000000   0.00000256   0.00000000            0.00        0.38        0.00
   0.00000000   0.00000000   0.00000144            0.00        0.00        0.21

     Energy error            =      9.4E-06 Ry
     Gradient error          =      4.3E-04 Ry/Bohr
     Cell gradient error     =      3.8E-01 kbar

     bfgs converged in   8 scf cycles and   7 bfgs steps
     (criteria: energy <  1.0E-04 Ry, force <  1.0E-03 Ry/Bohr, cell <  5.0E-01 kbar)

     End of BFGS Geometry Optimization

     Final enthalpy           =    -505.0556656376 Ry

     File ./pwscf.bfgs deleted, as requested
Begin final coordinates
     new unit-cell volume =    428.14069 a.u.^3 (    63.44390 Ang^3 )
     density =      6.96567 g/cm^3

CELL_PARAMETERS (angstrom)
   4.502517080   0.000000000   0.000000000
   0.000000000   4.502517080   0.000000000
   0.000000000   0.000000000   3.129530345

ATOMIC_POSITIONS (angstrom)
Ru            0.0000000000        0.0000000000       -0.0000000000
Ru            2.2512585398        2.2512585398        1.5647651723
O             1.3834245589        1.3834245589       -0.0000000000
O             3.1190925206        3.1190925206       -0.0000000000
O             3.6346830987        0.8678339809        1.5647651723
O             0.8678339809        3.6346830987        1.5647651723
End final coordinates



     Writing config-only to output data dir ./pwscf.save/

     Final scf calculation at the relaxed structure.
     The G-vectors are recalculated for the final unit cell
     Results may differ from those at the preceding step.
 
     Parallelization info
     --------------------
     sticks:   dense  smooth     PW     G-vecs:    dense   smooth      PW
     Min         153     153     43                 4225     4225     640
     Max         154     154     45                 4228     4228     642
     Sum        2757    2757    793                76077    76077   11535
 
     Using Slab Decomposition
 


     bravais-lattice index     =            0
     lattice parameter (alat)  =       8.4977  a.u.
     unit-cell volume          =     428.1407 (a.u.)^3
     number of atoms/cell      =            6
     number of atomic types    =            2
     number of electrons       =        56.00
     number of Kohn-Sham states=           28
     kinetic-energy cutoff     =     120.0000  Ry
     charge density cutoff     =     480.0000  Ry
     scf convergence threshold =      1.0E-08
     mixing beta               =       0.7000
     number of iterations used =            8  plain     mixing
     press convergence thresh. =      5.0E-01
     Exchange-correlation= PBE
                           (   1   4   3   4   0   0   0)

     celldm(1)=   8.497720  celldm(2)=   0.000000  celldm(3)=   0.000000
     celldm(4)=   0.000000  celldm(5)=   0.000000  celldm(6)=   0.000000

     crystal axes: (cart. coord. in units of alat)
               a(1) = (   1.001271   0.000000   0.000000 )  
               a(2) = (   0.000000   1.001271   0.000000 )  
               a(3) = (   0.000000   0.000000   0.695946 )  

     reciprocal axes: (cart. coord. in units 2 pi/alat)
               b(1) = (  0.998730  0.000000  0.000000 )  
               b(2) = (  0.000000  0.998730  0.000000 )  
               b(3) = (  0.000000  0.000000  1.436893 )  


     PseudoPot. # 1 for Ru read from file:
     ./Ru_ONCV_PBE-1.2.upf
     MD5 check sum: 197966c748556f6a714a34a8c7eb0781
     Pseudo is Norm-conserving, Zval = 16.0
     Generated using ONCVPSP code by D. R. Hamann
     Using radial grid of  602 points,  6 beta functions with: 
                l(1) =   0
                l(2) =   0
                l(3) =   1
                l(4) =   1
                l(5) =   2
                l(6) =   2

     PseudoPot. # 2 for O  read from file:
     ./O_ONCV_PBE-1.2.upf
     MD5 check sum: e36c48deb68f4e355fffe4602be2c42c
     Pseudo is Norm-conserving, Zval =  6.0
     Generated using ONCVPSP code by D. R. Hamann
     Using radial grid of  602 points,  4 beta functions with: 
                l(1) =   0
                l(2) =   0
                l(3) =   1
                l(4) =   1

     atomic species   valence    mass     pseudopotential
        Ru            16.00   101.07000     Ru( 1.00)
        O              6.00    15.99900     O ( 1.00)

     16 Sym. Ops., with inversion, found ( 8 have fractional translation)



   Cartesian axes

     site n.     atom                  positions (alat units)
         1           Ru  tau(   1) = (   0.0000000   0.0000000  -0.0000000  )
         2           Ru  tau(   2) = (   0.5006357   0.5006357   0.3479730  )
         3           O   tau(   3) = (   0.3076465   0.3076465  -0.0000000  )
         4           O   tau(   4) = (   0.6936249   0.6936249  -0.0000000  )
         5           O   tau(   5) = (   0.8082821   0.1929892   0.3479730  )
         6           O   tau(   6) = (   0.1929892   0.8082821   0.3479730  )

     --------------------------------------------
     DFT-D3 Dispersion Correction (3-body terms):
     --------------------------------------------
       Reference C6 values for interpolation: 

         atom   Coordination number   C6
         O          0.000            31.01
         O          0.993            25.63
         O          1.989            20.74
         Ru         0.000          1196.40
         Ru         1.858           758.53
         Ru         8.889           478.01

       Values used:

         atom   Coordination number  R0_AB[au]  C6      C8
         Ru         7.180            3.271    478.01  48511.62
         Ru         7.180            3.271    478.01  48511.62
         O          2.910            2.345     20.74    418.58
         O          2.910            2.345     20.74    418.58
         O          2.910            2.345     20.74    418.58
         O          2.910            2.345     20.74    418.58

         Molecular C6 ( Ry / a.u.^6 ) =      3773.04


     number of k points=    50
                       cart. coord. in units 2pi/alat
        k(    1) = (   0.0000000   0.0000000   0.0000000), wk =   0.0069444
        k(    2) = (   0.0000000   0.0000000   0.1796116), wk =   0.0138889
        k(    3) = (   0.0000000   0.0000000   0.3592232), wk =   0.0138889
        k(    4) = (   0.0000000   0.0000000   0.5388348), wk =   0.0138889
        k(    5) = (   0.0000000   0.0000000  -0.7184465), wk =   0.0069444
        k(    6) = (   0.0000000   0.1664550   0.0000000), wk =   0.0277778
        k(    7) = (   0.0000000   0.1664550   0.1796116), wk =   0.0555556
        k(    8) = (   0.0000000   0.1664550   0.3592232), wk =   0.0555556
        k(    9) = (   0.0000000   0.1664550   0.5388348), wk =   0.0555556
        k(   10) = (   0.0000000   0.1664550  -0.7184465), wk =   0.0277778
        k(   11) = (   0.0000000   0.3329101   0.0000000), wk =   0.0277778
        k(   12) = (   0.0000000   0.3329101   0.1796116), wk =   0.0555556
        k(   13) = (   0.0000000   0.3329101   0.3592232), wk =   0.0555556
        k(   14) = (   0.0000000   0.3329101   0.5388348), wk =   0.0555556
        k(   15) = (   0.0000000   0.3329101  -0.7184465), wk =   0.0277778
        k(   16) = (   0.0000000  -0.4993651   0.0000000), wk =   0.0138889
        k(   17) = (   0.0000000  -0.4993651   0.1796116), wk =   0.0277778
        k(   18) = (   0.0000000  -0.4993651   0.3592232), wk =   0.0277778
        k(   19) = (   0.0000000  -0.4993651   0.5388348), wk =   0.0277778
        k(   20) = (   0.0000000  -0.4993651  -0.7184465), wk =   0.0138889
        k(   21) = (   0.1664550   0.1664550   0.0000000), wk =   0.0277778
        k(   22) = (   0.1664550   0.1664550   0.1796116), wk =   0.0555556
        k(   23) = (   0.1664550   0.1664550   0.3592232), wk =   0.0555556
        k(   24) = (   0.1664550   0.1664550   0.5388348), wk =   0.0555556
        k(   25) = (   0.1664550   0.1664550  -0.7184465), wk =   0.0277778
        k(   26) = (   0.1664550   0.3329101   0.0000000), wk =   0.0555556
        k(   27) = (   0.1664550   0.3329101   0.1796116), wk =   0.1111111
        k(   28) = (   0.1664550   0.3329101   0.3592232), wk =   0.1111111
        k(   29) = (   0.1664550   0.3329101   0.5388348), wk =   0.1111111
        k(   30) = (   0.1664550   0.3329101  -0.7184465), wk =   0.0555556
        k(   31) = (   0.1664550  -0.4993651   0.0000000), wk =   0.0277778
        k(   32) = (   0.1664550  -0.4993651   0.1796116), wk =   0.0555556
        k(   33) = (   0.1664550  -0.4993651   0.3592232), wk =   0.0555556
        k(   34) = (   0.1664550  -0.4993651   0.5388348), wk =   0.0555556
        k(   35) = (   0.1664550  -0.4993651  -0.7184465), wk =   0.0277778
        k(   36) = (   0.3329101   0.3329101   0.0000000), wk =   0.0277778
        k(   37) = (   0.3329101   0.3329101   0.1796116), wk =   0.0555556
        k(   38) = (   0.3329101   0.3329101   0.3592232), wk =   0.0555556
        k(   39) = (   0.3329101   0.3329101   0.5388348), wk =   0.0555556
        k(   40) = (   0.3329101   0.3329101  -0.7184465), wk =   0.0277778
        k(   41) = (   0.3329101  -0.4993651   0.0000000), wk =   0.0277778
        k(   42) = (   0.3329101  -0.4993651   0.1796116), wk =   0.0555556
        k(   43) = (   0.3329101  -0.4993651   0.3592232), wk =   0.0555556
        k(   44) = (   0.3329101  -0.4993651   0.5388348), wk =   0.0555556
        k(   45) = (   0.3329101  -0.4993651  -0.7184465), wk =   0.0277778
        k(   46) = (  -0.4993651  -0.4993651   0.0000000), wk =   0.0069444
        k(   47) = (  -0.4993651  -0.4993651   0.1796116), wk =   0.0138889
        k(   48) = (  -0.4993651  -0.4993651   0.3592232), wk =   0.0138889
        k(   49) = (  -0.4993651  -0.4993651   0.5388348), wk =   0.0138889
        k(   50) = (  -0.4993651  -0.4993651  -0.7184465), wk =   0.0069444

     Dense  grid:    76077 G-vectors     FFT dimensions: (  60,  60,  48)

     Estimated max dynamical RAM per process >      17.21 MB

     Estimated total dynamical RAM >     601.05 MB

     Initial potential from superposition of free atoms

     starting charge      55.8739, renormalised to      56.0000
     Starting wfcs are random

     total cpu time spent up to now is       96.3 secs

     per-process dynamical memory:   142.2 Mb

     Self-consistent Calculation

     iteration #  1     ecut=   120.00 Ry     beta= 0.70
     Davidson diagonalization with overlap
     c_bands:  2 eigenvalues not converged
     c_bands:  1 eigenvalues not converged
     c_bands:  4 eigenvalues not converged
     c_bands:  1 eigenvalues not converged
     c_bands:  3 eigenvalues not converged
     c_bands:  1 eigenvalues not converged
     c_bands:  1 eigenvalues not converged
     c_bands:  3 eigenvalues not converged
     c_bands:  1 eigenvalues not converged
     c_bands:  2 eigenvalues not converged
     c_bands:  1 eigenvalues not converged
     c_bands:  1 eigenvalues not converged
     c_bands:  1 eigenvalues not converged
     c_bands:  3 eigenvalues not converged
     c_bands:  1 eigenvalues not converged
     c_bands:  2 eigenvalues not converged
     c_bands:  2 eigenvalues not converged
     c_bands:  3 eigenvalues not converged
     ethr =  1.00E-06,  avg # of iterations = 39.2

     total cpu time spent up to now is       99.8 secs

     total energy              =    -504.43751641 Ry
     estimated scf accuracy    <       1.14750447 Ry

     iteration #  2     ecut=   120.00 Ry     beta= 0.70
     Davidson diagonalization with overlap
     ethr =  2.05E-03,  avg # of iterations =  6.2

     total cpu time spent up to now is      100.5 secs

     total energy              =    -504.21726853 Ry
     estimated scf accuracy    <       5.23421755 Ry

     iteration #  3     ecut=   120.00 Ry     beta= 0.70
     Davidson diagonalization with overlap
     ethr =  2.05E-03,  avg # of iterations =  6.0

     total cpu time spent up to now is      101.2 secs

     total energy              =    -505.03452002 Ry
     estimated scf accuracy    <       0.01463591 Ry

     iteration #  4     ecut=   120.00 Ry     beta= 0.70
     Davidson diagonalization with overlap
     ethr =  2.61E-05,  avg # of iterations =  4.3

     total cpu time spent up to now is      101.7 secs

     total energy              =    -505.05122579 Ry
     estimated scf accuracy    <       0.01477710 Ry

     iteration #  5     ecut=   120.00 Ry     beta= 0.70
     Davidson diagonalization with overlap
     ethr =  2.61E-05,  avg # of iterations =  4.6

     total cpu time spent up to now is      102.3 secs

     total energy              =    -505.05500646 Ry
     estimated scf accuracy    <       0.00043019 Ry

     iteration #  6     ecut=   120.00 Ry     beta= 0.70
     Davidson diagonalization with overlap
     ethr =  7.68E-07,  avg # of iterations =  5.0

     total cpu time spent up to now is      102.9 secs

     total energy              =    -505.05552222 Ry
     estimated scf accuracy    <       0.00033903 Ry

     iteration #  7     ecut=   120.00 Ry     beta= 0.70
     Davidson diagonalization with overlap
     ethr =  6.05E-07,  avg # of iterations =  4.4

     total cpu time spent up to now is      103.4 secs

     total energy              =    -505.05559786 Ry
     estimated scf accuracy    <       0.00000147 Ry

     iteration #  8     ecut=   120.00 Ry     beta= 0.70
     Davidson diagonalization with overlap
     c_bands:  1 eigenvalues not converged
     c_bands:  1 eigenvalues not converged
     ethr =  2.63E-09,  avg # of iterations =  8.8

     total cpu time spent up to now is      104.3 secs

     total energy              =    -505.05564582 Ry
     estimated scf accuracy    <       0.00001613 Ry

     iteration #  9     ecut=   120.00 Ry     beta= 0.70
     Davidson diagonalization with overlap
     ethr =  2.63E-09,  avg # of iterations =  1.5

     total cpu time spent up to now is      104.7 secs

     total energy              =    -505.05564689 Ry
     estimated scf accuracy    <       0.00001816 Ry

     iteration # 10     ecut=   120.00 Ry     beta= 0.70
     Davidson diagonalization with overlap
     ethr =  2.63E-09,  avg # of iterations =  1.0

     total cpu time spent up to now is      105.0 secs

     total energy              =    -505.05564721 Ry
     estimated scf accuracy    <       0.00001805 Ry

     iteration # 11     ecut=   120.00 Ry     beta= 0.70
     Davidson diagonalization with overlap
     ethr =  2.63E-09,  avg # of iterations =  1.5

     total cpu time spent up to now is      105.4 secs

     total energy              =    -505.05563860 Ry
     estimated scf accuracy    <       0.00001930 Ry

     iteration # 12     ecut=   120.00 Ry     beta= 0.70
     Davidson diagonalization with overlap
     ethr =  2.63E-09,  avg # of iterations =  7.7

     total cpu time spent up to now is      106.2 secs

     total energy              =    -505.05564319 Ry
     estimated scf accuracy    <       0.00001683 Ry

     iteration # 13     ecut=   120.00 Ry     beta= 0.70
     Davidson diagonalization with overlap
     ethr =  2.63E-09,  avg # of iterations =  2.3

     total cpu time spent up to now is      106.7 secs

     total energy              =    -505.05563904 Ry
     estimated scf accuracy    <       0.00001168 Ry

     iteration # 14     ecut=   120.00 Ry     beta= 0.70
     Davidson diagonalization with overlap
     ethr =  2.63E-09,  avg # of iterations =  6.2

     total cpu time spent up to now is      107.4 secs

     total energy              =    -505.05564128 Ry
     estimated scf accuracy    <       0.00000050 Ry

     iteration # 15     ecut=   120.00 Ry     beta= 0.70
     Davidson diagonalization with overlap
     ethr =  8.87E-10,  avg # of iterations =  2.1

     total cpu time spent up to now is      107.8 secs

     total energy              =    -505.05564129 Ry
     estimated scf accuracy    <       0.00000005 Ry

     iteration # 16     ecut=   120.00 Ry     beta= 0.70
     Davidson diagonalization with overlap
     ethr =  8.49E-11,  avg # of iterations =  6.7

     total cpu time spent up to now is      108.5 secs

     total energy              =    -505.05564131 Ry
     estimated scf accuracy    <       0.00000013 Ry

     iteration # 17     ecut=   120.00 Ry     beta= 0.70
     Davidson diagonalization with overlap
     ethr =  8.49E-11,  avg # of iterations =  3.8

     total cpu time spent up to now is      109.0 secs

     total energy              =    -505.05564131 Ry
     estimated scf accuracy    <       0.00000002 Ry

     iteration # 18     ecut=   120.00 Ry     beta= 0.70
     Davidson diagonalization with overlap
     ethr =  4.12E-11,  avg # of iterations =  4.7

     total cpu time spent up to now is      109.5 secs

     End of self-consistent calculation

          k = 0.0000 0.0000 0.0000 (  9485 PWs)   bands (ev):

   -60.5279 -60.5215 -30.7716 -30.7716 -30.3985 -30.3751 -30.3578 -30.3578
    -7.1518  -6.1329  -5.1592  -5.1592   4.6030   4.7211   5.8933   6.1891
     6.1891   8.7476   8.8264   8.8264  10.2159  10.6979  10.6979  11.1920
    11.4792  11.5848  11.6250  11.6250

          k = 0.0000 0.0000 0.1796 (  9477 PWs)   bands (ev):

   -60.5263 -60.5203 -30.7695 -30.7695 -30.4228 -30.4013 -30.3540 -30.3540
    -7.0179  -6.0600  -5.2394  -5.2394   4.7549   4.9263   6.0540   6.2582
     6.2582   8.2959   8.9755   8.9755   9.5141  10.0970  10.0970  11.0191
    11.5866  11.9438  12.2206  12.2206

          k = 0.0000 0.0000 0.3592 (  9477 PWs)   bands (ev):

   -60.5222 -60.5176 -30.7645 -30.7645 -30.4806 -30.4644 -30.3448 -30.3448
    -6.6675  -5.9017  -5.4277  -5.4277   5.1393   5.4548   6.4672   6.4672
     6.5258   7.4402   8.4607   9.0997   9.0997   9.4804   9.4804  10.3177
    11.8533  12.1593  12.4258  13.0123

          k = 0.0000 0.0000 0.5388 (  9488 PWs)   bands (ev):

   -60.5178 -60.5153 -30.7595 -30.7595 -30.5366 -30.5280 -30.3354 -30.3354
    -6.2399  -5.8056  -5.6088  -5.6088   5.5456   5.8998   6.7735   6.7735
     6.9605   7.2754   7.6683   8.5139   8.5139   9.3092   9.6609   9.6609
    12.1207  12.3356  12.5276  13.5805

          k = 0.0000 0.0000-0.7184 (  9492 PWs)   bands (ev):

   -60.5151 -60.5151 -30.7575 -30.7575 -30.5569 -30.5569 -30.3316 -30.3316
    -5.9119  -5.9119  -5.6819  -5.6819   5.7990   5.7990   6.9657   6.9657
     7.2159   7.2159   8.2085   8.2085   8.2391   8.2391   9.7477   9.7477
    12.2838  12.2838  12.9415  12.9415

          k = 0.0000 0.1665 0.0000 (  9520 PWs)   bands (ev):

   -60.5275 -60.5219 -30.7710 -30.7709 -30.3969 -30.3767 -30.3588 -30.3587
    -7.0514  -6.1112  -5.2832  -5.2200   4.8004   4.9500   6.0802   6.2107
     6.2229   8.4652   8.5874   8.6716   9.8242  10.0332  10.3650  11.0773
    11.7688  11.8398  11.9825  11.9948

          k = 0.0000 0.1665 0.1796 (  9498 PWs)   bands (ev):

   -60.5259 -60.5207 -30.7691 -30.7691 -30.4213 -30.4028 -30.3547 -30.3547
    -6.9225  -6.0342  -5.3575  -5.2947   4.9482   5.1315   6.1088   6.2672
     6.4397   8.1449   8.5335   8.7909   9.2213   9.9293  10.0040  10.9535
    11.6367  12.1698  12.1925  12.4916

          k = 0.0000 0.1665 0.3592 (  9487 PWs)   bands (ev):

   -60.5219 -60.5179 -30.7647 -30.7646 -30.4792 -30.4653 -30.3451 -30.3450
    -6.5913  -5.8751  -5.5192  -5.4655   5.3098   5.5773   6.3154   6.4551
     6.9427   7.3167   7.9541   9.0977   9.1882   9.3389   9.3444  10.4964
    11.6318  12.4074  12.5744  12.8591

          k = 0.0000 0.1665 0.5388 (  9496 PWs)   bands (ev):

   -60.5176 -60.5155 -30.7604 -30.7603 -30.5353 -30.5280 -30.3355 -30.3354
    -6.2134  -5.8532  -5.6070  -5.5901   5.6427   5.9510   6.3057   6.6510
     7.2514   7.4341   7.7093   8.5386   8.6996   9.4277   9.4891   9.6417
    12.0597  12.2540  12.5633  13.0601

          k = 0.0000 0.1665-0.7184 (  9502 PWs)   bands (ev):

   -60.5151 -60.5151 -30.7586 -30.7586 -30.5560 -30.5560 -30.3315 -30.3315
    -5.9755  -5.9755  -5.6130  -5.6130   5.8042   5.8042   6.5103   6.5103
     7.5890   7.5890   8.2160   8.2160   8.6162   8.6162   9.5846   9.5846
    12.3030  12.3030  12.6149  12.6149

          k = 0.0000 0.3329 0.0000 (  9506 PWs)   bands (ev):

   -60.5263 -60.5231 -30.7698 -30.7697 -30.3926 -30.3809 -30.3607 -30.3606
    -6.7719  -6.1237  -5.5198  -5.3718   5.3181   5.4831   6.2633   6.2870
     6.6594   7.7731   7.8796   8.5995   8.8530   9.2091  10.2089  10.7721
    12.2040  12.2928  12.4884  12.6341

          k = 0.0000 0.3329 0.1796 (  9505 PWs)   bands (ev):

   -60.5248 -60.5218 -30.7683 -30.7682 -30.4173 -30.4068 -30.3561 -30.3560
    -6.6565  -6.0263  -5.5927  -5.4348   5.4663   5.6283   6.2378   6.2704
     6.9071   7.8487   8.0393   8.0796   8.4700   9.2522  10.1911  10.7142
    12.0794  12.3058  12.5393  12.8418

          k = 0.0000 0.3329 0.3592 (  9524 PWs)   bands (ev):

   -60.5210 -60.5188 -30.7649 -30.7648 -30.4757 -30.4679 -30.3458 -30.3457
    -6.3792  -5.8012  -5.7599  -5.5635   5.7608   5.8869   6.3523   6.4351
     7.0739   7.2555   7.6259   8.4543   8.6001   9.2511   9.8090  10.4908
    11.6722  12.5211  12.8121  12.8135

          k = 0.0000 0.3329 0.5388 (  9506 PWs)   bands (ev):

   -60.5172 -60.5159 -30.7620 -30.7618 -30.5324 -30.5283 -30.3355 -30.3355
    -6.1436  -5.9484  -5.5982  -5.5745   5.8125   5.9286   6.1326   6.4347
     7.2304   7.5699   8.0005   8.7606   8.8358   9.0013   9.4537  10.1790
    11.5224  12.3246  12.4994  12.6235

          k = 0.0000 0.3329-0.7184 (  9538 PWs)   bands (ev):

   -60.5151 -60.5151 -30.7609 -30.7609 -30.5542 -30.5542 -30.3312 -30.3312
    -6.0580  -6.0580  -5.5198  -5.5198   5.6798   5.6798   6.3266   6.3266
     7.7736   7.7736   8.3257   8.3257   9.0925   9.0925   9.5684   9.5684
    11.8774  11.8774  12.3446  12.3446

          k = 0.0000-0.4994 0.0000 (  9510 PWs)   bands (ev):

   -60.5247 -60.5247 -30.7691 -30.7691 -30.3868 -30.3868 -30.3616 -30.3616
    -6.3929  -6.3929  -5.5302  -5.5302   5.7788   5.7788   6.3056   6.3056
     7.3635   7.3635   7.6368   7.6368   8.7599   8.7599  10.4184  10.4184
    12.5255  12.5255  12.6080  12.6080

          k = 0.0000-0.4994 0.1796 (  9524 PWs)   bands (ev):

   -60.5233 -60.5233 -30.7679 -30.7679 -30.4121 -30.4121 -30.3568 -30.3568
    -6.2902  -6.2902  -5.5898  -5.5898   5.9900   5.9900   6.1951   6.1951
     7.3851   7.3851   7.7944   7.7944   8.4283   8.4283  10.4694  10.4694
    12.3232  12.3232  12.9061  12.9061

          k = 0.0000-0.4994 0.3592 (  9506 PWs)   bands (ev):

   -60.5199 -60.5199 -30.7650 -30.7650 -30.4716 -30.4716 -30.3461 -30.3461
    -6.0783  -6.0783  -5.6866  -5.6866   6.1222   6.1222   6.4732   6.4732
     6.8263   6.8263   8.1063   8.1063   8.6334   8.6334  10.2074  10.2074
    12.1226  12.1226  12.9474  12.9474

          k = 0.0000-0.4994 0.5388 (  9508 PWs)   bands (ev):

   -60.5165 -60.5165 -30.7627 -30.7627 -30.5298 -30.5298 -30.3355 -30.3355
    -6.0502  -6.0502  -5.5825  -5.5825   5.8406   5.8406   6.2952   6.2952
     7.3992   7.3992   8.3495   8.3495   8.9207   8.9207  10.0385  10.0385
    11.6288  11.6288  12.6186  12.6186

          k = 0.0000-0.4994-0.7184 (  9512 PWs)   bands (ev):

   -60.5151 -60.5151 -30.7620 -30.7620 -30.5534 -30.5534 -30.3311 -30.3311
    -6.0901  -6.0901  -5.4823  -5.4823   5.5720   5.5720   6.3513   6.3513
     7.8068   7.8068   8.6001   8.6001   8.7209   8.7209  10.1802  10.1802
    11.2946  11.2946  12.3569  12.3569

          k = 0.1665 0.1665 0.0000 (  9521 PWs)   bands (ev):

   -60.5271 -60.5222 -30.7721 -30.7695 -30.3956 -30.3780 -30.3606 -30.3578
    -6.9701  -6.0995  -5.4351  -5.1962   4.6577   5.4333   6.1669   6.2535
     6.2887   7.8540   8.6142   8.7443   9.7559   9.7961  10.2223  10.9639
    11.6336  11.6459  12.3200  12.4072

          k = 0.1665 0.1665 0.1796 (  9497 PWs)   bands (ev):

   -60.5255 -60.5210 -30.7700 -30.7680 -30.4200 -30.4041 -30.3560 -30.3541
    -6.8450  -6.0155  -5.5027  -5.2748   4.8310   5.5697   6.0790   6.3571
     6.5592   7.9013   8.1764   8.8770   9.0226   9.9492  10.0281  10.7789
    11.6529  11.8758  12.4530  12.6230

          k = 0.1665 0.1665 0.3592 (  9483 PWs)   bands (ev):

   -60.5216 -60.5182 -30.7649 -30.7647 -30.4782 -30.4661 -30.3457 -30.3449
    -6.5275  -5.8470  -5.6316  -5.4595   5.2764   5.8363   6.1688   6.6283
     7.0858   7.1059   8.0250   8.5406   8.9885   9.4425   9.7038  10.5851
    11.5207  12.2445  12.7376  12.9444

          k = 0.1665 0.1665 0.5388 (  9502 PWs)   bands (ev):

   -60.5175 -60.5156 -30.7618 -30.7598 -30.5349 -30.5278 -30.3356 -30.3354
    -6.1868  -5.8697  -5.6375  -5.5685   5.6952   6.0335   6.2029   6.3940
     7.2184   7.6508   7.8357   8.4853   8.7379   9.2914   9.5532   9.8595
    11.8663  12.2849  12.6015  13.1347

          k = 0.1665 0.1665-0.7184 (  9502 PWs)   bands (ev):

   -60.5151 -60.5151 -30.7608 -30.7577 -30.5575 -30.5537 -30.3318 -30.3311
    -6.0665  -5.8796  -5.7094  -5.5137   5.6669   6.0065   6.3013   6.5363
     6.9631   8.2045   8.2488   8.5102   8.5178   9.0608   9.1665   9.7223
    12.1924  12.3065  12.3301  12.8199

          k = 0.1665 0.3329 0.0000 (  9499 PWs)   bands (ev):

   -60.5261 -60.5233 -30.7717 -30.7691 -30.3918 -30.3817 -30.3616 -30.3588
    -6.7452  -6.1670  -5.5630  -5.2965   4.8681   5.8219   6.1813   6.3066
     6.7855   7.4087   8.3240   8.6424   9.2351   9.3890   9.8843  10.6135
    11.9103  11.9717  12.6137  12.6244

          k = 0.1665 0.3329 0.1796 (  9506 PWs)   bands (ev):

   -60.5246 -60.5220 -30.7698 -30.7679 -30.4167 -30.4074 -30.3568 -30.3547
    -6.6304  -6.0675  -5.6306  -5.3681   5.0342   6.0294   6.1199   6.2023
     7.0303   7.6877   7.9115   8.4012   8.9306   9.4228   9.9563  10.4676
    11.9693  12.0938  12.5463  12.9399

          k = 0.1665 0.3329 0.3592 (  9500 PWs)   bands (ev):

   -60.5209 -60.5189 -30.7652 -30.7650 -30.4755 -30.4683 -30.3461 -30.3452
    -6.3516  -5.8491  -5.7648  -5.5290   5.4489   6.1003   6.1617   6.5356
     6.8617   7.5598   7.7879   8.2951   9.0047   9.1678   9.7749  10.4130
    11.7150  12.3626  12.6615  13.0140

          k = 0.1665 0.3329 0.5388 (  9495 PWs)   bands (ev):

   -60.5171 -60.5160 -30.7627 -30.7608 -30.5330 -30.5283 -30.3357 -30.3355
    -6.1160  -5.9299  -5.6404  -5.5740   5.7926   5.9218   6.2012   6.3052
     7.0241   7.6789   8.1562   8.5931   8.6878   9.2621   9.5916  10.2782
    11.5329  12.3798  12.5231  12.6445

          k = 0.1665 0.3329-0.7184 (  9510 PWs)   bands (ev):

   -60.5151 -60.5151 -30.7620 -30.7590 -30.5565 -30.5528 -30.3318 -30.3311
    -6.0937  -5.9498  -5.6312  -5.4785   5.5868   5.9310   6.2334   6.3459
     7.0780   8.0850   8.2753   8.5419   8.7302   9.4219   9.5379   9.9180
    11.6754  12.2575  12.3380  12.3595

          k = 0.1665-0.4994 0.0000 (  9508 PWs)   bands (ev):

   -60.5247 -60.5247 -30.7703 -30.7703 -30.3868 -30.3868 -30.3606 -30.3606
    -6.4358  -6.4358  -5.4677  -5.4677   5.3936   5.3936   6.2487   6.2487
     7.4673   7.4673   8.2144   8.2144   8.9282   8.9282  10.1592  10.1592
    12.3866  12.3866  12.3902  12.3902

          k = 0.1665-0.4994 0.1796 (  9518 PWs)   bands (ev):

   -60.5233 -60.5233 -30.7687 -30.7687 -30.4120 -30.4120 -30.3561 -30.3561
    -6.3329  -6.3329  -5.5301  -5.5301   5.5518   5.5518   6.2015   6.2015
     7.5700   7.5700   8.2628   8.2628   8.5790   8.5790  10.1989  10.1989
    12.2363  12.2363  12.7462  12.7462

          k = 0.1665-0.4994 0.3592 (  9508 PWs)   bands (ev):

   -60.5199 -60.5199 -30.7653 -30.7653 -30.4718 -30.4718 -30.3458 -30.3458
    -6.1064  -6.1064  -5.6481  -5.6481   5.8390   5.8390   6.2885   6.2885
     7.1514   7.1514   8.3726   8.3726   8.7525   8.7525  10.0288  10.0288
    12.1934  12.1934  12.8116  12.8116

          k = 0.1665-0.4994 0.5388 (  9490 PWs)   bands (ev):

   -60.5165 -60.5165 -30.7622 -30.7622 -30.5303 -30.5303 -30.3357 -30.3357
    -6.0221  -6.0221  -5.6075  -5.6075   5.8238   5.8238   6.2709   6.2709
     7.2554   7.2554   8.4673   8.4673   8.9534   8.9534  10.0949  10.0949
    11.7970  11.7970  12.5585  12.5585

          k = 0.1665-0.4994-0.7184 (  9496 PWs)   bands (ev):

   -60.5151 -60.5151 -30.7612 -30.7612 -30.5542 -30.5542 -30.3315 -30.3315
    -6.0494  -6.0494  -5.5232  -5.5232   5.6511   5.6511   6.3030   6.3030
     7.5775   7.5775   8.3311   8.3311   9.0980   9.0980  10.2243  10.2243
    11.5341  11.5341  12.3596  12.3596

          k = 0.3329 0.3329 0.0000 (  9521 PWs)   bands (ev):

   -60.5255 -60.5238 -30.7731 -30.7705 -30.3897 -30.3838 -30.3606 -30.3578
    -6.6588  -6.3192  -5.4958  -5.2680   4.6681   5.4054   6.1227   6.2360
     7.2169   7.9397   8.5935   8.8945   9.2465   9.5529   9.5659  10.4023
    11.6455  11.6518  12.3990  12.4045

          k = 0.3329 0.3329 0.1796 (  9519 PWs)   bands (ev):

   -60.5240 -60.5225 -30.7709 -30.7690 -30.4147 -30.4092 -30.3561 -30.3541
    -6.5471  -6.2201  -5.5592  -5.3435   4.8433   5.5645   6.0543   6.1889
     7.4681   8.1018   8.2450   8.7039   8.9417   9.6046   9.7217   9.9588
    11.8222  11.9587  12.4195  12.7193

          k = 0.3329 0.3329 0.3592 (  9508 PWs)   bands (ev):

   -60.5205 -60.5193 -30.7657 -30.7655 -30.4743 -30.4698 -30.3459 -30.3451
    -6.2728  -6.0021  -5.6798  -5.5215   5.3057   5.8436   6.0221   6.2750
     7.2132   7.9524   7.9924   8.6973   8.9062   9.3087   9.5615  10.1415
    12.0182  12.1861  12.6597  12.8679

          k = 0.3329 0.3329 0.5388 (  9491 PWs)   bands (ev):

   -60.5168 -60.5162 -30.7623 -30.7604 -30.5331 -30.5293 -30.3360 -30.3358
    -6.0426  -5.9044  -5.6935  -5.6108   5.7954   5.8774   6.0994   6.2826
     6.9055   7.5011   8.3483   8.5163   8.8219   9.3859   9.8109  10.3953
    11.7392  12.3455  12.5540  12.8241

          k = 0.3329 0.3329-0.7184 (  9494 PWs)   bands (ev):

   -60.5151 -60.5151 -30.7613 -30.7583 -30.5573 -30.5536 -30.3322 -30.3316
    -6.0494  -5.8155  -5.7632  -5.5204   5.6448   6.1603   6.1727   6.2994
     6.6298   7.7721   8.2270   8.2695   9.0924   9.5013   9.9599  10.3310
    11.6773  12.3456  12.3647  12.5818

          k = 0.3329-0.4994 0.0000 (  9544 PWs)   bands (ev):

   -60.5246 -60.5246 -30.7725 -30.7725 -30.3867 -30.3867 -30.3587 -30.3587
    -6.5087  -6.5087  -5.3550  -5.3550   4.8750   4.8750   6.1469   6.1469
     7.8739   7.8739   8.9009   8.9009   9.3019   9.3019   9.8263   9.8263
    11.9266  11.9266  11.9750  11.9750

          k = 0.3329-0.4994 0.1796 (  9532 PWs)   bands (ev):

   -60.5233 -60.5233 -30.7705 -30.7705 -30.4120 -30.4120 -30.3548 -30.3548
    -6.4036  -6.4036  -5.4249  -5.4249   5.0424   5.0424   6.0927   6.0927
     8.0420   8.0420   8.7420   8.7420   9.1151   9.1151   9.6754   9.6754
    12.0337  12.0337  12.3039  12.3039

          k = 0.3329-0.4994 0.3592 (  9514 PWs)   bands (ev):

   -60.5199 -60.5199 -30.7658 -30.7658 -30.4721 -30.4721 -30.3454 -30.3454
    -6.1519  -6.1519  -5.5816  -5.5816   5.4606   5.4606   6.0668   6.0668
     7.6712   7.6712   8.6135   8.6135   9.0934   9.0934   9.7029   9.7029
    12.3462  12.3462  12.5328  12.5328

          k = 0.3329-0.4994 0.5388 (  9496 PWs)   bands (ev):

   -60.5165 -60.5165 -30.7612 -30.7612 -30.5315 -30.5315 -30.3360 -30.3360
    -5.9516  -5.9516  -5.6717  -5.6717   5.8217   5.8217   6.1376   6.1376
     7.1525   7.1525   8.4555   8.4555   9.1501   9.1501  10.1928  10.1928
    12.2472  12.2472  12.4386  12.4386

          k = 0.3329-0.4994-0.7184 (  9484 PWs)   bands (ev):

   -60.5151 -60.5151 -30.7594 -30.7594 -30.5558 -30.5558 -30.3321 -30.3321
    -5.9382  -5.9382  -5.6347  -5.6347   5.8642   5.8642   6.2082   6.2082
     7.0890   7.0890   8.2519   8.2519   9.3439   9.3439  10.3774  10.3774
    12.0689  12.0689  12.3624  12.3624

          k =-0.4994-0.4994 0.0000 (  9528 PWs)   bands (ev):

   -60.5246 -60.5246 -30.7736 -30.7736 -30.3867 -30.3867 -30.3578 -30.3578
    -6.5405  -6.5405  -5.3028  -5.3028   4.6714   4.6714   6.1008   6.1008
     8.4307   8.4307   8.5263   8.5263   9.5258   9.5258  10.1367  10.1367
    11.6137  11.6137  11.6615  11.6615

          k =-0.4994-0.4994 0.1796 (  9532 PWs)   bands (ev):

   -60.5232 -60.5232 -30.7714 -30.7714 -30.4119 -30.4119 -30.3541 -30.3541
    -6.4340  -6.4340  -5.3769  -5.3769   4.8464   4.8464   6.0407   6.0407
     8.6279   8.6279   8.6982   8.6982   8.9643   8.9643   9.8128   9.8128
    11.9071  11.9071  12.0164  12.0164

          k =-0.4994-0.4994 0.3592 (  9520 PWs)   bands (ev):

   -60.5199 -60.5199 -30.7661 -30.7661 -30.4723 -30.4723 -30.3452 -30.3452
    -6.1712  -6.1712  -5.5517  -5.5517   5.3084   5.3084   5.9869   5.9869
     7.9656   7.9656   8.8241   8.8241   8.9027   8.9027   9.7421   9.7421
    12.2502  12.2502  12.5981  12.5981

          k =-0.4994-0.4994 0.5388 (  9480 PWs)   bands (ev):

   -60.5165 -60.5165 -30.7607 -30.7607 -30.5321 -30.5321 -30.3362 -30.3362
    -5.8993  -5.8993  -5.7209  -5.7209   5.8548   5.8548   6.0204   6.0204
     7.1471   7.1471   8.4236   8.4236   9.2389   9.2389  10.2534  10.2534
    12.3636  12.3636  12.6947  12.6947

          k =-0.4994-0.4994-0.7184 (  9528 PWs)   bands (ev):

   -60.5151 -60.5151 -30.7585 -30.7585 -30.5567 -30.5567 -30.3324 -30.3324
    -5.7895  -5.7895  -5.7836  -5.7836   6.0565   6.0565   6.1403   6.1403
     6.8041   6.8041   8.2402   8.2402   9.4075   9.4075  10.4776  10.4776
    12.3616  12.3616  12.4653  12.4653

     highest occupied level (ev):    13.5805

!    total energy              =    -505.05564132 Ry
     estimated scf accuracy    <          4.6E-10 Ry

     The total energy is the sum of the following terms:
     one-electron contribution =    -165.58354974 Ry
     hartree contribution      =     113.12201570 Ry
     xc contribution           =     -67.43562884 Ry
     ewald contribution        =    -385.07929224 Ry
     DFT-D3 Dispersion         =      -0.07918620 Ry

     convergence has been achieved in  18 iterations

     Forces acting on atoms (cartesian axes, Ry/au):

     atom    1 type  1   force =     0.00000000    0.00000000    0.00000000
     atom    2 type  1   force =     0.00000000    0.00000000    0.00000000
     atom    3 type  2   force =     0.00084632    0.00084632    0.00000000
     atom    4 type  2   force =    -0.00084632   -0.00084632    0.00000000
     atom    5 type  2   force =     0.00084632   -0.00084632   -0.00000000
     atom    6 type  2   force =    -0.00084632    0.00084632   -0.00000000

     Total force =     0.002394     Total SCF correction =     0.000007


     Computing stress (Cartesian axis) and pressure

          total   stress  (Ry/bohr**3)                   (kbar)     P=        0.28
  -0.00000044   0.00000000   0.00000000           -0.06        0.00        0.00
   0.00000000  -0.00000044   0.00000000            0.00       -0.06        0.00
   0.00000000   0.00000000   0.00000657            0.00        0.00        0.97

 
     init_run     :      0.32s CPU      0.35s WALL (       2 calls)
     electrons    :     98.84s CPU    102.42s WALL (       9 calls)
     update_pot   :      0.73s CPU      0.73s WALL (       7 calls)
     forces       :      2.63s CPU      2.65s WALL (       9 calls)
     force_dftd3  :      2.17s CPU      2.18s WALL (       9 calls)
     stress       :      3.91s CPU      3.92s WALL (       9 calls)
     stres_dftd3  :      2.17s CPU      2.18s WALL (       9 calls)

     Called by init_run:
     wfcinit      :      0.21s CPU      0.22s WALL (       2 calls)
     potinit      :      0.04s CPU      0.04s WALL (       2 calls)
     hinit0       :      0.04s CPU      0.04s WALL (       2 calls)

     Called by electrons:
     c_bands      :     90.21s CPU     93.36s WALL (     167 calls)
     sum_band     :      6.66s CPU      6.86s WALL (     167 calls)
     v_of_rho     :      0.46s CPU      0.51s WALL (     175 calls)
     mix_rho      :      0.19s CPU      0.21s WALL (     167 calls)
     energy_dftd3 :      1.29s CPU      1.30s WALL (       9 calls)

     Called by c_bands:
     init_us_2    :      1.07s CPU      1.16s WALL (    8850 calls)
     init_us_2:cp :      1.06s CPU      1.15s WALL (    8850 calls)
     cegterg      :     78.80s CPU     80.43s WALL (    4211 calls)

     Called by *egterg:
     cdiaghg      :     14.36s CPU     14.59s WALL (   24109 calls)
     h_psi        :     54.02s CPU     55.25s WALL (   24384 calls)
     g_psi        :      0.33s CPU      0.34s WALL (   20123 calls)

     Called by h_psi:
     h_psi:calbec :      2.82s CPU      2.91s WALL (   24384 calls)
     vloc_psi     :     48.78s CPU     49.86s WALL (   24384 calls)
     add_vuspsi   :      1.96s CPU      2.02s WALL (   24384 calls)

     General routines
     calbec       :      3.14s CPU      3.23s WALL (   25509 calls)
     fft          :      0.22s CPU      0.24s WALL (    1821 calls)
     ffts         :      0.03s CPU      0.03s WALL (     167 calls)
     fftw         :     48.70s CPU     49.78s WALL (  923818 calls)
 
     Parallel routines
 
     PWSCF        :   1m46.51s CPU   1m50.27s WALL

 
   This run was terminated on:  14:15:33  13Jul2026            

=------------------------------------------------------------------------------=
   JOB DONE.
=------------------------------------------------------------------------------=
