vc-relax TiO2-R
1.0
   4.502517080   0.000000000   0.000000000
   0.000000000   4.502517080   0.000000000
   0.000000000   0.000000000   3.129530345
Ru O
2  4
Cartesian
            0.0000000000        0.0000000000       -0.0000000000
            2.2512585398        2.2512585398        1.5647651723
            1.3834245589        1.3834245589       -0.0000000000
            3.1190925206        3.1190925206       -0.0000000000
            3.6346830987        0.8678339809        1.5647651723
            0.8678339809        3.6346830987        1.5647651723
