
     Program PWSCF v.7.1 starts on 13Jul2026 at 14: 5:40 

     This program is part of the open-source Quantum ESPRESSO suite
     for quantum simulation of materials; please cite
         "P. Giannozzi et al., J. Phys.:Condens. Matter 21 395502 (2009);
         "P. Giannozzi et al., J. Phys.:Condens. Matter 29 465901 (2017);
         "P. Giannozzi et al., J. Chem. Phys. 152 154105 (2020);
          URL http://www.quantum-espresso.org", 
     in publications or presentations arising from this work. More details at
     http://www.quantum-espresso.org/quote

     Parallel version (MPI), running on    36 processors

     MPI processes distributed on     1 nodes
     178999 MiB available memory on the printing compute node when the environment starts
 
     Waiting for input...
     Reading input from standard input

     Current dimensions of program PWSCF are:
     Max number of different atomic species (ntypx) = 10
     Max number of k-points (npk) =  40000
     Max angular momentum in pseudopotentials (lmaxx) =  4
     Message from routine setup:
     using ibrav=0 with symmetry is DISCOURAGED, use correct ibrav instead
 
     K-points division:     npool     =       2
     R & G space division:  proc/nbgrp/npool/nimage =      18
     Subspace diagonalization in iterative solution of the eigenvalue problem:
     a serial algorithm will be used

 
     Parallelization info
     --------------------
     sticks:   dense  smooth     PW     G-vecs:    dense   smooth      PW
     Min         102     102     30                 2275     2275     360
     Max         104     104     32                 2276     2276     361
     Sum        1853    1853    545                40957    40957    6483
 
     Using Slab Decomposition
 


     bravais-lattice index     =            0
     lattice parameter (alat)  =       8.4977  a.u.
     unit-cell volume          =     423.6931 (a.u.)^3
     number of atoms/cell      =            6
     number of atomic types    =            2
     number of electrons       =        56.00
     number of Kohn-Sham states=           28
     kinetic-energy cutoff     =      80.0000  Ry
     charge density cutoff     =     320.0000  Ry
     scf convergence threshold =      1.0E-06
     mixing beta               =       0.7000
     number of iterations used =            8  plain     mixing
     Exchange-correlation= PBE
                           (   1   4   3   4   0   0   0)

     celldm(1)=   8.497720  celldm(2)=   0.000000  celldm(3)=   0.000000
     celldm(4)=   0.000000  celldm(5)=   0.000000  celldm(6)=   0.000000

     crystal axes: (cart. coord. in units of alat)
               a(1) = (   1.000000   0.000000   0.000000 )  
               a(2) = (   0.000000   1.000000   0.000000 )  
               a(3) = (   0.000000   0.000000   0.690469 )  

     reciprocal axes: (cart. coord. in units 2 pi/alat)
               b(1) = (  1.000000  0.000000  0.000000 )  
               b(2) = (  0.000000  1.000000  0.000000 )  
               b(3) = (  0.000000  0.000000  1.448291 )  


     PseudoPot. # 1 for Ru read from file:
     ./Ru_ONCV_PBE-1.2.upf
     MD5 check sum: 197966c748556f6a714a34a8c7eb0781
     Pseudo is Norm-conserving, Zval = 16.0
     Generated using ONCVPSP code by D. R. Hamann
     Using radial grid of  602 points,  6 beta functions with: 
                l(1) =   0
                l(2) =   0
                l(3) =   1
                l(4) =   1
                l(5) =   2
                l(6) =   2

     PseudoPot. # 2 for O  read from file:
     ./O_ONCV_PBE-1.2.upf
     MD5 check sum: e36c48deb68f4e355fffe4602be2c42c
     Pseudo is Norm-conserving, Zval =  6.0
     Generated using ONCVPSP code by D. R. Hamann
     Using radial grid of  602 points,  4 beta functions with: 
                l(1) =   0
                l(2) =   0
                l(3) =   1
                l(4) =   1

     atomic species   valence    mass     pseudopotential
        Ru            16.00   101.07000     Ru( 1.00)
        O              6.00    15.99900     O ( 1.00)

     16 Sym. Ops., with inversion, found ( 8 have fractional translation)



   Cartesian axes

     site n.     atom                  positions (alat units)
         1           Ru  tau(   1) = (   0.0000000   0.0000000   0.0000000  )
         2           Ru  tau(   2) = (   0.5000000   0.5000000   0.3452344  )
         3           O   tau(   3) = (   0.3053000   0.3053000   0.0000000  )
         4           O   tau(   4) = (   0.6947000   0.6947000   0.0000000  )
         5           O   tau(   5) = (   0.8053000   0.1947000   0.3452344  )
         6           O   tau(   6) = (   0.1947000   0.8053000   0.3452344  )

     number of k points=    50
                       cart. coord. in units 2pi/alat
        k(    1) = (   0.0000000   0.0000000   0.0000000), wk =   0.0069444
        k(    2) = (   0.0000000   0.0000000   0.1810364), wk =   0.0138889
        k(    3) = (   0.0000000   0.0000000   0.3620729), wk =   0.0138889
        k(    4) = (   0.0000000   0.0000000   0.5431093), wk =   0.0138889
        k(    5) = (   0.0000000   0.0000000  -0.7241457), wk =   0.0069444
        k(    6) = (   0.0000000   0.1666667   0.0000000), wk =   0.0277778
        k(    7) = (   0.0000000   0.1666667   0.1810364), wk =   0.0555556
        k(    8) = (   0.0000000   0.1666667   0.3620729), wk =   0.0555556
        k(    9) = (   0.0000000   0.1666667   0.5431093), wk =   0.0555556
        k(   10) = (   0.0000000   0.1666667  -0.7241457), wk =   0.0277778
        k(   11) = (   0.0000000   0.3333333   0.0000000), wk =   0.0277778
        k(   12) = (   0.0000000   0.3333333   0.1810364), wk =   0.0555556
        k(   13) = (   0.0000000   0.3333333   0.3620729), wk =   0.0555556
        k(   14) = (   0.0000000   0.3333333   0.5431093), wk =   0.0555556
        k(   15) = (   0.0000000   0.3333333  -0.7241457), wk =   0.0277778
        k(   16) = (   0.0000000  -0.5000000   0.0000000), wk =   0.0138889
        k(   17) = (   0.0000000  -0.5000000   0.1810364), wk =   0.0277778
        k(   18) = (   0.0000000  -0.5000000   0.3620729), wk =   0.0277778
        k(   19) = (   0.0000000  -0.5000000   0.5431093), wk =   0.0277778
        k(   20) = (   0.0000000  -0.5000000  -0.7241457), wk =   0.0138889
        k(   21) = (   0.1666667   0.1666667   0.0000000), wk =   0.0277778
        k(   22) = (   0.1666667   0.1666667   0.1810364), wk =   0.0555556
        k(   23) = (   0.1666667   0.1666667   0.3620729), wk =   0.0555556
        k(   24) = (   0.1666667   0.1666667   0.5431093), wk =   0.0555556
        k(   25) = (   0.1666667   0.1666667  -0.7241457), wk =   0.0277778
        k(   26) = (   0.1666667   0.3333333   0.0000000), wk =   0.0555556
        k(   27) = (   0.1666667   0.3333333   0.1810364), wk =   0.1111111
        k(   28) = (   0.1666667   0.3333333   0.3620729), wk =   0.1111111
        k(   29) = (   0.1666667   0.3333333   0.5431093), wk =   0.1111111
        k(   30) = (   0.1666667   0.3333333  -0.7241457), wk =   0.0555556
        k(   31) = (   0.1666667  -0.5000000   0.0000000), wk =   0.0277778
        k(   32) = (   0.1666667  -0.5000000   0.1810364), wk =   0.0555556
        k(   33) = (   0.1666667  -0.5000000   0.3620729), wk =   0.0555556
        k(   34) = (   0.1666667  -0.5000000   0.5431093), wk =   0.0555556
        k(   35) = (   0.1666667  -0.5000000  -0.7241457), wk =   0.0277778
        k(   36) = (   0.3333333   0.3333333   0.0000000), wk =   0.0277778
        k(   37) = (   0.3333333   0.3333333   0.1810364), wk =   0.0555556
        k(   38) = (   0.3333333   0.3333333   0.3620729), wk =   0.0555556
        k(   39) = (   0.3333333   0.3333333   0.5431093), wk =   0.0555556
        k(   40) = (   0.3333333   0.3333333  -0.7241457), wk =   0.0277778
        k(   41) = (   0.3333333  -0.5000000   0.0000000), wk =   0.0277778
        k(   42) = (   0.3333333  -0.5000000   0.1810364), wk =   0.0555556
        k(   43) = (   0.3333333  -0.5000000   0.3620729), wk =   0.0555556
        k(   44) = (   0.3333333  -0.5000000   0.5431093), wk =   0.0555556
        k(   45) = (   0.3333333  -0.5000000  -0.7241457), wk =   0.0277778
        k(   46) = (  -0.5000000  -0.5000000   0.0000000), wk =   0.0069444
        k(   47) = (  -0.5000000  -0.5000000   0.1810364), wk =   0.0138889
        k(   48) = (  -0.5000000  -0.5000000   0.3620729), wk =   0.0138889
        k(   49) = (  -0.5000000  -0.5000000   0.5431093), wk =   0.0138889
        k(   50) = (  -0.5000000  -0.5000000  -0.7241457), wk =   0.0069444

     Dense  grid:    40957 G-vectors     FFT dimensions: (  50,  50,  36)

     Estimated max dynamical RAM per process >       8.34 MB

     Estimated total dynamical RAM >     290.15 MB

     Initial potential from superposition of free atoms

     starting charge      55.8739, renormalised to      56.0000
     Starting wfcs are random

     total cpu time spent up to now is        0.2 secs

     per-process dynamical memory:   118.9 Mb

     Self-consistent Calculation

     iteration #  1     ecut=    80.00 Ry     beta= 0.70
     Davidson diagonalization with overlap
     ethr =  1.00E-02,  avg # of iterations =  9.9

     total cpu time spent up to now is        0.9 secs

     total energy              =    -504.25633034 Ry
     estimated scf accuracy    <       0.99389961 Ry

     iteration #  2     ecut=    80.00 Ry     beta= 0.70
     Davidson diagonalization with overlap
     ethr =  1.77E-03,  avg # of iterations =  6.6

     total cpu time spent up to now is        1.5 secs

     total energy              =    -504.23138184 Ry
     estimated scf accuracy    <       4.37117171 Ry

     iteration #  3     ecut=    80.00 Ry     beta= 0.70
     Davidson diagonalization with overlap
     ethr =  1.77E-03,  avg # of iterations =  6.1

     total cpu time spent up to now is        1.9 secs

     total energy              =    -504.96060161 Ry
     estimated scf accuracy    <       0.03078974 Ry

     iteration #  4     ecut=    80.00 Ry     beta= 0.70
     Davidson diagonalization with overlap
     ethr =  5.50E-05,  avg # of iterations =  4.7

     total cpu time spent up to now is        2.2 secs

     total energy              =    -504.96742318 Ry
     estimated scf accuracy    <       0.01610914 Ry

     iteration #  5     ecut=    80.00 Ry     beta= 0.70
     Davidson diagonalization with overlap
     ethr =  2.88E-05,  avg # of iterations =  5.3

     total cpu time spent up to now is        2.6 secs

     total energy              =    -504.97251265 Ry
     estimated scf accuracy    <       0.00153744 Ry

     iteration #  6     ecut=    80.00 Ry     beta= 0.70
     Davidson diagonalization with overlap
     ethr =  2.75E-06,  avg # of iterations =  4.8

     total cpu time spent up to now is        3.0 secs

     total energy              =    -504.97336144 Ry
     estimated scf accuracy    <       0.00021288 Ry

     iteration #  7     ecut=    80.00 Ry     beta= 0.70
     Davidson diagonalization with overlap
     ethr =  3.80E-07,  avg # of iterations =  6.1

     total cpu time spent up to now is        3.4 secs

     total energy              =    -504.97344075 Ry
     estimated scf accuracy    <       0.00003709 Ry

     iteration #  8     ecut=    80.00 Ry     beta= 0.70
     Davidson diagonalization with overlap
     ethr =  6.62E-08,  avg # of iterations =  5.7

     total cpu time spent up to now is        3.8 secs

     total energy              =    -504.97345089 Ry
     estimated scf accuracy    <       0.00001367 Ry

     iteration #  9     ecut=    80.00 Ry     beta= 0.70
     Davidson diagonalization with overlap
     ethr =  2.44E-08,  avg # of iterations =  4.2

     total cpu time spent up to now is        4.1 secs

     total energy              =    -504.97345694 Ry
     estimated scf accuracy    <       0.00000692 Ry

     iteration # 10     ecut=    80.00 Ry     beta= 0.70
     Davidson diagonalization with overlap
     ethr =  1.24E-08,  avg # of iterations =  1.2

     total cpu time spent up to now is        4.3 secs

     total energy              =    -504.97345800 Ry
     estimated scf accuracy    <       0.00000668 Ry

     iteration # 11     ecut=    80.00 Ry     beta= 0.70
     Davidson diagonalization with overlap
     ethr =  1.19E-08,  avg # of iterations =  4.4

     total cpu time spent up to now is        4.6 secs

     total energy              =    -504.97345467 Ry
     estimated scf accuracy    <       0.00001048 Ry

     iteration # 12     ecut=    80.00 Ry     beta= 0.70
     Davidson diagonalization with overlap
     ethr =  1.19E-08,  avg # of iterations =  3.4

     total cpu time spent up to now is        4.9 secs

     total energy              =    -504.97345650 Ry
     estimated scf accuracy    <       0.00000122 Ry

     iteration # 13     ecut=    80.00 Ry     beta= 0.70
     Davidson diagonalization with overlap
     ethr =  2.18E-09,  avg # of iterations = 10.3

     total cpu time spent up to now is        5.5 secs

     total energy              =    -504.97345530 Ry
     estimated scf accuracy    <       0.00002258 Ry

     iteration # 14     ecut=    80.00 Ry     beta= 0.70
     Davidson diagonalization with overlap
     ethr =  2.18E-09,  avg # of iterations =  6.5

     total cpu time spent up to now is        6.0 secs

     total energy              =    -504.97345503 Ry
     estimated scf accuracy    <       0.00000436 Ry

     iteration # 15     ecut=    80.00 Ry     beta= 0.70
     Davidson diagonalization with overlap
     ethr =  2.18E-09,  avg # of iterations =  5.7

     total cpu time spent up to now is        6.4 secs

     End of self-consistent calculation

          k = 0.0000 0.0000 0.0000 (  5097 PWs)   bands (ev):

   -60.3216 -60.3148 -30.6031 -30.6031 -30.1693 -30.1595 -30.1595 -30.1450
    -7.0114  -5.9750  -5.0067  -5.0067   4.7132   4.8530   5.9674   6.3790
     6.3790   8.9481   8.9662   8.9662  10.4178  10.8566  10.8566  11.3855
    11.6444  11.7546  11.8341  11.8341

          k = 0.0000 0.0000 0.1810 (  5089 PWs)   bands (ev):

   -60.3198 -60.3135 -30.6009 -30.6009 -30.1953 -30.1731 -30.1553 -30.1553
    -6.8755  -5.9017  -5.0877  -5.0877   4.8678   5.0626   6.1309   6.4295
     6.4295   8.4861   9.1349   9.1349   9.6968  10.2476  10.2476  11.1893
    11.7781  12.1356  12.3314  12.4238

          k = 0.0000 0.0000 0.3621 (  5101 PWs)   bands (ev):

   -60.3153 -60.3105 -30.5955 -30.5955 -30.2574 -30.2407 -30.1453 -30.1453
    -6.5203  -5.7424  -5.2781  -5.2781   5.2572   5.5968   6.6050   6.6050
     6.6107   7.6177   8.6303   9.2808   9.2808   9.6098   9.6098  10.4664
    12.0619  12.3519  12.6604  13.2154

          k = 0.0000 0.0000 0.5431 (  5120 PWs)   bands (ev):

   -60.3105 -60.3079 -30.5901 -30.5901 -30.3177 -30.3088 -30.1351 -30.1351
    -6.0872  -5.6463  -5.4615  -5.4615   5.6651   6.0270   6.8939   6.8939
     7.1437   7.3731   7.8356   8.6274   8.6274   9.4405   9.8373   9.8373
    12.3749  12.5548  12.8170  13.8159

          k = 0.0000 0.0000-0.7241 (  5080 PWs)   bands (ev):

   -60.3076 -60.3076 -30.5879 -30.5879 -30.3396 -30.3396 -30.1309 -30.1309
    -5.7546  -5.7546  -5.5356  -5.5356   5.9179   5.9179   7.0891   7.0891
     7.3925   7.3925   8.2961   8.2961   8.3529   8.3529   9.9302   9.9302
    12.5872  12.5872  13.1713  13.1713

          k = 0.0000 0.1667 0.0000 (  5124 PWs)   bands (ev):

   -60.3211 -60.3152 -30.6025 -30.6024 -30.1677 -30.1605 -30.1604 -30.1466
    -6.9083  -5.9489  -5.1377  -5.0701   4.9159   5.0864   6.1585   6.4025
     6.4156   8.5941   8.7116   8.8625  10.0120  10.1800  10.5321  11.2705
    11.9345  12.0606  12.1684  12.2224

          k = 0.0000 0.1667 0.1810 (  5116 PWs)   bands (ev):

   -60.3193 -60.3139 -30.6005 -30.6004 -30.1939 -30.1750 -30.1560 -30.1557
    -6.7779  -5.8720  -5.2116  -5.1449   5.0651   5.2697   6.2172   6.4386
     6.5871   8.3253   8.6907   8.9298   9.3719  10.0899  10.1734  11.1395
    11.8226  12.3608  12.4017  12.6706

          k = 0.0000 0.1667 0.3621 (  5114 PWs)   bands (ev):

   -60.3150 -60.3108 -30.5956 -30.5955 -30.2561 -30.2418 -30.1456 -30.1455
    -6.4439  -5.7169  -5.3691  -5.3153   5.4267   5.7106   6.4331   6.5946
     7.0557   7.4950   8.1131   9.2229   9.3329   9.5110   9.5297  10.6544
    11.8353  12.6072  12.8064  13.0576

          k = 0.0000 0.1667 0.5431 (  5111 PWs)   bands (ev):

   -60.3103 -60.3080 -30.5908 -30.5908 -30.3165 -30.3089 -30.1351 -30.1351
    -6.0661  -5.7110  -5.4528  -5.4249   5.7536   6.0652   6.4308   6.7849
     7.4063   7.5636   7.8391   8.6547   8.8464   9.5815   9.6762   9.7986
    12.2730  12.5081  12.8499  13.2694

          k = 0.0000 0.1667-0.7241 (  5116 PWs)   bands (ev):

   -60.3076 -60.3076 -30.5889 -30.5889 -30.3388 -30.3388 -30.1308 -30.1308
    -5.8346  -5.8346  -5.4489  -5.4489   5.9151   5.9151   6.6370   6.6370
     7.7254   7.7254   8.3459   8.3459   8.7405   8.7405   9.7662   9.7662
    12.6031  12.6031  12.8318  12.8318

          k = 0.0000 0.3333 0.0000 (  5130 PWs)   bands (ev):

   -60.3198 -60.3165 -30.6013 -30.6012 -30.1632 -30.1625 -30.1624 -30.1511
    -6.6208  -5.9486  -5.3927  -5.2290   5.4512   5.6331   6.4599   6.4855
     6.7515   7.8770   7.9736   8.7737   8.9838   9.3814  10.3908  10.9636
    12.3723  12.5371  12.7410  12.7902

          k = 0.0000 0.3333 0.1810 (  5128 PWs)   bands (ev):

   -60.3182 -60.3150 -30.5996 -30.5995 -30.1900 -30.1796 -30.1572 -30.1567
    -6.5052  -5.8500  -5.4656  -5.2904   5.5972   5.7741   6.3879   6.4388
     7.0320   7.9879   8.1789   8.2189   8.6082   9.4018  10.3772  10.9045
    12.2745  12.5172  12.7434  13.0295

          k = 0.0000 0.3333 0.3621 (  5119 PWs)   bands (ev):

   -60.3141 -60.3117 -30.5958 -30.5957 -30.2527 -30.2447 -30.1462 -30.1460
    -6.2308  -5.6507  -5.6040  -5.4119   5.8702   5.9994   6.4787   6.5828
     7.2601   7.4020   7.7360   8.5980   8.7449   9.4087   9.9994  10.6711
    11.8663  12.7139  13.0311  13.0455

          k = 0.0000 0.3333 0.5431 (  5109 PWs)   bands (ev):

   -60.3098 -60.3085 -30.5923 -30.5922 -30.3138 -30.3095 -30.1351 -30.1350
    -6.0092  -5.8226  -5.4279  -5.3920   5.9099   6.0465   6.2176   6.5506
     7.3732   7.7529   8.1215   8.9068   8.9997   9.1638   9.6432  10.3363
    11.7252  12.5246  12.7552  12.9053

          k = 0.0000 0.3333-0.7241 (  5120 PWs)   bands (ev):

   -60.3076 -60.3076 -30.5909 -30.5909 -30.3374 -30.3374 -30.1305 -30.1305
    -5.9317  -5.9317  -5.3382  -5.3382   5.7920   5.7920   6.4059   6.4059
     7.9054   7.9054   8.5059   8.5059   9.2512   9.2512   9.7311   9.7311
    12.0792  12.0792  12.6350  12.6350

          k = 0.0000-0.5000 0.0000 (  5160 PWs)   bands (ev):

   -60.3181 -60.3181 -30.6006 -30.6006 -30.1634 -30.1634 -30.1571 -30.1571
    -6.2274  -6.2274  -5.3989  -5.3989   5.9410   5.9410   6.5063   6.5063
     7.4373   7.4373   7.7489   7.7489   8.9262   8.9262  10.6068  10.6068
    12.6914  12.6914  12.8685  12.8685

          k = 0.0000-0.5000 0.1810 (  5134 PWs)   bands (ev):

   -60.3166 -60.3166 -30.5991 -30.5991 -30.1850 -30.1850 -30.1576 -30.1576
    -6.1258  -6.1258  -5.4554  -5.4554   6.1561   6.1561   6.3419   6.3419
     7.5004   7.5004   7.9283   7.9283   8.5735   8.5735  10.6591  10.6591
    12.5238  12.5238  13.1242  13.1242

          k = 0.0000-0.5000 0.3621 (  5110 PWs)   bands (ev):

   -60.3129 -60.3129 -30.5958 -30.5958 -30.2486 -30.2486 -30.1464 -30.1464
    -5.9293  -5.9293  -5.5322  -5.5322   6.2136   6.2136   6.6186   6.6186
     6.9953   6.9953   8.2354   8.2354   8.7882   8.7882  10.3981  10.3981
    12.3116  12.3116  13.1835  13.1835

          k = 0.0000-0.5000 0.5431 (  5094 PWs)   bands (ev):

   -60.3092 -60.3092 -30.5929 -30.5929 -30.3111 -30.3111 -30.1351 -30.1351
    -5.9262  -5.9262  -5.3989  -5.3989   5.9533   5.9533   6.3614   6.3614
     7.5855   7.5855   8.4884   8.4884   9.0924   9.0924  10.2154  10.2154
    11.8158  11.8158  12.8926  12.8926

          k = 0.0000-0.5000-0.7241 (  5108 PWs)   bands (ev):

   -60.3076 -60.3076 -30.5920 -30.5920 -30.3367 -30.3367 -30.1304 -30.1304
    -5.9687  -5.9687  -5.2943  -5.2943   5.6870   5.6870   6.3991   6.3991
     7.9748   7.9748   8.7678   8.7678   8.8945   8.8945  10.3423  10.3423
    11.4858  11.4858  12.6457  12.6457

          k = 0.1667 0.1667 0.0000 (  5129 PWs)   bands (ev):

   -60.3207 -60.3156 -30.6036 -30.6010 -30.1662 -30.1624 -30.1595 -30.1480
    -6.8252  -5.9319  -5.2998  -5.0447   4.7759   5.5793   6.3355   6.3566
     6.4866   7.9544   8.7948   8.8790   9.9489   9.9669  10.3616  11.1502
    11.8035  11.8432  12.5180  12.6560

          k = 0.1667 0.1667 0.1810 (  5114 PWs)   bands (ev):

   -60.3190 -60.3143 -30.6013 -30.5993 -30.1927 -30.1764 -30.1569 -30.1554
    -6.6988  -5.8479  -5.3658  -5.1240   4.9525   5.7113   6.2163   6.5311
     6.6780   8.0570   8.3169   9.0276   9.1996  10.0826  10.2070  10.9692
    11.8352  12.0568  12.6509  12.8385

          k = 0.1667 0.1667 0.3621 (  5115 PWs)   bands (ev):

   -60.3147 -60.3111 -30.5959 -30.5955 -30.2551 -30.2426 -30.1460 -30.1454
    -6.3793  -5.6902  -5.4794  -5.3106   5.4031   5.9506   6.2916   6.7722
     7.2131   7.2613   8.1914   8.6874   9.1541   9.5661   9.8914  10.7493
    11.7188  12.4543  12.9344  13.1813

          k = 0.1667 0.1667 0.5431 (  5119 PWs)   bands (ev):

   -60.3101 -60.3082 -30.5921 -30.5904 -30.3160 -30.3088 -30.1353 -30.1350
    -6.0442  -5.7269  -5.4907  -5.3909   5.8130   6.1252   6.3420   6.5094
     7.3496   7.8495   7.9408   8.5986   8.8881   9.4884   9.7026  10.0121
    12.0791  12.5450  12.8805  13.3617

          k = 0.1667 0.1667-0.7241 (  5122 PWs)   bands (ev):

   -60.3076 -60.3076 -30.5908 -30.5881 -30.3402 -30.3367 -30.1311 -30.1304
    -5.9393  -5.7218  -5.5636  -5.3330   5.7823   6.0955   6.4426   6.6535
     7.0796   8.2944   8.4395   8.6306   8.6715   9.1869   9.3591   9.8946
    12.4065  12.6075  12.6249  13.0496

          k = 0.1667 0.3333 0.0000 (  5132 PWs)   bands (ev):

   -60.3196 -60.3167 -30.6033 -30.6006 -30.1634 -30.1624 -30.1605 -30.1519
    -6.5947  -5.9935  -5.4375  -5.1493   4.9914   5.9873   6.3730   6.5074
     6.8803   7.4858   8.4445   8.8128   9.3731   9.5747  10.0479  10.7943
    12.1301  12.1346  12.7746  12.8854

          k = 0.1667 0.3333 0.1810 (  5130 PWs)   bands (ev):

   -60.3180 -60.3152 -30.6012 -30.5991 -30.1894 -30.1800 -30.1575 -30.1559
    -6.4793  -5.8928  -5.5041  -5.2206   5.1596   6.1985   6.2784   6.3491
     7.1442   7.8113   8.0660   8.5518   9.0825   9.5644  10.1311  10.6551
    12.1637  12.2835  12.7391  13.1571

          k = 0.1667 0.3333 0.3621 (  5120 PWs)   bands (ev):

   -60.3139 -60.3118 -30.5962 -30.5958 -30.2524 -30.2450 -30.1464 -30.1457
    -6.2018  -5.6991  -5.6077  -5.3797   5.5740   6.2003   6.2871   6.6822
     7.0333   7.6936   7.9293   8.4516   9.1493   9.3003   9.9681  10.5961
    11.9055  12.5655  12.8617  13.2565

          k = 0.1667 0.3333 0.5431 (  5118 PWs)   bands (ev):

   -60.3097 -60.3086 -30.5929 -30.5913 -30.3143 -30.3095 -30.1354 -30.1351
    -5.9829  -5.7949  -5.4815  -5.3890   5.9046   6.0390   6.2917   6.4128
     7.1682   7.8731   8.2699   8.7499   8.8222   9.4160   9.7841  10.4364
    11.7416  12.6229  12.7408  12.9231

          k = 0.1667 0.3333-0.7241 (  5114 PWs)   bands (ev):

   -60.3076 -60.3076 -30.5919 -30.5893 -30.3395 -30.3359 -30.1311 -30.1304
    -5.9720  -5.8117  -5.4643  -5.2908   5.7026   6.0416   6.3524   6.4036
     7.2170   8.1987   8.4827   8.6988   8.8636   9.5699   9.7232  10.0706
    11.8876  12.4652  12.6339  12.6451

          k = 0.1667-0.5000 0.0000 (  5120 PWs)   bands (ev):

   -60.3181 -60.3181 -30.6018 -30.6018 -30.1624 -30.1624 -30.1571 -30.1571
    -6.2751  -6.2751  -5.3307  -5.3307   5.5332   5.5332   6.4457   6.4457
     7.5731   7.5731   8.3219   8.3219   9.1021   9.1021  10.3355  10.3355
    12.5491  12.5491  12.6389  12.6389

          k = 0.1667-0.5000 0.1810 (  5138 PWs)   bands (ev):

   -60.3166 -60.3166 -30.6001 -30.6001 -30.1847 -30.1847 -30.1570 -30.1570
    -6.1726  -6.1726  -5.3910  -5.3910   5.6888   5.6888   6.3675   6.3675
     7.6992   7.6992   8.3956   8.3956   8.7261   8.7261  10.3809  10.3809
    12.4358  12.4358  12.9554  12.9554

          k = 0.1667-0.5000 0.3621 (  5120 PWs)   bands (ev):

   -60.3129 -60.3129 -30.5961 -30.5961 -30.2486 -30.2486 -30.1462 -30.1462
    -5.9551  -5.9551  -5.4962  -5.4962   5.9484   5.9484   6.4364   6.4364
     7.3034   7.3034   8.4960   8.4960   8.9062   8.9062  10.2209  10.2209
    12.3825  12.3825  13.0413  13.0413

          k = 0.1667-0.5000 0.5431 (  5114 PWs)   bands (ev):

   -60.3092 -60.3092 -30.5925 -30.5925 -30.3116 -30.3116 -30.1353 -30.1353
    -5.8934  -5.8934  -5.4296  -5.4296   5.9324   5.9324   6.3678   6.3678
     7.4182   7.4182   8.6127   8.6127   9.1014   9.1014  10.2823  10.2823
    11.9881  11.9881  12.8289  12.8289

          k = 0.1667-0.5000-0.7241 (  5120 PWs)   bands (ev):

   -60.3076 -60.3076 -30.5912 -30.5912 -30.3373 -30.3373 -30.1307 -30.1307
    -5.9242  -5.9242  -5.3404  -5.3404   5.7683   5.7683   6.3745   6.3745
     7.7254   7.7254   8.5059   8.5059   9.2408   9.2408  10.3984  10.3984
    11.7307  11.7307  12.6503  12.6503

          k = 0.3333 0.3333 0.0000 (  5123 PWs)   bands (ev):

   -60.3190 -60.3173 -30.6047 -30.6021 -30.1624 -30.1601 -30.1595 -30.1541
    -6.5081  -6.1564  -5.3606  -5.1183   4.7861   5.5443   6.3119   6.4327
     7.3223   8.0549   8.7131   9.0706   9.4000   9.7124   9.7523  10.5485
    11.7973  11.8625  12.5651  12.6482

          k = 0.3333 0.3333 0.1810 (  5135 PWs)   bands (ev):

   -60.3174 -60.3158 -30.6023 -30.6003 -30.1873 -30.1815 -30.1571 -30.1554
    -6.3955  -6.0574  -5.4220  -5.1943   4.9652   5.7009   6.2167   6.3582
     7.5853   8.2721   8.3732   8.8298   9.1268   9.7737   9.8656  10.1172
    11.9987  12.1543  12.6149  12.9334

          k = 0.3333 0.3333 0.3621 (  5136 PWs)   bands (ev):

   -60.3135 -60.3123 -30.5967 -30.5963 -30.2511 -30.2464 -30.1463 -30.1456
    -6.1201  -5.8481  -5.5282  -5.3739   5.4360   5.9535   6.1531   6.4270
     7.3646   8.1129   8.1191   8.8470   9.0425   9.4247   9.7595  10.3249
    12.2082  12.3942  12.8542  13.1055

          k = 0.3333 0.3333 0.5431 (  5115 PWs)   bands (ev):

   -60.3095 -60.3088 -30.5927 -30.5910 -30.3142 -30.3104 -30.1357 -30.1354
    -5.9090  -5.7531  -5.5478  -5.4312   5.9067   6.0145   6.2169   6.3757
     7.0567   7.6738   8.4552   8.6701   8.9368   9.5168  10.0201  10.5700
    11.9455  12.6129  12.8189  13.0539

          k = 0.3333 0.3333-0.7241 (  5104 PWs)   bands (ev):

   -60.3076 -60.3076 -30.5913 -30.5887 -30.3401 -30.3366 -30.1316 -30.1308
    -5.9244  -5.6565  -5.6183  -5.3372   5.7637   6.2764   6.3088   6.3668
     6.7795   7.9298   8.3170   8.4457   9.2075   9.6364  10.1643  10.4948
    11.8937  12.6447  12.6569  12.8114

          k = 0.3333-0.5000 0.0000 (  5128 PWs)   bands (ev):

   -60.3181 -60.3181 -30.6041 -30.6041 -30.1604 -30.1604 -30.1571 -30.1571
    -6.3546  -6.3546  -5.2095  -5.2095   4.9974   4.9974   6.3381   6.3381
     7.9975   7.9975   9.0340   9.0340   9.4924   9.4924   9.9650   9.9650
    12.1296  12.1296  12.1519  12.1519

          k = 0.3333-0.5000 0.1810 (  5128 PWs)   bands (ev):

   -60.3166 -60.3166 -30.6019 -30.6019 -30.1843 -30.1843 -30.1560 -30.1560
    -6.2488  -6.2488  -5.2790  -5.2790   5.1673   5.1673   6.2597   6.2597
     8.1796   8.1796   8.9067   8.9067   9.2592   9.2592   9.8287   9.8287
    12.2265  12.2265  12.4968  12.4968

          k = 0.3333-0.5000 0.3621 (  5126 PWs)   bands (ev):

   -60.3129 -60.3129 -30.5968 -30.5968 -30.2488 -30.2488 -30.1459 -30.1459
    -5.9974  -5.9974  -5.4333  -5.4333   5.5864   5.5864   6.2050   6.2050
     7.8284   7.8284   8.7430   8.7430   9.2209   9.2209   9.8958   9.8958
    12.5444  12.5444  12.7457  12.7457

          k = 0.3333-0.5000 0.5431 (  5134 PWs)   bands (ev):

   -60.3091 -60.3091 -30.5917 -30.5917 -30.3125 -30.3125 -30.1357 -30.1357
    -5.8092  -5.8092  -5.5096  -5.5096   5.9376   5.9376   6.2677   6.2677
     7.2992   7.2992   8.5805   8.5805   9.2719   9.2719  10.3921  10.3921
    12.4523  12.4523  12.7059  12.7059

          k = 0.3333-0.5000-0.7241 (  5116 PWs)   bands (ev):

   -60.3076 -60.3076 -30.5897 -30.5897 -30.3387 -30.3387 -30.1314 -30.1314
    -5.8024  -5.8024  -5.4653  -5.4653   5.9845   5.9845   6.3235   6.3235
     7.2353   7.2353   8.3719   8.3719   9.4659   9.4659  10.5726  10.5726
    12.2785  12.2785  12.6578  12.6578

          k =-0.5000-0.5000 0.0000 (  5100 PWs)   bands (ev):

   -60.3181 -60.3181 -30.6052 -30.6052 -30.1595 -30.1595 -30.1571 -30.1571
    -6.3889  -6.3889  -5.1538  -5.1538   4.7887   4.7887   6.2897   6.2897
     8.5952   8.5952   8.6365   8.6365   9.7275   9.7275  10.2579  10.2579
    11.7642  11.7642  11.8727  11.8727

          k =-0.5000-0.5000 0.1810 (  5116 PWs)   bands (ev):

   -60.3166 -60.3166 -30.6028 -30.6028 -30.1841 -30.1841 -30.1554 -30.1554
    -6.2812  -6.2812  -5.2284  -5.2284   4.9679   4.9679   6.2071   6.2071
     8.7393   8.7393   8.8850   8.8850   9.1487   9.1487   9.9334   9.9334
    12.0812  12.0812  12.2170  12.2170

          k =-0.5000-0.5000 0.3621 (  5136 PWs)   bands (ev):

   -60.3129 -60.3129 -30.5971 -30.5971 -30.2489 -30.2489 -30.1457 -30.1457
    -6.0156  -6.0156  -5.4047  -5.4047   5.4391   5.4391   6.1213   6.1213
     8.1310   8.1310   8.9750   8.9750   9.0166   9.0166   9.9112   9.9112
    12.4686  12.4686  12.7875  12.7875

          k =-0.5000-0.5000 0.5431 (  5108 PWs)   bands (ev):

   -60.3091 -60.3091 -30.5913 -30.5913 -30.3130 -30.3130 -30.1359 -30.1359
    -5.7409  -5.7409  -5.5757  -5.5757   5.9919   5.9919   6.1396   6.1396
     7.3015   7.3015   8.5290   8.5290   9.3548   9.3548  10.4543  10.4543
    12.6352  12.6352  12.9252  12.9252

          k =-0.5000-0.5000-0.7241 (  5144 PWs)   bands (ev):

   -60.3076 -60.3076 -30.5889 -30.5889 -30.3393 -30.3393 -30.1318 -30.1318
    -5.6451  -5.6451  -5.6241  -5.6241   6.1734   6.1734   6.2768   6.2768
     6.9567   6.9567   8.3303   8.3303   9.5234   9.5234  10.6810  10.6810
    12.6603  12.6603  12.6949  12.6949

     highest occupied level (ev):    13.8159

!    total energy              =    -504.97345525 Ry
     estimated scf accuracy    <       0.00000051 Ry

     The total energy is the sum of the following terms:
     one-electron contribution =    -163.70086458 Ry
     hartree contribution      =     112.57204908 Ry
     xc contribution           =     -67.48811056 Ry
     ewald contribution        =    -386.35652920 Ry

     convergence has been achieved in  15 iterations

     Forces acting on atoms (cartesian axes, Ry/au):

     atom    1 type  1   force =     0.00000000    0.00000000    0.00000000
     atom    2 type  1   force =     0.00000000    0.00000000    0.00000000
     atom    3 type  2   force =     0.00459478    0.00459478   -0.00000000
     atom    4 type  2   force =    -0.00459478   -0.00459478   -0.00000000
     atom    5 type  2   force =     0.00459478   -0.00459478    0.00000000
     atom    6 type  2   force =    -0.00459478    0.00459478    0.00000000

     Total force =     0.012996     Total SCF correction =     0.000157
 
     init_run     :      0.09s CPU      0.10s WALL (       1 calls)
     electrons    :      5.97s CPU      6.24s WALL (       1 calls)
     forces       :      0.02s CPU      0.02s WALL (       1 calls)

     Called by init_run:
     wfcinit      :      0.07s CPU      0.07s WALL (       1 calls)
     potinit      :      0.01s CPU      0.01s WALL (       1 calls)
     hinit0       :      0.01s CPU      0.01s WALL (       1 calls)

     Called by electrons:
     c_bands      :      5.54s CPU      5.78s WALL (      15 calls)
     sum_band     :      0.40s CPU      0.41s WALL (      15 calls)
     v_of_rho     :      0.02s CPU      0.02s WALL (      16 calls)
     mix_rho      :      0.01s CPU      0.01s WALL (      15 calls)

     Called by c_bands:
     init_us_2    :      0.05s CPU      0.05s WALL (     800 calls)
     init_us_2:cp :      0.05s CPU      0.05s WALL (     800 calls)
     cegterg      :      4.86s CPU      4.98s WALL (     375 calls)

     Called by *egterg:
     cdiaghg      :      1.47s CPU      1.50s WALL (    2535 calls)
     h_psi        :      2.84s CPU      2.93s WALL (    2560 calls)
     g_psi        :      0.02s CPU      0.02s WALL (    2160 calls)

     Called by h_psi:
     h_psi:calbec :      0.15s CPU      0.15s WALL (    2560 calls)
     vloc_psi     :      2.58s CPU      2.65s WALL (    2560 calls)
     add_vuspsi   :      0.10s CPU      0.10s WALL (    2560 calls)

     General routines
     calbec       :      0.15s CPU      0.16s WALL (    2660 calls)
     fft          :      0.01s CPU      0.01s WALL (     161 calls)
     ffts         :      0.00s CPU      0.00s WALL (      15 calls)
     fftw         :      2.67s CPU      2.75s WALL (   83536 calls)
 
     Parallel routines
 
     PWSCF        :      6.11s CPU      6.44s WALL

 
   This run was terminated on:  14: 5:47  13Jul2026            

=------------------------------------------------------------------------------=
   JOB DONE.
=------------------------------------------------------------------------------=
