../relax_2L_RuO2_top_side_on-5-layer-R-TiO2_100.vasp/output final
1.0
        4.7124180794         0.0000000000         0.0000000000
        0.0000000000         2.9626882076         0.0000000000
        0.0000000000         0.0000000000        55.8528175354
    O   Ru
    4    2
Cartesian
     0.945103767         1.481344016        41.273951712
     1.370528917         0.000000000        43.596852371
     2.916053784         0.000000000        45.500327974
     3.784841770         1.481343927        43.129481798
     0.012017766         0.000000000        42.203612670
     2.421261312         1.481343927        44.435519385
