
     Program PWSCF v.7.1 starts on 13Jul2026 at 13:58:29 

     This program is part of the open-source Quantum ESPRESSO suite
     for quantum simulation of materials; please cite
         "P. Giannozzi et al., J. Phys.:Condens. Matter 21 395502 (2009);
         "P. Giannozzi et al., J. Phys.:Condens. Matter 29 465901 (2017);
         "P. Giannozzi et al., J. Chem. Phys. 152 154105 (2020);
          URL http://www.quantum-espresso.org", 
     in publications or presentations arising from this work. More details at
     http://www.quantum-espresso.org/quote

     Parallel version (MPI), running on    36 processors

     MPI processes distributed on     1 nodes
     162705 MiB available memory on the printing compute node when the environment starts
 
     Waiting for input...
     Reading input from standard input

     Current dimensions of program PWSCF are:
     Max number of different atomic species (ntypx) = 10
     Max number of k-points (npk) =  40000
     Max angular momentum in pseudopotentials (lmaxx) =  4
     Message from routine setup:
     using ibrav=0 with symmetry is DISCOURAGED, use correct ibrav instead
 
     K-points division:     npool     =       3
     R & G space division:  proc/nbgrp/npool/nimage =      12
     Subspace diagonalization in iterative solution of the eigenvalue problem:
     a serial algorithm will be used

 
     Parallelization info
     --------------------
     sticks:   dense  smooth     PW     G-vecs:    dense   smooth      PW
     Min         114     114     34                 2214     2214     359
     Max         115     115     36                 2217     2217     360
     Sum        1369    1369    421                26589    26589    4315
 
     Using Slab Decomposition
 


     bravais-lattice index     =            0
     lattice parameter (alat)  =       8.4977  a.u.
     unit-cell volume          =     423.6931 (a.u.)^3
     number of atoms/cell      =            6
     number of atomic types    =            2
     number of electrons       =        56.00
     number of Kohn-Sham states=           28
     kinetic-energy cutoff     =      60.0000  Ry
     charge density cutoff     =     240.0000  Ry
     scf convergence threshold =      1.0E-06
     mixing beta               =       0.7000
     number of iterations used =            8  plain     mixing
     Exchange-correlation= PBE
                           (   1   4   3   4   0   0   0)

     celldm(1)=   8.497720  celldm(2)=   0.000000  celldm(3)=   0.000000
     celldm(4)=   0.000000  celldm(5)=   0.000000  celldm(6)=   0.000000

     crystal axes: (cart. coord. in units of alat)
               a(1) = (   1.000000   0.000000   0.000000 )  
               a(2) = (   0.000000   1.000000   0.000000 )  
               a(3) = (   0.000000   0.000000   0.690469 )  

     reciprocal axes: (cart. coord. in units 2 pi/alat)
               b(1) = (  1.000000  0.000000  0.000000 )  
               b(2) = (  0.000000  1.000000  0.000000 )  
               b(3) = (  0.000000  0.000000  1.448291 )  


     PseudoPot. # 1 for Ru read from file:
     ./Ru_ONCV_PBE-1.2.upf
     MD5 check sum: 197966c748556f6a714a34a8c7eb0781
     Pseudo is Norm-conserving, Zval = 16.0
     Generated using ONCVPSP code by D. R. Hamann
     Using radial grid of  602 points,  6 beta functions with: 
                l(1) =   0
                l(2) =   0
                l(3) =   1
                l(4) =   1
                l(5) =   2
                l(6) =   2

     PseudoPot. # 2 for O  read from file:
     ./O_ONCV_PBE-1.2.upf
     MD5 check sum: e36c48deb68f4e355fffe4602be2c42c
     Pseudo is Norm-conserving, Zval =  6.0
     Generated using ONCVPSP code by D. R. Hamann
     Using radial grid of  602 points,  4 beta functions with: 
                l(1) =   0
                l(2) =   0
                l(3) =   1
                l(4) =   1

     atomic species   valence    mass     pseudopotential
        Ru            16.00   101.07000     Ru( 1.00)
        O              6.00    15.99900     O ( 1.00)

     16 Sym. Ops., with inversion, found ( 8 have fractional translation)



   Cartesian axes

     site n.     atom                  positions (alat units)
         1           Ru  tau(   1) = (   0.0000000   0.0000000   0.0000000  )
         2           Ru  tau(   2) = (   0.5000000   0.5000000   0.3452344  )
         3           O   tau(   3) = (   0.3053000   0.3053000   0.0000000  )
         4           O   tau(   4) = (   0.6947000   0.6947000   0.0000000  )
         5           O   tau(   5) = (   0.8053000   0.1947000   0.3452344  )
         6           O   tau(   6) = (   0.1947000   0.8053000   0.3452344  )

     number of k points=    84
                       cart. coord. in units 2pi/alat
        k(    1) = (   0.0000000   0.0000000   0.0000000), wk =   0.0027548
        k(    2) = (   0.0000000   0.0000000   0.2413819), wk =   0.0055096
        k(    3) = (   0.0000000   0.0000000   0.4827638), wk =   0.0055096
        k(    4) = (   0.0000000   0.0000000  -0.7241457), wk =   0.0027548
        k(    5) = (   0.0000000   0.0909091   0.0000000), wk =   0.0110193
        k(    6) = (   0.0000000   0.0909091   0.2413819), wk =   0.0220386
        k(    7) = (   0.0000000   0.0909091   0.4827638), wk =   0.0220386
        k(    8) = (   0.0000000   0.0909091  -0.7241457), wk =   0.0110193
        k(    9) = (   0.0000000   0.1818182   0.0000000), wk =   0.0110193
        k(   10) = (   0.0000000   0.1818182   0.2413819), wk =   0.0220386
        k(   11) = (   0.0000000   0.1818182   0.4827638), wk =   0.0220386
        k(   12) = (   0.0000000   0.1818182  -0.7241457), wk =   0.0110193
        k(   13) = (   0.0000000   0.2727273   0.0000000), wk =   0.0110193
        k(   14) = (   0.0000000   0.2727273   0.2413819), wk =   0.0220386
        k(   15) = (   0.0000000   0.2727273   0.4827638), wk =   0.0220386
        k(   16) = (   0.0000000   0.2727273  -0.7241457), wk =   0.0110193
        k(   17) = (   0.0000000   0.3636364   0.0000000), wk =   0.0110193
        k(   18) = (   0.0000000   0.3636364   0.2413819), wk =   0.0220386
        k(   19) = (   0.0000000   0.3636364   0.4827638), wk =   0.0220386
        k(   20) = (   0.0000000   0.3636364  -0.7241457), wk =   0.0110193
        k(   21) = (   0.0000000   0.4545455   0.0000000), wk =   0.0110193
        k(   22) = (   0.0000000   0.4545455   0.2413819), wk =   0.0220386
        k(   23) = (   0.0000000   0.4545455   0.4827638), wk =   0.0220386
        k(   24) = (   0.0000000   0.4545455  -0.7241457), wk =   0.0110193
        k(   25) = (   0.0909091   0.0909091   0.0000000), wk =   0.0110193
        k(   26) = (   0.0909091   0.0909091   0.2413819), wk =   0.0220386
        k(   27) = (   0.0909091   0.0909091   0.4827638), wk =   0.0220386
        k(   28) = (   0.0909091   0.0909091  -0.7241457), wk =   0.0110193
        k(   29) = (   0.0909091   0.1818182   0.0000000), wk =   0.0220386
        k(   30) = (   0.0909091   0.1818182   0.2413819), wk =   0.0440771
        k(   31) = (   0.0909091   0.1818182   0.4827638), wk =   0.0440771
        k(   32) = (   0.0909091   0.1818182  -0.7241457), wk =   0.0220386
        k(   33) = (   0.0909091   0.2727273   0.0000000), wk =   0.0220386
        k(   34) = (   0.0909091   0.2727273   0.2413819), wk =   0.0440771
        k(   35) = (   0.0909091   0.2727273   0.4827638), wk =   0.0440771
        k(   36) = (   0.0909091   0.2727273  -0.7241457), wk =   0.0220386
        k(   37) = (   0.0909091   0.3636364   0.0000000), wk =   0.0220386
        k(   38) = (   0.0909091   0.3636364   0.2413819), wk =   0.0440771
        k(   39) = (   0.0909091   0.3636364   0.4827638), wk =   0.0440771
        k(   40) = (   0.0909091   0.3636364  -0.7241457), wk =   0.0220386
        k(   41) = (   0.0909091   0.4545455   0.0000000), wk =   0.0220386
        k(   42) = (   0.0909091   0.4545455   0.2413819), wk =   0.0440771
        k(   43) = (   0.0909091   0.4545455   0.4827638), wk =   0.0440771
        k(   44) = (   0.0909091   0.4545455  -0.7241457), wk =   0.0220386
        k(   45) = (   0.1818182   0.1818182   0.0000000), wk =   0.0110193
        k(   46) = (   0.1818182   0.1818182   0.2413819), wk =   0.0220386
        k(   47) = (   0.1818182   0.1818182   0.4827638), wk =   0.0220386
        k(   48) = (   0.1818182   0.1818182  -0.7241457), wk =   0.0110193
        k(   49) = (   0.1818182   0.2727273   0.0000000), wk =   0.0220386
        k(   50) = (   0.1818182   0.2727273   0.2413819), wk =   0.0440771
        k(   51) = (   0.1818182   0.2727273   0.4827638), wk =   0.0440771
        k(   52) = (   0.1818182   0.2727273  -0.7241457), wk =   0.0220386
        k(   53) = (   0.1818182   0.3636364   0.0000000), wk =   0.0220386
        k(   54) = (   0.1818182   0.3636364   0.2413819), wk =   0.0440771
        k(   55) = (   0.1818182   0.3636364   0.4827638), wk =   0.0440771
        k(   56) = (   0.1818182   0.3636364  -0.7241457), wk =   0.0220386
        k(   57) = (   0.1818182   0.4545455   0.0000000), wk =   0.0220386
        k(   58) = (   0.1818182   0.4545455   0.2413819), wk =   0.0440771
        k(   59) = (   0.1818182   0.4545455   0.4827638), wk =   0.0440771
        k(   60) = (   0.1818182   0.4545455  -0.7241457), wk =   0.0220386
        k(   61) = (   0.2727273   0.2727273   0.0000000), wk =   0.0110193
        k(   62) = (   0.2727273   0.2727273   0.2413819), wk =   0.0220386
        k(   63) = (   0.2727273   0.2727273   0.4827638), wk =   0.0220386
        k(   64) = (   0.2727273   0.2727273  -0.7241457), wk =   0.0110193
        k(   65) = (   0.2727273   0.3636364   0.0000000), wk =   0.0220386
        k(   66) = (   0.2727273   0.3636364   0.2413819), wk =   0.0440771
        k(   67) = (   0.2727273   0.3636364   0.4827638), wk =   0.0440771
        k(   68) = (   0.2727273   0.3636364  -0.7241457), wk =   0.0220386
        k(   69) = (   0.2727273   0.4545455   0.0000000), wk =   0.0220386
        k(   70) = (   0.2727273   0.4545455   0.2413819), wk =   0.0440771
        k(   71) = (   0.2727273   0.4545455   0.4827638), wk =   0.0440771
        k(   72) = (   0.2727273   0.4545455  -0.7241457), wk =   0.0220386
        k(   73) = (   0.3636364   0.3636364   0.0000000), wk =   0.0110193
        k(   74) = (   0.3636364   0.3636364   0.2413819), wk =   0.0220386
        k(   75) = (   0.3636364   0.3636364   0.4827638), wk =   0.0220386
        k(   76) = (   0.3636364   0.3636364  -0.7241457), wk =   0.0110193
        k(   77) = (   0.3636364   0.4545455   0.0000000), wk =   0.0220386
        k(   78) = (   0.3636364   0.4545455   0.2413819), wk =   0.0440771
        k(   79) = (   0.3636364   0.4545455   0.4827638), wk =   0.0440771
        k(   80) = (   0.3636364   0.4545455  -0.7241457), wk =   0.0220386
        k(   81) = (   0.4545455   0.4545455   0.0000000), wk =   0.0110193
        k(   82) = (   0.4545455   0.4545455   0.2413819), wk =   0.0220386
        k(   83) = (   0.4545455   0.4545455   0.4827638), wk =   0.0220386
        k(   84) = (   0.4545455   0.4545455  -0.7241457), wk =   0.0110193

     Dense  grid:    26589 G-vectors     FFT dimensions: (  48,  48,  30)

     Estimated max dynamical RAM per process >       8.32 MB

     Estimated total dynamical RAM >     286.44 MB

     Initial potential from superposition of free atoms

     starting charge      55.8739, renormalised to      56.0000
     Starting wfcs are random

     total cpu time spent up to now is        0.5 secs

     per-process dynamical memory:   114.0 Mb

     Self-consistent Calculation

     iteration #  1     ecut=    60.00 Ry     beta= 0.70
     Davidson diagonalization with overlap
     ethr =  1.00E-02,  avg # of iterations = 10.1

     total cpu time spent up to now is        1.4 secs

     total energy              =    -504.24172278 Ry
     estimated scf accuracy    <       0.93514121 Ry

     iteration #  2     ecut=    60.00 Ry     beta= 0.70
     Davidson diagonalization with overlap
     ethr =  1.67E-03,  avg # of iterations =  6.5

     total cpu time spent up to now is        2.0 secs

     total energy              =    -504.21054845 Ry
     estimated scf accuracy    <       4.00954642 Ry

     iteration #  3     ecut=    60.00 Ry     beta= 0.70
     Davidson diagonalization with overlap
     ethr =  1.67E-03,  avg # of iterations =  5.9

     total cpu time spent up to now is        2.4 secs

     total energy              =    -504.88377220 Ry
     estimated scf accuracy    <       0.02615224 Ry

     iteration #  4     ecut=    60.00 Ry     beta= 0.70
     Davidson diagonalization with overlap
     ethr =  4.67E-05,  avg # of iterations =  4.6

     total cpu time spent up to now is        2.8 secs

     total energy              =    -504.89158123 Ry
     estimated scf accuracy    <       0.01255426 Ry

     iteration #  5     ecut=    60.00 Ry     beta= 0.70
     Davidson diagonalization with overlap
     ethr =  2.24E-05,  avg # of iterations =  4.9

     total cpu time spent up to now is        3.2 secs

     total energy              =    -504.89529774 Ry
     estimated scf accuracy    <       0.00068936 Ry

     iteration #  6     ecut=    60.00 Ry     beta= 0.70
     Davidson diagonalization with overlap
     ethr =  1.23E-06,  avg # of iterations =  5.5

     total cpu time spent up to now is        3.7 secs

     total energy              =    -504.89639121 Ry
     estimated scf accuracy    <       0.00002727 Ry

     iteration #  7     ecut=    60.00 Ry     beta= 0.70
     Davidson diagonalization with overlap
     ethr =  4.87E-08,  avg # of iterations =  8.2

     total cpu time spent up to now is        4.3 secs

     total energy              =    -504.89650237 Ry
     estimated scf accuracy    <       0.00006382 Ry

     iteration #  8     ecut=    60.00 Ry     beta= 0.70
     Davidson diagonalization with overlap
     ethr =  4.87E-08,  avg # of iterations =  1.4

     total cpu time spent up to now is        4.5 secs

     total energy              =    -504.89647993 Ry
     estimated scf accuracy    <       0.00005432 Ry

     iteration #  9     ecut=    60.00 Ry     beta= 0.70
     Davidson diagonalization with overlap
     ethr =  4.87E-08,  avg # of iterations =  5.9

     total cpu time spent up to now is        5.0 secs

     total energy              =    -504.89648789 Ry
     estimated scf accuracy    <       0.00000595 Ry

     iteration # 10     ecut=    60.00 Ry     beta= 0.70
     Davidson diagonalization with overlap
     ethr =  1.06E-08,  avg # of iterations =  5.7

     total cpu time spent up to now is        5.4 secs

     total energy              =    -504.89648946 Ry
     estimated scf accuracy    <       0.00000137 Ry

     iteration # 11     ecut=    60.00 Ry     beta= 0.70
     Davidson diagonalization with overlap
     ethr =  2.44E-09,  avg # of iterations =  4.7

     total cpu time spent up to now is        5.8 secs

     End of self-consistent calculation

          k = 0.0000 0.0000 0.0000 (  3363 PWs)   bands (ev):

   -60.3163 -60.3095 -30.5900 -30.5900 -30.1731 -30.1731 -30.1523 -30.1280
    -7.0429  -6.0090  -5.0433  -5.0433   4.7101   4.8488   5.9634   6.3768
     6.3768   8.9442   8.9613   8.9613  10.4172  10.8491  10.8491  11.3822
    11.6381  11.7518  11.8529  11.8529

          k = 0.0000 0.0000 0.2414 (  3331 PWs)   bands (ev):

   -60.3132 -60.3073 -30.5861 -30.5861 -30.1967 -30.1759 -30.1660 -30.1660
    -6.8071  -5.8852  -5.1795  -5.1795   4.9787   5.2143   6.2545   6.4705
     6.4705   8.1994   9.2383   9.2383   9.3272   9.9704   9.9704  11.0009
    11.8408  12.3360  12.3530  12.7122

          k = 0.0000 0.0000 0.4828 (  3330 PWs)   bands (ev):

   -60.3067 -60.3033 -30.5784 -30.5784 -30.2835 -30.2718 -30.1518 -30.1518
    -6.2611  -5.6935  -5.4438  -5.4438   5.5412   5.9429   6.7908   6.7908
     7.0872   7.2075   8.0488   8.8381   8.8381   9.7652   9.7652   9.7961
    12.3600  12.3713  12.8141  13.6646

          k = 0.0000 0.0000-0.7241 (  3326 PWs)   bands (ev):

   -60.3023 -60.3023 -30.5745 -30.5745 -30.3228 -30.3228 -30.1447 -30.1447
    -5.7875  -5.7875  -5.5704  -5.5704   5.9146   5.9146   7.0925   7.0925
     7.3885   7.3885   8.2956   8.2956   8.3510   8.3510   9.9276   9.9276
    12.5911  12.5911  13.1727  13.1727

          k = 0.0000 0.0909 0.0000 (  3347 PWs)   bands (ev):

   -60.3161 -60.3096 -30.5898 -30.5898 -30.1734 -30.1734 -30.1518 -30.1284
    -7.0113  -6.0002  -5.0837  -5.0621   4.7728   4.9218   6.0205   6.3846
     6.3888   8.8389   8.8909   8.9150  10.2771  10.6039  10.7150  11.3502
    11.7425  11.9092  11.9246  11.9940

          k = 0.0000 0.0909 0.2414 (  3342 PWs)   bands (ev):

   -60.3131 -60.3074 -30.5860 -30.5860 -30.1963 -30.1768 -30.1662 -30.1657
    -6.7802  -5.8751  -5.2163  -5.1955   5.0360   5.2699   6.2514   6.4712
     6.5518   8.1396   8.9514   9.2116   9.3832   9.9267   9.9564  11.0338
    11.7809  12.4081  12.4430  12.7077

          k = 0.0000 0.0909 0.4828 (  3322 PWs)   bands (ev):

   -60.3066 -60.3033 -30.5786 -30.5785 -30.2831 -30.2719 -30.1519 -30.1518
    -6.2476  -5.7005  -5.4486  -5.4468   5.5798   5.9579   6.6396   6.7772
     7.1788   7.3411   7.9003   8.8559   8.9331   9.6886   9.7021   9.8963
    12.2837  12.4206  12.8362  13.5290

          k = 0.0000 0.0909-0.7241 (  3342 PWs)   bands (ev):

   -60.3023 -60.3023 -30.5749 -30.5749 -30.3226 -30.3226 -30.1446 -30.1446
    -5.8189  -5.8189  -5.5379  -5.5379   5.9163   5.9163   6.8671   6.8671
     7.5720   7.5720   8.3093   8.3093   8.4687   8.4687   9.8751   9.8751
    12.5965  12.5965  13.0625  13.0625

          k = 0.0000 0.1818 0.0000 (  3323 PWs)   bands (ev):

   -60.3157 -60.3100 -30.5892 -30.5892 -30.1743 -30.1742 -30.1503 -30.1299
    -6.9199  -5.9782  -5.1949  -5.1158   4.9535   5.1272   6.1937   6.4051
     6.4197   8.5305   8.6606   8.8477   9.9602  10.0770  10.4974  11.2532
    11.9702  12.1171  12.2229  12.2941

          k = 0.0000 0.1818 0.2414 (  3328 PWs)   bands (ev):

   -60.3127 -60.3078 -30.5858 -30.5857 -30.1952 -30.1790 -30.1665 -30.1653
    -6.6978  -5.8476  -5.3174  -5.2411   5.2063   5.4316   6.2790   6.4722
     6.7509   8.0118   8.5476   8.9912   9.1732   9.9034   9.9702  11.0301
    11.7807  12.5703  12.5959  12.7543

          k = 0.0000 0.1818 0.4828 (  3322 PWs)   bands (ev):

   -60.3064 -60.3035 -30.5790 -30.5789 -30.2821 -30.2724 -30.1519 -30.1518
    -6.2078  -5.7239  -5.4608  -5.4565   5.6849   6.0012   6.4408   6.7383
     7.2924   7.6125   7.6297   8.8747   9.0686   9.5107   9.5909  10.1232
    12.0623  12.5683  12.8918  13.2438

          k = 0.0000 0.1818-0.7241 (  3326 PWs)   bands (ev):

   -60.3023 -60.3023 -30.5757 -30.5757 -30.3220 -30.3220 -30.1445 -30.1445
    -5.8779  -5.8779  -5.4722  -5.4722   5.9080   5.9080   6.5993   6.5993
     7.7458   7.7458   8.3549   8.3549   8.8062   8.8062   9.7375   9.7375
    12.6086  12.6086  12.7788  12.7788

          k = 0.0000 0.2727 0.0000 (  3319 PWs)   bands (ev):

   -60.3151 -60.3106 -30.5885 -30.5884 -30.1755 -30.1754 -30.1480 -30.1321
    -6.7741  -5.9629  -5.3428  -5.1988   5.2309   5.4204   6.4348   6.4594
     6.4842   8.1381   8.2741   8.7899   9.4373   9.6081  10.3886  11.0925
    12.2163  12.3772  12.5914  12.5990

          k = 0.0000 0.2727 0.2414 (  3326 PWs)   bands (ev):

   -60.3122 -60.3083 -30.5854 -30.5853 -30.1936 -30.1818 -30.1669 -30.1652
    -6.5664  -5.8146  -5.4621  -5.3100   5.4732   5.6710   6.3495   6.4669
     7.0062   7.9143   8.1372   8.5910   8.8095   9.6778  10.1487  10.9129
    11.9873  12.6135  12.7415  12.9508

          k = 0.0000 0.2727 0.4828 (  3336 PWs)   bands (ev):

   -60.3061 -60.3039 -30.5796 -30.5794 -30.2806 -30.2732 -30.1520 -30.1518
    -6.1462  -5.7651  -5.4770  -5.4697   5.8337   6.0716   6.2922   6.6786
     7.3465   7.4365   7.8931   8.8200   9.0952   9.2989   9.6142  10.3822
    11.8098  12.7357  12.9059  12.9589

          k = 0.0000 0.2727-0.7241 (  3328 PWs)   bands (ev):

   -60.3023 -60.3023 -30.5769 -30.5769 -30.3212 -30.3212 -30.1443 -30.1443
    -5.9348  -5.9348  -5.4079  -5.4079   5.8515   5.8515   6.4431   6.4431
     7.8523   7.8523   8.4311   8.4311   9.2157   9.2157   9.5882   9.5882
    12.3772  12.3772  12.6303  12.6303

          k = 0.0000 0.3636 0.0000 (  3323 PWs)   bands (ev):

   -60.3143 -60.3115 -30.5878 -30.5877 -30.1765 -30.1764 -30.1451 -30.1350
    -6.5850  -6.0067  -5.4537  -5.2966   5.5670   5.7336   6.4680   6.4916
     6.9023   7.7498   7.8261   8.7495   8.7812   9.2831  10.4099  10.8991
    12.4368  12.6384  12.7906  12.8193

          k = 0.0000 0.3636 0.2414 (  3323 PWs)   bands (ev):

   -60.3115 -60.3090 -30.5851 -30.5850 -30.1916 -30.1845 -30.1670 -30.1656
    -6.3942  -5.8332  -5.5760  -5.3943   5.8089   5.9459   6.4269   6.4409
     7.2104   7.7650   7.9765   8.2145   8.4300   9.2714  10.3529  10.7897
    12.2452  12.5914  12.9169  13.1326

          k = 0.0000 0.3636 0.4828 (  3338 PWs)   bands (ev):

   -60.3057 -60.3043 -30.5801 -30.5800 -30.2788 -30.2743 -30.1520 -30.1518
    -6.0686  -5.8238  -5.4902  -5.4827   5.9793   6.1486   6.2185   6.5910
     7.2067   7.5303   8.0662   8.8165   8.8652   9.2171   9.8095  10.5020
    11.6960  12.5255  12.9004  13.0144

          k = 0.0000 0.3636-0.7241 (  3332 PWs)   bands (ev):

   -60.3023 -60.3023 -30.5779 -30.5779 -30.3205 -30.3205 -30.1441 -30.1441
    -5.9770  -5.9770  -5.3590  -5.3590   5.7591   5.7591   6.3976   6.3976
     7.9263   7.9263   8.5472   8.5472   9.1853   9.1853   9.8768   9.8768
    11.9354  11.9354  12.6414  12.6414

          k = 0.0000 0.4545 0.0000 (  3327 PWs)   bands (ev):

   -60.3133 -60.3124 -30.5873 -30.5873 -30.1771 -30.1771 -30.1418 -30.1383
    -6.3690  -6.1567  -5.4607  -5.3931   5.8650   5.9385   6.4953   6.5066
     7.4344   7.4735   7.4967   8.0672   8.8558   9.0274  10.5249  10.6985
    12.6167  12.7411  12.8334  12.9040

          k = 0.0000 0.4545 0.2414 (  3322 PWs)   bands (ev):

   -60.3106 -60.3098 -30.5848 -30.5848 -30.1894 -30.1871 -30.1668 -30.1662
    -6.1948  -5.9886  -5.5585  -5.4821   6.1566   6.1930   6.3637   6.3999
     7.3009   7.4697   8.0287   8.1330   8.3139   8.7803  10.5309  10.6733
    12.4361  12.5419  13.1014  13.2022

          k = 0.0000 0.4545 0.4828 (  3324 PWs)   bands (ev):

   -60.3052 -60.3047 -30.5803 -30.5803 -30.2771 -30.2756 -30.1520 -30.1519
    -5.9826  -5.8984  -5.4947  -5.4919   6.0759   6.1271   6.3126   6.4569
     7.2646   7.4359   8.2654   8.5539   8.9596   9.1189  10.0862  10.3599
    11.8516  12.1655  12.9975  13.0335

          k = 0.0000 0.4545-0.7241 (  3340 PWs)   bands (ev):

   -60.3023 -60.3023 -30.5785 -30.5785 -30.3201 -30.3201 -30.1440 -30.1440
    -5.9993  -5.9993  -5.3330  -5.3330   5.6932   5.6932   6.3955   6.3955
     7.9680   7.9680   8.7061   8.7061   8.9596   8.9596  10.2720  10.2720
    11.5593  11.5593  12.6475  12.6475

          k = 0.0909 0.0909 0.0000 (  3327 PWs)   bands (ev):

   -60.3160 -60.3097 -30.5901 -30.5890 -30.1743 -30.1731 -30.1513 -30.1289
    -6.9813  -5.9918  -5.1451  -5.0542   4.7601   5.0643   6.0769   6.3703
     6.4189   8.6134   8.8857   8.9344  10.1935  10.4415  10.6410  11.3186
    11.7467  11.8558  12.0509  12.2127

          k = 0.0909 0.0909 0.2414 (  3336 PWs)   bands (ev):

   -60.3130 -60.3075 -30.5862 -30.5856 -30.1960 -30.1775 -30.1660 -30.1658
    -6.7539  -5.8649  -5.2690  -5.1910   5.0464   5.3680   6.2389   6.5277
     6.5840   8.0631   8.8773   9.1813   9.1982   9.9269  10.0294  11.0507
    11.7349  12.2903  12.6667  12.7185

          k = 0.0909 0.0909 0.4828 (  3327 PWs)   bands (ev):

   -60.3065 -60.3034 -30.5789 -30.5785 -30.2828 -30.2721 -30.1519 -30.1518
    -6.2342  -5.7079  -5.4529  -5.4507   5.6111   5.9762   6.6101   6.6587
     7.3379   7.3800   7.8054   8.8095   9.0190   9.5821   9.7225   9.9769
    12.2063  12.4567  12.8629  13.5432

          k = 0.0909 0.0909-0.7241 (  3340 PWs)   bands (ev):

   -60.3023 -60.3023 -30.5757 -30.5746 -30.3231 -30.3217 -30.1448 -30.1444
    -5.8836  -5.7774  -5.5799  -5.4687   5.8712   5.9699   6.6791   6.9065
     7.2733   8.0048   8.2894   8.3562   8.4408   8.6623   9.7387   9.9132
    12.5974  12.6056  12.8545  13.1324

          k = 0.0909 0.1818 0.0000 (  3328 PWs)   bands (ev):

   -60.3156 -60.3101 -30.5901 -30.5882 -30.1754 -30.1734 -30.1499 -30.1303
    -6.8960  -5.9720  -5.2616  -5.0898   4.8334   5.3519   6.2447   6.3728
     6.4575   8.2296   8.8145   8.8234   9.9622  10.0666  10.4175  11.2136
    11.8848  11.9524  12.3442  12.5056

          k = 0.0909 0.1818 0.2414 (  3337 PWs)   bands (ev):

   -60.3126 -60.3079 -30.5863 -30.5852 -30.1949 -30.1794 -30.1664 -30.1655
    -6.6762  -5.8384  -5.3756  -5.2217   5.1255   5.6004   6.2442   6.5427
     6.7708   7.9053   8.5764   8.7969   9.2221   9.8477  10.0905  11.0063
    11.7571  12.3251  12.7301  12.8949

          k = 0.0909 0.1818 0.4828 (  3329 PWs)   bands (ev):

   -60.3063 -60.3036 -30.5794 -30.5787 -30.2819 -30.2725 -30.1520 -30.1518
    -6.1955  -5.7292  -5.4657  -5.4602   5.6974   6.0321   6.4330   6.6120
     7.4289   7.5631   7.6790   8.8166   9.0047   9.5170   9.6563  10.1807
    12.0105  12.5547  12.9228  13.2858

          k = 0.0909 0.1818-0.7241 (  3324 PWs)   bands (ev):

   -60.3023 -60.3023 -30.5768 -30.5750 -30.3231 -30.3207 -30.1448 -30.1442
    -5.9409  -5.8040  -5.5488  -5.4034   5.8246   6.0138   6.5055   6.6563
     7.3086   8.2050   8.3610   8.4058   8.7154   8.9999   9.5270   9.8598
    12.5588  12.6131  12.6198  12.9585

          k = 0.0909 0.2727 0.0000 (  3328 PWs)   bands (ev):

   -60.3150 -60.3107 -30.5896 -30.5875 -30.1765 -30.1743 -30.1477 -30.1324
    -6.7594  -5.9642  -5.3917  -5.1648   5.0233   5.6840   6.3932   6.4908
     6.5315   7.8103   8.5126   8.7791   9.5428   9.6600  10.2699  11.0455
    12.1267  12.1855  12.6854  12.7543

          k = 0.0909 0.2727 0.2414 (  3327 PWs)   bands (ev):

   -60.3121 -60.3084 -30.5861 -30.5849 -30.1934 -30.1818 -30.1668 -30.1654
    -6.5521  -5.8103  -5.5068  -5.2843   5.3024   5.8933   6.2867   6.5250
     7.0245   7.7753   8.2375   8.4095   9.0485   9.6750  10.1275  10.8632
    11.9666  12.4539  12.7740  13.0462

          k = 0.0909 0.2727 0.4828 (  3331 PWs)   bands (ev):

   -60.3060 -60.3039 -30.5799 -30.5792 -30.2806 -30.2732 -30.1520 -30.1518
    -6.1350  -5.7669  -5.4817  -5.4733   5.8139   6.1185   6.2886   6.5685
     7.3170   7.5761   7.9091   8.7540   8.9990   9.3783   9.6837  10.4190
    11.7903  12.6800  12.9126  13.0357

          k = 0.0909 0.2727-0.7241 (  3326 PWs)   bands (ev):

   -60.3023 -60.3023 -30.5778 -30.5759 -30.3225 -30.3199 -30.1446 -30.1440
    -5.9822  -5.8662  -5.4803  -5.3551   5.7631   5.9846   6.4040   6.4589
     7.4303   8.1763   8.4515   8.5218   9.0729   9.3805   9.4060   9.7759
    12.2076  12.5736  12.6264  12.6389

          k = 0.0909 0.3636 0.0000 (  3324 PWs)   bands (ev):

   -60.3142 -60.3115 -30.5888 -30.5872 -30.1771 -30.1754 -30.1449 -30.1352
    -6.5813  -6.0230  -5.4675  -5.2629   5.3072   5.9327   6.4279   6.5063
     6.9359   7.5070   8.1047   8.7957   8.9089   9.3545  10.2953  10.8376
    12.3669  12.4674  12.7838  12.8907

          k = 0.0909 0.3636 0.2414 (  3326 PWs)   bands (ev):

   -60.3114 -60.3091 -30.5857 -30.5847 -30.1915 -30.1844 -30.1670 -30.1657
    -6.3903  -5.8503  -5.5833  -5.3684   5.5657   6.1699   6.3465   6.4327
     7.2377   7.7021   8.0923   8.1269   8.6923   9.3040  10.2697  10.7255
    12.2248  12.5438  12.8721  13.1825

          k = 0.0909 0.3636 0.4828 (  3333 PWs)   bands (ev):

   -60.3056 -60.3043 -30.5803 -30.5797 -30.2790 -30.2743 -30.1520 -30.1519
    -6.0590  -5.8226  -5.4945  -5.4865   5.9280   6.1459   6.2743   6.5168
     7.1849   7.5816   8.0980   8.7351   8.9817   9.1890   9.8460  10.5145
    11.7124  12.5569  12.8454  13.0387

          k = 0.0909 0.3636-0.7241 (  3334 PWs)   bands (ev):

   -60.3023 -60.3023 -30.5785 -30.5770 -30.3216 -30.3197 -30.1444 -30.1440
    -6.0021  -5.9268  -5.4128  -5.3303   5.7055   5.8614   6.3753   6.4030
     7.5951   8.1085   8.4983   8.7181   8.9018   9.3995   9.8253  10.0215
    11.8312  12.1173  12.6403  12.6451

          k = 0.0909 0.4545 0.0000 (  3321 PWs)   bands (ev):

   -60.3133 -60.3124 -30.5880 -30.5874 -30.1771 -30.1765 -30.1417 -30.1384
    -6.3785  -6.1763  -5.4468  -5.3650   5.6379   5.9103   6.4665   6.4966
     7.3233   7.5701   7.7677   8.2521   8.8990   9.0906  10.4289  10.6209
    12.5661  12.7099  12.7203  12.8770

          k = 0.0909 0.4545 0.2414 (  3320 PWs)   bands (ev):

   -60.3106 -60.3098 -30.5852 -30.5849 -30.1893 -30.1869 -30.1667 -30.1662
    -6.2031  -6.0091  -5.5428  -5.4596   5.8849   6.1972   6.3524   6.3915
     7.3814   7.5497   8.0838   8.3028   8.3835   8.8248  10.4418  10.5950
    12.4228  12.5291  13.0463  13.1953

          k = 0.0909 0.4545 0.4828 (  3323 PWs)   bands (ev):

   -60.3052 -60.3047 -30.5804 -30.5802 -30.2772 -30.2756 -30.1520 -30.1519
    -5.9753  -5.8938  -5.4995  -5.4960   6.0195   6.0885   6.3639   6.4488
     7.2251   7.4092   8.3443   8.6248   8.9737   9.0937  10.0932  10.3608
    11.8902  12.2085  12.9507  13.0198

          k = 0.0909 0.4545-0.7241 (  3334 PWs)   bands (ev):

   -60.3023 -60.3023 -30.5786 -30.5780 -30.3206 -30.3199 -30.1442 -30.1440
    -5.9987  -5.9726  -5.3611  -5.3322   5.6918   5.7451   6.3818   6.3934
     7.7953   7.9831   8.5650   8.6893   8.9500   9.1882  10.2486  10.3412
    11.5627  11.6936  12.6484  12.6497

          k = 0.1818 0.1818 0.0000 (  3343 PWs)   bands (ev):

   -60.3153 -60.3105 -30.5906 -30.5875 -30.1765 -30.1731 -30.1487 -30.1315
    -6.8263  -5.9624  -5.3721  -5.0876   4.7746   5.6935   6.3498   6.3990
     6.4934   7.8168   8.7835   8.8609   9.8831   9.9178  10.2994  11.1035
    11.8038  11.8636  12.6135  12.7469

          k = 0.1818 0.1818 0.2414 (  3330 PWs)   bands (ev):

   -60.3123 -60.3082 -30.5867 -30.5848 -30.1942 -30.1804 -30.1661 -30.1660
    -6.6120  -5.8160  -5.4811  -5.2205   5.0829   5.8914   6.2132   6.5940
     6.8938   7.7391   8.2916   8.8446   9.0966   9.8641  10.1434  10.8866
    11.7999  12.1947  12.7468  13.0963

          k = 0.1818 0.1818 0.4828 (  3337 PWs)   bands (ev):

   -60.3062 -60.3038 -30.5799 -30.5788 -30.2814 -30.2727 -30.1520 -30.1518
    -6.1592  -5.7451  -5.4785  -5.4707   5.7346   6.1134   6.3989   6.4273
     7.3856   7.7497   7.7553   8.7828   8.8019   9.6338   9.6512  10.3372
    11.8837  12.5538  12.9646  13.3707

          k = 0.1818 0.1818-0.7241 (  3316 PWs)   bands (ev):

   -60.3023 -60.3023 -30.5778 -30.5748 -30.3236 -30.3196 -30.1450 -30.1440
    -5.9842  -5.7491  -5.6025  -5.3530   5.7606   6.1231   6.4154   6.6098
     7.0336   8.2957   8.4539   8.6756   8.7804   9.2871   9.2964   9.8923
    12.3247  12.6146  12.6322  13.0313

          k = 0.1818 0.2727 0.0000 (  3331 PWs)   bands (ev):

   -60.3147 -60.3110 -30.5906 -30.5872 -30.1771 -30.1734 -30.1468 -30.1334
    -6.7147  -5.9826  -5.4567  -5.1283   4.8433   5.9626   6.3496   6.5074
     6.6687   7.5128   8.6999   8.7851   9.6471   9.7602  10.0752  10.9251
    11.9275  11.9626  12.7892  12.8874

          k = 0.1818 0.2727 0.2414 (  3330 PWs)   bands (ev):

   -60.3119 -60.3086 -30.5867 -30.5847 -30.1928 -30.1820 -30.1666 -30.1658
    -6.5099  -5.8155  -5.5722  -5.2569   5.1460   6.1678   6.2200   6.4910
     7.1334   7.6523   8.0842   8.6300   9.1115   9.7557  10.0755  10.6887
    11.9798  12.2441  12.7706  13.2075

          k = 0.1818 0.2727 0.4828 (  3329 PWs)   bands (ev):

   -60.3059 -60.3040 -30.5802 -30.5791 -30.2805 -30.2733 -30.1521 -30.1519
    -6.1023  -5.7740  -5.4945  -5.4838   5.7920   6.1752   6.3080   6.3834
     7.2363   7.7861   7.9935   8.6667   8.8498   9.5121   9.7596  10.5095
    11.7620  12.6019  12.9390  13.1583

          k = 0.1818 0.2727-0.7241 (  3322 PWs)   bands (ev):

   -60.3023 -60.3023 -30.5784 -30.5753 -30.3235 -30.3191 -30.1450 -30.1439
    -6.0046  -5.7831  -5.5646  -5.3275   5.7151   6.1547   6.3600   6.4444
     7.0438   8.2733   8.4775   8.7552   8.8326   9.4437   9.5757   9.9347
    12.0603  12.6278  12.6430  12.7908

          k = 0.1818 0.3636 0.0000 (  3320 PWs)   bands (ev):

   -60.3140 -60.3117 -30.5901 -30.5875 -30.1771 -30.1742 -30.1443 -30.1358
    -6.5691  -6.0749  -5.4640  -5.2057   5.0307   5.9334   6.3722   6.4934
     7.0253   7.5638   8.3531   8.8648   9.2522   9.5188  10.0138  10.6836
    12.1726  12.2000  12.7352  12.8828

          k = 0.1818 0.3636 0.2414 (  3328 PWs)   bands (ev):

   -60.3113 -60.3092 -30.5865 -30.5850 -30.1910 -30.1841 -30.1668 -30.1659
    -6.3773  -5.9070  -5.5687  -5.3239   5.3165   6.2164   6.2623   6.3524
     7.3807   7.7109   8.1529   8.3738   8.9573   9.4489  10.0726  10.5194
    12.2094  12.3961  12.7955  13.2428

          k = 0.1818 0.3636 0.4828 (  3331 PWs)   bands (ev):

   -60.3056 -60.3044 -30.5804 -30.5795 -30.2791 -30.2744 -30.1521 -30.1520
    -6.0319  -5.8202  -5.5075  -5.4975   5.8598   6.0925   6.3649   6.3846
     7.1393   7.6313   8.2369   8.7095   8.9610   9.2798   9.8952  10.5371
    11.7860  12.6163  12.7894  13.0383

          k = 0.1818 0.3636-0.7241 (  3320 PWs)   bands (ev):

   -60.3023 -60.3023 -30.5786 -30.5762 -30.3226 -30.3193 -30.1448 -30.1441
    -6.0002  -5.8548  -5.4865  -5.3291   5.7004   6.0099   6.3455   6.3929
     7.2313   8.1407   8.4841   8.5816   8.9584   9.5473   9.9029  10.2183
    11.8054  12.3633  12.6420  12.6510

          k = 0.1818 0.4545 0.0000 (  3322 PWs)   bands (ev):

   -60.3133 -60.3124 -30.5892 -30.5882 -30.1764 -30.1754 -30.1415 -30.1386
    -6.4015  -6.2277  -5.4003  -5.3041   5.3131   5.6475   6.4110   6.4559
     7.4061   7.7500   8.1801   8.6846   9.0285   9.2568  10.1744  10.4188
    12.4141  12.4839  12.6067  12.7340

          k = 0.1818 0.4545 0.2414 (  3318 PWs)   bands (ev):

   -60.3106 -60.3099 -30.5860 -30.5854 -30.1889 -30.1864 -30.1666 -30.1662
    -6.2228  -6.0593  -5.4980  -5.4092   5.5774   5.8986   6.3191   6.3676
     7.5943   7.7548   8.3152   8.4649   8.6720   8.9968  10.2084  10.3690
    12.3968  12.4777  12.8996  13.0986

          k = 0.1818 0.4545 0.4828 (  3323 PWs)   bands (ev):

   -60.3052 -60.3048 -30.5803 -30.5800 -30.2775 -30.2758 -30.1521 -30.1520
    -5.9554  -5.8818  -5.5121  -5.5081   5.9310   6.0069   6.3838   6.4138
     7.1921   7.3885   8.5134   8.7277   9.0211   9.0700  10.1053  10.3601
    12.0125  12.3334  12.8549  12.9561

          k = 0.1818 0.4545-0.7241 (  3332 PWs)   bands (ev):

   -60.3023 -60.3023 -30.5781 -30.5772 -30.3214 -30.3202 -30.1446 -30.1443
    -5.9720  -5.9220  -5.4136  -5.3592   5.7384   5.8429   6.3575   6.3779
     7.5182   7.8495   8.4841   8.4988   9.1610   9.3708  10.2903  10.4354
    11.7018  11.9357  12.6515  12.6543

          k = 0.2727 0.2727 0.0000 (  3327 PWs)   bands (ev):

   -60.3143 -60.3114 -30.5912 -30.5875 -30.1771 -30.1730 -30.1453 -30.1348
    -6.6419  -6.0477  -5.4677  -5.1276   4.7824   5.9490   6.3257   6.4914
     6.9056   7.5606   8.7678   8.8578   9.4926   9.7901   9.9665  10.7788
    11.8073  11.8742  12.7411  12.8844

          k = 0.2727 0.2727 0.2414 (  3332 PWs)   bands (ev):

   -60.3115 -60.3090 -30.5872 -30.5850 -30.1918 -30.1827 -30.1665 -30.1661
    -6.4424  -5.8799  -5.5749  -5.2586   5.0935   6.1900   6.2258   6.3621
     7.3651   7.6815   8.1294   8.8166   8.9755   9.8232   9.9754  10.4263
    12.0861  12.1395  12.7576  13.2676

          k = 0.2727 0.2727 0.4828 (  3328 PWs)   bands (ev):

   -60.3057 -60.3042 -30.5804 -30.5791 -30.2800 -30.2738 -30.1522 -30.1520
    -6.0519  -5.7907  -5.5112  -5.4982   5.7952   6.1199   6.2502   6.4049
     7.1390   7.8050   8.1875   8.6700   8.8215   9.5352   9.8083  10.5807
    11.7955  12.5704  12.9398  13.2865

          k = 0.2727 0.2727-0.7241 (  3328 PWs)   bands (ev):

   -60.3023 -60.3023 -30.5786 -30.5751 -30.3237 -30.3190 -30.1452 -30.1441
    -6.0016  -5.7129  -5.6337  -5.3279   5.7053   6.3092   6.3267   6.3808
     6.8110   8.3084   8.4291   8.4760   8.9899   9.6673   9.7321  10.1613
    11.9303  12.6355  12.6514  12.8953

          k = 0.2727 0.3636 0.0000 (  3321 PWs)   bands (ev):

   -60.3138 -60.3119 -30.5912 -30.5884 -30.1764 -30.1733 -30.1433 -30.1367
    -6.5434  -6.1595  -5.4168  -5.1678   4.8487   5.6577   6.3269   6.4492
     7.2357   7.9100   8.5897   9.0112   9.4427   9.6810   9.7475  10.5354
    11.9252  11.9734  12.6175  12.7396

          k = 0.2727 0.3636 0.2414 (  3323 PWs)   bands (ev):

   -60.3110 -60.3094 -30.5873 -30.5856 -30.1902 -30.1840 -30.1666 -30.1661
    -6.3514  -5.9936  -5.5170  -5.2940   5.1538   5.9084   6.1992   6.3634
     7.6393   7.8715   8.3954   8.6487   8.9989   9.6879   9.8524  10.1995
    12.2128  12.2427  12.7283  13.1087

          k = 0.2727 0.3636 0.4828 (  3326 PWs)   bands (ev):

   -60.3054 -60.3045 -30.5804 -30.5794 -30.2791 -30.2748 -30.1523 -30.1521
    -5.9908  -5.8206  -5.5249  -5.5131   5.8215   6.0112   6.2323   6.4292
     7.1248   7.6547   8.4003   8.7496   8.9156   9.3929   9.9211  10.5352
    11.9519  12.5982  12.8611  13.0125

          k = 0.2727 0.3636-0.7241 (  3328 PWs)   bands (ev):

   -60.3023 -60.3023 -30.5782 -30.5756 -30.3232 -30.3196 -30.1452 -30.1443
    -5.9727  -5.7684  -5.5742  -5.3567   5.7396   6.1771   6.3181   6.3730
     6.9188   8.0095   8.3549   8.4572   9.1528   9.6156  10.0938  10.4291
    11.8534  12.6327  12.6464  12.6575

          k = 0.2727 0.4545 0.0000 (  3328 PWs)   bands (ev):

   -60.3132 -60.3125 -30.5906 -30.5895 -30.1754 -30.1742 -30.1412 -30.1389
    -6.4248  -6.2926  -5.3318  -5.2414   5.0339   5.3176   6.3521   6.3968
     7.6169   7.9829   8.6371   9.1076   9.2260   9.4679   9.8764  10.1994
    12.1760  12.2101  12.4234  12.4926

          k = 0.2727 0.4545 0.2414 (  3320 PWs)   bands (ev):

   -60.3105 -60.3099 -30.5869 -30.5863 -30.1882 -30.1860 -30.1664 -30.1662
    -6.2422  -6.1201  -5.4370  -5.3573   5.3223   5.5841   6.2418   6.3057
     7.8881   8.0290   8.5369   8.6767   8.9602   9.3299   9.8937  10.0322
    12.3677  12.3802  12.7194  12.8764

          k = 0.2727 0.4545 0.4828 (  3317 PWs)   bands (ev):

   -60.3051 -60.3048 -30.5802 -30.5798 -30.2777 -30.2762 -30.1523 -30.1522
    -5.9259  -5.8664  -5.5300  -5.5247   5.8637   5.9244   6.2764   6.3615
     7.2459   7.4429   8.6240   8.7642   9.0338   9.1886  10.1205  10.3575
    12.2203  12.5226  12.7585  12.8527

          k = 0.2727 0.4545-0.7241 (  3326 PWs)   bands (ev):

   -60.3023 -60.3023 -30.5774 -30.5764 -30.3221 -30.3208 -30.1450 -30.1447
    -5.9208  -5.8503  -5.4869  -5.4114   5.8277   5.9767   6.3303   6.3538
     7.2267   7.6037   8.3897   8.4255   9.3214   9.4849  10.4004  10.5432
    11.9406  12.2423  12.6555  12.6594

          k = 0.3636 0.3636 0.0000 (  3327 PWs)   bands (ev):

   -60.3134 -60.3123 -30.5918 -30.5897 -30.1753 -30.1730 -30.1421 -30.1379
    -6.4999  -6.2580  -5.3417  -5.1644   4.7872   5.3196   6.3031   6.3911
     7.5451   8.2980   8.6864   9.2207   9.4531   9.5518   9.7434  10.4511
    11.7852  11.8844  12.4244  12.4958

          k = 0.3636 0.3636 0.2414 (  3320 PWs)   bands (ev):

   -60.3107 -60.3097 -30.5877 -30.5864 -30.1889 -30.1846 -30.1664 -30.1662
    -6.3098  -6.0876  -5.4470  -5.2927   5.0980   5.5866   6.1749   6.3030
     7.9486   8.1125   8.6885   8.8760   8.9512   9.6508   9.7882   9.8835
    12.1348  12.3152  12.6527  12.8568

          k = 0.3636 0.3636 0.4828 (  3320 PWs)   bands (ev):

   -60.3052 -60.3047 -30.5802 -30.5795 -30.2786 -30.2756 -30.1524 -30.1522
    -5.9419  -5.8299  -5.5408  -5.5296   5.8126   5.9262   6.1649   6.3622
     7.2127   7.6265   8.5140   8.7858   8.9866   9.3870   9.9984  10.4784
    12.2006  12.5796  12.8367  13.1325

          k = 0.3636 0.3636-0.7241 (  3324 PWs)   bands (ev):

   -60.3023 -60.3023 -30.5774 -30.5754 -30.3232 -30.3204 -30.1454 -30.1448
    -5.9210  -5.6800  -5.6610  -5.4100   5.8236   6.2433   6.3045   6.3531
     6.8035   7.6801   8.3200   8.4190   9.3003   9.6056  10.3341  10.5931
    11.9900  12.6528  12.6620  12.7756

          k = 0.3636 0.4545 0.0000 (  3334 PWs)   bands (ev):

   -60.3130 -60.3126 -30.5917 -30.5909 -30.1742 -30.1733 -30.1407 -30.1393
    -6.4363  -6.3540  -5.2622  -5.1983   4.8521   5.0359   6.3064   6.3383
     7.9095   8.2725   8.8450   9.2169   9.4518   9.6519   9.7868  10.1970
    11.9073  11.9817  12.1695  12.2159

          k = 0.3636 0.4545 0.2414 (  3303 PWs)   bands (ev):

   -60.3104 -60.3100 -30.5877 -30.5872 -30.1873 -30.1858 -30.1663 -30.1662
    -6.2507  -6.1754  -5.3765  -5.3214   5.1577   5.3260   6.1887   6.2355
     8.2317   8.3383   8.7040   8.8042   9.2881   9.5112   9.6500   9.7043
    12.2399  12.3749  12.5666  12.6065

          k = 0.3636 0.4545 0.4828 (  3314 PWs)   bands (ev):

   -60.3051 -60.3048 -30.5800 -30.5797 -30.2777 -30.2767 -30.1524 -30.1523
    -5.8934  -5.8538  -5.5475  -5.5429   5.8271   5.8627   6.1751   6.2527
     7.3650   7.5186   8.6359   8.7464   9.1204   9.2684  10.1657  10.3492
    12.4928  12.6184  12.7360  12.8338

          k = 0.3636 0.4545-0.7241 (  3318 PWs)   bands (ev):

   -60.3023 -60.3023 -30.5765 -30.5758 -30.3226 -30.3215 -30.1454 -30.1451
    -5.8495  -5.7635  -5.5741  -5.4844   5.9527   6.1166   6.3078   6.3238
     6.9974   7.3194   8.3402   8.3771   9.4273   9.5349  10.5368  10.6361
    12.2341  12.5507  12.6593  12.6630

          k = 0.4545 0.4545 0.0000 (  3318 PWs)   bands (ev):

   -60.3129 -60.3128 -30.5922 -30.5919 -30.1733 -30.1730 -30.1403 -30.1398
    -6.4290  -6.4011  -5.2088  -5.1856   4.7908   4.8532   6.2883   6.2996
     8.2565   8.5837   8.6405   8.9603   9.6445   9.7256  10.0784  10.2832
    11.7640  11.8906  11.8981  11.9849

          k = 0.4545 0.4545 0.2414 (  3297 PWs)   bands (ev):

   -60.3103 -60.3102 -30.5880 -30.5878 -30.1865 -30.1860 -30.1662 -30.1662
    -6.2431  -6.2176  -5.3320  -5.3122   5.1004   5.1583   6.1687   6.1853
     8.5785   8.6418   8.8108   8.8196   9.1722   9.2565   9.6862   9.8072
    12.2015  12.3287  12.4156  12.4758

          k = 0.4545 0.4545 0.4828 (  3316 PWs)   bands (ev):

   -60.3050 -60.3049 -30.5798 -30.5797 -30.2776 -30.2772 -30.1525 -30.1524
    -5.8663  -5.8524  -5.5580  -5.5559   5.8178   5.8278   6.1301   6.1600
     7.4809   7.5406   8.6508   8.6967   9.2061   9.2647  10.2452  10.3174
    12.6006  12.6404  12.7986  13.0872

          k = 0.4545 0.4545-0.7241 (  3306 PWs)   bands (ev):

   -60.3023 -60.3023 -30.5759 -30.5756 -30.3226 -30.3222 -30.1455 -30.1454
    -5.7634  -5.6765  -5.6600  -5.5717   6.0935   6.1842   6.2902   6.2922
     6.9276   7.0655   8.3290   8.3425   9.4967   9.5340  10.6420  10.6779
    12.5316  12.6621  12.6636  12.7060

     highest occupied level (ev):    13.6646

!    total energy              =    -504.89648961 Ry
     estimated scf accuracy    <       0.00000020 Ry

     The total energy is the sum of the following terms:
     one-electron contribution =    -163.54016630 Ry
     hartree contribution      =     112.47457070 Ry
     xc contribution           =     -67.47436480 Ry
     ewald contribution        =    -386.35652921 Ry

     convergence has been achieved in  11 iterations

     Forces acting on atoms (cartesian axes, Ry/au):

     atom    1 type  1   force =     0.00000000    0.00000000   -0.00000000
     atom    2 type  1   force =     0.00000000    0.00000000    0.00000000
     atom    3 type  2   force =     0.00251007    0.00251007   -0.00000000
     atom    4 type  2   force =    -0.00251007   -0.00251007   -0.00000000
     atom    5 type  2   force =     0.00251007   -0.00251007   -0.00000000
     atom    6 type  2   force =    -0.00251007    0.00251007   -0.00000000

     Total force =     0.007100     Total SCF correction =     0.000122
 
     init_run     :      0.08s CPU      0.25s WALL (       1 calls)
     electrons    :      5.02s CPU      5.27s WALL (       1 calls)
     forces       :      0.03s CPU      0.06s WALL (       1 calls)

     Called by init_run:
     wfcinit      :      0.07s CPU      0.08s WALL (       1 calls)
     potinit      :      0.01s CPU      0.04s WALL (       1 calls)
     hinit0       :      0.00s CPU      0.06s WALL (       1 calls)

     Called by electrons:
     c_bands      :      4.67s CPU      4.88s WALL (      11 calls)
     sum_band     :      0.32s CPU      0.33s WALL (      11 calls)
     v_of_rho     :      0.02s CPU      0.05s WALL (      12 calls)
     mix_rho      :      0.00s CPU      0.00s WALL (      11 calls)

     Called by c_bands:
     init_us_2    :      0.04s CPU      0.04s WALL (     672 calls)
     init_us_2:cp :      0.04s CPU      0.04s WALL (     672 calls)
     cegterg      :      3.76s CPU      3.86s WALL (     308 calls)

     Called by *egterg:
     cdiaghg      :      1.22s CPU      1.25s WALL (    2016 calls)
     h_psi        :      2.11s CPU      2.18s WALL (    2044 calls)
     g_psi        :      0.01s CPU      0.01s WALL (    1708 calls)

     Called by h_psi:
     h_psi:calbec :      0.13s CPU      0.13s WALL (    2044 calls)
     vloc_psi     :      1.88s CPU      1.94s WALL (    2044 calls)
     add_vuspsi   :      0.08s CPU      0.09s WALL (    2044 calls)

     General routines
     calbec       :      0.13s CPU      0.14s WALL (    2156 calls)
     fft          :      0.01s CPU      0.03s WALL (     121 calls)
     ffts         :      0.00s CPU      0.00s WALL (      11 calls)
     fftw         :      1.86s CPU      1.92s WALL (   69838 calls)
 
     Parallel routines
 
     PWSCF        :      5.16s CPU      5.96s WALL

 
   This run was terminated on:  13:58:35  13Jul2026            

=------------------------------------------------------------------------------=
   JOB DONE.
=------------------------------------------------------------------------------=
