../04-vc-relax-with-consistent-param/output final structure
1.0
   4.527911459   0.000000000   0.000000000
   0.000000000   4.527911459   0.000000000
   0.000000000   0.000000000   3.117533920
Ru O
2  4
Cartesian
            0.0000000000        0.0000000000        0.0000000000
            2.2639557299        2.2639557299        1.5587669598
            1.3838447779        1.3838447779       -0.0000000000
            3.1440666819        3.1440666819       -0.0000000000
            3.6478005077        0.8801109520        1.5587669598
            0.8801109520        3.6478005077        1.5587669598
