../8_layer/output final structure
1.0
        6.5252737999         0.0000000000         0.0000000000
        0.0000000000         2.9672219753         0.0000000000
        0.0000000000         0.0000000000        47.9658851624
   Ti    O   Ru
   12   32    4
Selective dynamics
Cartesian
     3.262636705         0.000000000        13.214066708  F F F
     0.000000000         1.483610899        12.729356480  F F F
     0.000000000         0.000000000        16.072939036  F F F
     3.262636705         1.483610899        16.453792181  F F F
     3.262636705         0.000000000        19.817779346  T T T
     0.000000000         1.483610899        19.512859534  T T T
     0.000000000         0.000000000        22.792189160  T T T
     3.262636705         1.483610899        23.075382081  T T T
     3.262636705         0.000000000        26.442062414  T T T
     0.000000000         1.483610899        26.158716537  T T T
     0.000000000         0.000000000        29.416146302  T T T
     3.262636705         1.483610899        29.721349154  T T T
     0.000000000         0.000000000        11.662939084  T T T
     3.262636705         0.000000000        15.014120835  T T T
     0.000000000         0.000000000        14.247559980  T T T
     2.033218724         1.483610899        12.851252358  T T T
     4.492055076         1.483610899        12.851252358  T T T
     0.000000000         0.000000000        18.344560616  T T T
     3.262636705         0.000000000        17.598901835  T T T
     5.238929303         1.483610988        16.283889580  T T T
     1.286344497         1.483610988        16.283889580  T T T
     3.262636705         0.000000000        21.681184392  T T T
     0.000000000         0.000000000        20.921949699  T T T
     1.995103518         1.483610899        19.641561237  T T T
     4.530170088         1.483610899        19.641561237  T T T
     0.000000000         0.000000000        24.981058717  T T T
     3.262636705         0.000000000        24.253134247  T T T
     5.250654965         1.483610988        22.950441378  T T T
     1.274618933         1.483610988        22.950441378  T T T
     3.262636705         0.000000000        28.312138912  T T T
     0.000000000         0.000000000        27.552937097  T T T
     1.988039262         1.483610899        26.283662957  T T T
     4.537234344         1.483610899        26.283662957  T T T
     0.000000000         0.000000000        31.634316214  T T T
     3.262636705         0.000000000        30.889569450  T T T
     5.257714553         1.483610988        29.591874095  T T T
     1.267559441         1.483610988        29.591874095  T T T
     3.262636705         0.000000000        34.986141237  T T T
     0.000000000         0.000000000        34.220086424  T T T
     1.976159581         1.483610899        32.949357059  T T T
     4.549114024         1.483610899        32.949357059  T T T
     3.262636705         0.000000000        37.571857127  T T T
     5.296182719         1.483610988        36.384833257  T T T
     1.229090886         1.483610988        36.384833257  T T T
     3.262636705         0.000000000        33.160693566  T T T
     0.000000000         1.483610899        32.779773235  T T T
     0.000000000         0.000000000        36.020249192  T T T
     3.262636705         1.483610899        36.505379692  T T T
