
     Program PWSCF v.7.2 starts on 26Jul2026 at 15:19:23 
        Git branch: krg.prod
        Last git commit: daa121e36ad33d2e2c57a5cfc9f193e3f68d7ebf
        Last git commit date: Wed Feb 25 11:53:28 2026 -0600
        Last git commit subject: use krg software repo instead

     This program is part of the open-source Quantum ESPRESSO suite
     for quantum simulation of materials; please cite
         "P. Giannozzi et al., J. Phys.:Condens. Matter 21 395502 (2009);
         "P. Giannozzi et al., J. Phys.:Condens. Matter 29 465901 (2017);
         "P. Giannozzi et al., J. Chem. Phys. 152 154105 (2020);
          URL http://www.quantum-espresso.org", 
     in publications or presentations arising from this work. More details at
     http://www.quantum-espresso.org/quote

     Serial multi-threaded version, running on    8 processor cores
     161561 MiB available memory on the printing compute node when the environment starts
 
     Waiting for input...
     Reading input from standard input
Warning: card &FCP ignored
Warning: card / ignored
Warning: card &RISM ignored
Warning: card / ignored

     Current dimensions of program PWSCF are:
     Max number of different atomic species (ntypx) = 10
     Max number of k-points (npk) =  40000
     Max angular momentum in pseudopotentials (lmaxx) =  4
     Message from routine setup:
     using ibrav=0 with symmetry is DISCOURAGED, use correct ibrav instead
 
 
     G-vector sticks info
     --------------------
     sticks:   dense  smooth     PW     G-vecs:    dense   smooth      PW
     Sum        3493    3493    931              1124735  1124735  157705
 
     Using Slab Decomposition
 


     bravais-lattice index     =            0
     lattice parameter (alat)  =      10.4119  a.u.
     unit-cell volume          =    6333.0183 (a.u.)^3
     number of atoms/cell      =           36
     number of atomic types    =            2
     number of electrons       =       288.00
     number of Kohn-Sham states=          173
     kinetic-energy cutoff     =     120.0000  Ry
     charge density cutoff     =     480.0000  Ry
     scf convergence threshold =      1.0E-06
     mixing beta               =       0.4000
     number of iterations used =           20  plain     mixing
     energy convergence thresh.=      1.0E-04
     force convergence thresh. =      1.0E-03
     press convergence thresh. =      5.0E-01
     Exchange-correlation= PBE
                           (   1   4   3   4   0   0   0)
     nstep                     =          500


     GPU acceleration is ACTIVE.


     celldm(1)=  10.411874  celldm(2)=   0.000000  celldm(3)=   0.000000
     celldm(4)=   0.000000  celldm(5)=   0.000000  celldm(6)=   0.000000

     crystal axes: (cart. coord. in units of alat)
               a(1) = (   1.000000   0.000000   0.000000 )  
               a(2) = (   0.000000   0.843403   0.000000 )  
               a(3) = (   0.000000   0.000000   6.652558 )  

     reciprocal axes: (cart. coord. in units 2 pi/alat)
               b(1) = (  1.000000  0.000000  0.000000 )  
               b(2) = (  0.000000  1.185672  0.000000 )  
               b(3) = (  0.000000  0.000000  0.150318 )  


     PseudoPot. # 1 for Ti read from file:
     /cm/shared/apps/KO/pseudo/sg15/Ti_ONCV_PBE-1.2.upf
     MD5 check sum: 1aea57736bd12dcfee93c97d0b9b5968
     Pseudo is Norm-conserving, Zval = 12.0
     Generated using ONCVPSP code by D. R. Hamann
     Using radial grid of  602 points,  6 beta functions with: 
                l(1) =   0
                l(2) =   0
                l(3) =   1
                l(4) =   1
                l(5) =   2
                l(6) =   2

     PseudoPot. # 2 for O  read from file:
     /cm/shared/apps/KO/pseudo/sg15/O_ONCV_PBE-1.2.upf
     MD5 check sum: e36c48deb68f4e355fffe4602be2c42c
     Pseudo is Norm-conserving, Zval =  6.0
     Generated using ONCVPSP code by D. R. Hamann
     Using radial grid of  602 points,  4 beta functions with: 
                l(1) =   0
                l(2) =   0
                l(3) =   1
                l(4) =   1

     atomic species   valence    mass     pseudopotential
     Ti               12.00    47.86700     Ti( 1.00)
     O                 6.00    15.99900     O ( 1.00)

      2 Sym. Ops. (no inversion) found ( 1 have fractional translation)



   Cartesian axes

     site n.     atom                  positions (alat units)
         1        Ti     tau(   1) = (   0.7187502  -0.0457086   2.2755430  )
         2        Ti     tau(   2) = (   0.2187502   0.4674103   2.2755430  )
         3        Ti     tau(   3) = (   0.4031715   0.0278008   2.7035986  )
         4        Ti     tau(   4) = (   0.9031714   0.3939008   2.7035986  )
         5        Ti     tau(   5) = (   0.1246374  -0.0204455   3.1742908  )
         6        Ti     tau(   6) = (   0.6246373   0.4421471   3.1742908  )
         7        Ti     tau(   7) = (   0.8230491   0.0204496   3.6158676  )
         8        Ti     tau(   8) = (   0.3230492   0.4012520   3.6158676  )
         9        Ti     tau(   9) = (   0.5445593  -0.0277605   4.0866131  )
        10        Ti     tau(  10) = (   0.0445594   0.4494622   4.0866131  )
        11        Ti     tau(  11) = (   0.2285110   0.0456340   4.5145801  )
        12        Ti     tau(  12) = (   0.7285109   0.3760676   4.5145801  )
        13        O      tau(  13) = (   0.4845540   0.6009066   2.1290165  )
        14        O      tau(  14) = (   0.9845540   0.6641984   2.1290165  )
        15        O      tau(  15) = (   0.9192454   0.2550363   2.3940164  )
        16        O      tau(  16) = (   0.1969364   0.5909859   2.5809588  )
        17        O      tau(  17) = (   0.4192453   0.1666654   2.3940160  )
        18        O      tau(  18) = (   0.6969363   0.6741190   2.5809584  )
        19        O      tau(  19) = (   0.6261923   0.2573209   2.8518802  )
        20        O      tau(  20) = (   0.9059207   0.5838726   3.0288518  )
        21        O      tau(  21) = (   0.1261924   0.1643807   2.8518804  )
        22        O      tau(  22) = (   0.4059207   0.6812324   3.0288516  )
        23        O      tau(  23) = (   0.3368701   0.2572933   3.3058995  )
        24        O      tau(  24) = (   0.6106912   0.5861274   3.4842526  )
        25        O      tau(  25) = (   0.8368701   0.1644083   3.3058995  )
        26        O      tau(  26) = (   0.1106912   0.6789775   3.4842526  )
        27        O      tau(  27) = (   0.0418622   0.2594963   3.7612888  )
        28        O      tau(  28) = (   0.3214951   0.5860178   3.9383896  )
        29        O      tau(  29) = (   0.5418621   0.1622054   3.7612884  )
        30        O      tau(  30) = (   0.8214951   0.6790872   3.9383900  )
        31        O      tau(  31) = (   0.7503146   0.2527089   4.2090665  )
        32        O      tau(  32) = (   0.0286886   0.5881780   4.3962720  )
        33        O      tau(  33) = (   0.2503145   0.1689928   4.2090661  )
        34        O      tau(  34) = (   0.5286886   0.6769269   4.3962716  )
        35        O      tau(  35) = (   0.4626746   0.2426912   4.6609899  )
        36        O      tau(  36) = (   0.9626746   0.1790105   4.6609903  )

     number of k points=    12  Gaussian smearing, width (Ry)=  0.0200
                       cart. coord. in units 2pi/alat
        k(    1) = (   0.0000000   0.0000000   0.0000000), wk =   0.0666667
        k(    2) = (   0.0000000   0.1976120   0.0000000), wk =   0.1333333
        k(    3) = (   0.0000000   0.3952241   0.0000000), wk =   0.1333333
        k(    4) = (   0.0000000  -0.5928361   0.0000000), wk =   0.0666667
        k(    5) = (   0.2000000   0.0000000   0.0000000), wk =   0.1333333
        k(    6) = (   0.2000000   0.1976120   0.0000000), wk =   0.2666667
        k(    7) = (   0.2000000   0.3952241   0.0000000), wk =   0.2666667
        k(    8) = (   0.2000000  -0.5928361   0.0000000), wk =   0.1333333
        k(    9) = (   0.4000000   0.0000000   0.0000000), wk =   0.1333333
        k(   10) = (   0.4000000   0.1976120   0.0000000), wk =   0.2666667
        k(   11) = (   0.4000000   0.3952241   0.0000000), wk =   0.2666667
        k(   12) = (   0.4000000  -0.5928361   0.0000000), wk =   0.1333333

     Dense  grid:  1124735 G-vectors     FFT dimensions: (  80,  64, 486)

     Estimated max dynamical RAM per process >       8.09 GB

     Initial potential from superposition of free atoms

     starting charge     286.6604, renormalised to     288.0000

     negative rho (up, down):  1.382E-03 0.000E+00
     Starting wfcs are random

     total cpu time spent up to now is       12.2 secs

     per-process dynamical memory:  1160.8 Mb

     Self-consistent Calculation

     iteration #  1     ecut=   120.00 Ry     beta= 0.40
     Davidson diagonalization with overlap
     ethr =  1.00E-02,  avg # of iterations = 17.6

     negative rho (up, down):  4.649E-05 0.000E+00

     total cpu time spent up to now is       33.4 secs

     total energy              =   -2151.52060474 Ry
     estimated scf accuracy    <      14.69035861 Ry

     iteration #  2     ecut=   120.00 Ry     beta= 0.40
     Davidson diagonalization with overlap
     ethr =  5.10E-03,  avg # of iterations =  3.8

     negative rho (up, down):  4.354E-07 0.000E+00

     total cpu time spent up to now is       41.8 secs

     total energy              =   -2154.78272156 Ry
     estimated scf accuracy    <       2.76107717 Ry

     iteration #  3     ecut=   120.00 Ry     beta= 0.40
     Davidson diagonalization with overlap
     ethr =  9.59E-04,  avg # of iterations =  2.5

     negative rho (up, down):  5.400E-08 0.000E+00

     total cpu time spent up to now is       49.7 secs

     total energy              =   -2155.55332909 Ry
     estimated scf accuracy    <       0.60854229 Ry

     iteration #  4     ecut=   120.00 Ry     beta= 0.40
     Davidson diagonalization with overlap
     ethr =  2.11E-04,  avg # of iterations = 11.8

     negative rho (up, down):  2.531E-08 0.000E+00

     total cpu time spent up to now is       60.8 secs

     total energy              =   -2155.71395945 Ry
     estimated scf accuracy    <       0.19241439 Ry

     iteration #  5     ecut=   120.00 Ry     beta= 0.40
     Davidson diagonalization with overlap
     c_bands:  1 eigenvalues not converged
     c_bands:  1 eigenvalues not converged
     c_bands:  1 eigenvalues not converged
     ethr =  6.68E-05,  avg # of iterations = 13.4

     total cpu time spent up to now is       70.2 secs

     total energy              =   -2155.73967129 Ry
     estimated scf accuracy    <       0.05533609 Ry

     iteration #  6     ecut=   120.00 Ry     beta= 0.40
     Davidson diagonalization with overlap
     ethr =  1.92E-05,  avg # of iterations = 11.9

     total cpu time spent up to now is       80.4 secs

     total energy              =   -2155.74219470 Ry
     estimated scf accuracy    <       0.04083043 Ry

     iteration #  7     ecut=   120.00 Ry     beta= 0.40
     Davidson diagonalization with overlap
     ethr =  1.42E-05,  avg # of iterations =  2.0

     total cpu time spent up to now is       87.7 secs

     total energy              =   -2155.74412667 Ry
     estimated scf accuracy    <       0.00528309 Ry

     iteration #  8     ecut=   120.00 Ry     beta= 0.40
     Davidson diagonalization with overlap
     c_bands:  2 eigenvalues not converged
     c_bands:  2 eigenvalues not converged
     c_bands:  1 eigenvalues not converged
     c_bands:  1 eigenvalues not converged
     c_bands:  1 eigenvalues not converged
     ethr =  1.83E-06,  avg # of iterations = 16.2

     total cpu time spent up to now is      100.6 secs

     total energy              =   -2155.74686020 Ry
     estimated scf accuracy    <       0.00658729 Ry

     iteration #  9     ecut=   120.00 Ry     beta= 0.40
     Davidson diagonalization with overlap
     c_bands:  1 eigenvalues not converged
     c_bands:  2 eigenvalues not converged
     ethr =  1.83E-06,  avg # of iterations =  5.2

     total cpu time spent up to now is      108.6 secs

     total energy              =   -2155.74666656 Ry
     estimated scf accuracy    <       0.00195650 Ry

     iteration # 10     ecut=   120.00 Ry     beta= 0.40
     Davidson diagonalization with overlap
     c_bands:  1 eigenvalues not converged
     ethr =  6.79E-07,  avg # of iterations =  6.1

     total cpu time spent up to now is      117.1 secs

     total energy              =   -2155.74688558 Ry
     estimated scf accuracy    <       0.00017982 Ry

     iteration # 11     ecut=   120.00 Ry     beta= 0.40
     Davidson diagonalization with overlap
     ethr =  6.24E-08,  avg # of iterations =  5.8

     total cpu time spent up to now is      127.2 secs

     total energy              =   -2155.74700654 Ry
     estimated scf accuracy    <       0.00010536 Ry

     iteration # 12     ecut=   120.00 Ry     beta= 0.40
     Davidson diagonalization with overlap
     ethr =  3.66E-08,  avg # of iterations =  1.7

     total cpu time spent up to now is      134.5 secs

     total energy              =   -2155.74700104 Ry
     estimated scf accuracy    <       0.00004760 Ry

     iteration # 13     ecut=   120.00 Ry     beta= 0.40
     Davidson diagonalization with overlap
     ethr =  1.65E-08,  avg # of iterations =  2.0

     total cpu time spent up to now is      141.7 secs

     total energy              =   -2155.74700219 Ry
     estimated scf accuracy    <       0.00001135 Ry

     iteration # 14     ecut=   120.00 Ry     beta= 0.40
     Davidson diagonalization with overlap
     ethr =  3.94E-09,  avg # of iterations =  4.6

     total cpu time spent up to now is      149.8 secs

     total energy              =   -2155.74700317 Ry
     estimated scf accuracy    <       0.00000246 Ry

     iteration # 15     ecut=   120.00 Ry     beta= 0.40
     Davidson diagonalization with overlap
     ethr =  8.55E-10,  avg # of iterations =  6.3

     total cpu time spent up to now is      158.7 secs

     End of self-consistent calculation

          k = 0.0000 0.0000 0.0000 (140607 PWs)   bands (ev):

   -57.1443 -57.1395 -57.1308 -57.1285 -57.1260 -57.1165 -57.1056 -57.1028
   -56.8384 -56.8384 -56.8252 -56.8251 -33.6340 -33.6287 -33.5672 -33.5547
   -33.4897 -33.4801 -33.4410 -33.4328 -33.3961 -33.3900 -33.3894 -33.3826
   -33.3452 -33.3383 -33.3315 -33.3279 -33.3259 -33.3234 -33.3145 -33.3062
   -33.2999 -33.2925 -33.2842 -33.2788 -33.2375 -33.2371 -33.2339 -33.2279
   -33.1519 -33.1505 -33.0967 -33.0955 -33.0070 -33.0069 -32.9829 -32.9828
   -18.2701 -18.0834 -17.6797 -17.3003 -17.2976 -17.2660 -17.1811 -17.1563
   -17.0687 -17.0354 -16.9551 -16.9095 -16.8886 -16.8212 -16.7220 -16.6820
   -16.6696 -16.5757 -16.5449 -16.5247 -16.1904 -16.1896 -16.1882 -16.1846
    -5.8144  -5.5460  -5.3638  -5.1951  -5.1798  -5.0983  -5.0163  -5.0068
    -4.8432  -4.8156  -4.7440  -4.6761  -4.5527  -4.4300  -4.3642  -4.3273
    -4.2835  -4.2239  -4.2126  -4.0859  -4.0235  -3.9783  -3.9548  -3.9139
    -3.8575  -3.8237  -3.6915  -3.6128  -3.5924  -3.5696  -3.4154  -3.2289
    -3.2282  -3.0755  -2.9574  -2.8223  -2.7967  -2.7170  -2.6851  -2.6506
    -2.6110  -2.5603  -2.5409  -2.4981  -2.4920  -2.4537  -2.3797  -2.3768
    -2.3495  -2.3354  -2.1546  -2.0565  -2.0181  -1.8660  -1.8083  -1.6959
    -1.5350  -1.5195  -1.4830  -1.4519  -1.3663  -1.2571  -1.2287  -1.2132
    -1.1455  -0.9982  -0.8763  -0.8643  -0.8069  -0.5352  -0.3804  -0.2994
     1.7887   1.8381   1.8887   2.0042   2.0164   2.0762   2.1503   2.1669
     2.2726   2.3752   2.3787   2.3935   2.4088   2.4369   2.5138   2.6092
     2.6092   2.6948   2.8018   2.8358   2.9313   2.9894   3.0893   3.2345
     3.2810   3.2836   3.3761   3.4899   3.5914

          k = 0.0000 0.1976 0.0000 (140543 PWs)   bands (ev):

   -57.1435 -57.1389 -57.1315 -57.1294 -57.1251 -57.1171 -57.1053 -57.1029
   -56.8382 -56.8382 -56.8254 -56.8253 -33.6311 -33.6266 -33.5629 -33.5530
   -33.4833 -33.4777 -33.4344 -33.4281 -33.4065 -33.3937 -33.3800 -33.3792
   -33.3542 -33.3523 -33.3397 -33.3358 -33.3292 -33.3248 -33.3157 -33.3100
   -33.2917 -33.2911 -33.2854 -33.2808 -33.2347 -33.2342 -33.2310 -33.2261
   -33.1501 -33.1489 -33.0957 -33.0947 -33.0093 -33.0093 -32.9854 -32.9853
   -18.1833 -18.0093 -17.6275 -17.2737 -17.2710 -17.2483 -17.1474 -17.1293
   -17.0758 -17.0204 -16.9894 -16.9800 -16.8686 -16.8669 -16.7392 -16.7343
   -16.6566 -16.6521 -16.5428 -16.5332 -16.2491 -16.2460 -16.2007 -16.1997
    -5.6662  -5.4911  -5.2712  -5.2360  -5.0749  -5.0619  -4.9887  -4.8713
    -4.8661  -4.7938  -4.7085  -4.7056  -4.5725  -4.5667  -4.3951  -4.2509
    -4.2263  -4.1493  -4.1424  -4.0410  -4.0374  -3.9776  -3.8949  -3.8876
    -3.8739  -3.8581  -3.7169  -3.6754  -3.6656  -3.3946  -3.3783  -3.3632
    -3.3336  -3.0719  -2.9887  -2.9209  -2.8564  -2.8205  -2.8053  -2.7930
    -2.7062  -2.6881  -2.5903  -2.5431  -2.4474  -2.3767  -2.3693  -2.2991
    -2.2258  -2.2086  -2.2005  -1.9942  -1.9257  -1.8901  -1.7951  -1.7481
    -1.6532  -1.5476  -1.4432  -1.4024  -1.3222  -1.3152  -1.2620  -1.2604
    -1.1604  -1.1331  -0.9301  -0.8580  -0.8295  -0.6244  -0.4757  -0.3997
     1.8405   1.8614   1.9455   2.0343   2.1139   2.1222   2.2061   2.2080
     2.3388   2.3745   2.4626   2.4842   2.5295   2.5821   2.6166   2.6386
     2.7652   2.7777   2.8412   2.8466   2.9166   3.0247   3.0773   3.1722
     3.2772   3.2894   3.3052   3.3620   3.4592

          k = 0.0000 0.3952 0.0000 (140518 PWs)   bands (ev):

   -57.1412 -57.1378 -57.1332 -57.1313 -57.1233 -57.1188 -57.1047 -57.1033
   -56.8378 -56.8377 -56.8258 -56.8257 -33.6247 -33.6224 -33.5540 -33.5493
   -33.4708 -33.4696 -33.4186 -33.4162 -33.4127 -33.3992 -33.3761 -33.3759
   -33.3726 -33.3695 -33.3611 -33.3556 -33.3372 -33.3327 -33.3148 -33.3118
   -33.2900 -33.2884 -33.2862 -33.2803 -33.2297 -33.2293 -33.2257 -33.2231
   -33.1463 -33.1455 -33.0936 -33.0930 -33.0141 -33.0141 -32.9906 -32.9905
   -17.9433 -17.8050 -17.4901 -17.3255 -17.2640 -17.1838 -17.1332 -17.1161
   -17.0946 -17.0827 -17.0332 -16.9883 -16.8795 -16.8735 -16.8219 -16.7688
   -16.7541 -16.6763 -16.5559 -16.5539 -16.3791 -16.3760 -16.2324 -16.2317
    -5.3354  -5.2879  -5.2020  -5.0578  -5.0257  -5.0090  -4.9023  -4.8470
    -4.8062  -4.7705  -4.7291  -4.6900  -4.6247  -4.6138  -4.3676  -4.3522
    -4.2770  -4.1311  -4.0585  -3.9998  -3.9546  -3.9287  -3.8408  -3.8014
    -3.7667  -3.7077  -3.6628  -3.6340  -3.5477  -3.5242  -3.3720  -3.3434
    -3.3300  -3.1933  -3.1558  -3.0151  -3.0086  -2.9933  -2.9522  -2.9013
    -2.7732  -2.7667  -2.7530  -2.6849  -2.5137  -2.4639  -2.4393  -2.3929
    -2.2021  -2.1023  -2.0793  -2.0708  -1.9756  -1.8414  -1.7877  -1.7436
    -1.6805  -1.6406  -1.5678  -1.5631  -1.4408  -1.3514  -1.2953  -1.1845
    -1.0992  -1.0553  -1.0150  -0.8644  -0.8129  -0.7797  -0.6492  -0.6356
     1.9413   2.0155   2.1060   2.1536   2.2509   2.2588   2.3022   2.3713
     2.5270   2.5504   2.5794   2.6303   2.7301   2.7444   2.8136   2.8357
     2.8762   2.9039   2.9383   2.9472   3.0081   3.0177   3.0398   3.0990
     3.1450   3.1940   3.2684   3.2715   3.2800

          k = 0.0000-0.5928 0.0000 (140510 PWs)   bands (ev):

   -57.1387 -57.1382 -57.1335 -57.1330 -57.1211 -57.1209 -57.1041 -57.1038
   -56.8375 -56.8375 -56.8260 -56.8259 -33.6208 -33.6208 -33.5483 -33.5483
   -33.4641 -33.4640 -33.4090 -33.4084 -33.4038 -33.4034 -33.3872 -33.3870
   -33.3759 -33.3756 -33.3650 -33.3648 -33.3428 -33.3426 -33.3118 -33.3116
   -33.2911 -33.2908 -33.2815 -33.2814 -33.2273 -33.2273 -33.2225 -33.2225
   -33.1440 -33.1439 -33.0925 -33.0923 -33.0166 -33.0166 -32.9933 -32.9932
   -17.6138 -17.6137 -17.5258 -17.5257 -17.2994 -17.2991 -17.1017 -17.1010
   -17.0473 -17.0460 -17.0051 -17.0048 -16.9423 -16.9421 -16.7655 -16.7654
   -16.7188 -16.7179 -16.5953 -16.5953 -16.4483 -16.4474 -16.2501 -16.2494
    -5.0730  -5.0727  -5.0579  -5.0575  -4.9629  -4.9618  -4.9059  -4.9057
    -4.8428  -4.8420  -4.7577  -4.7575  -4.7121  -4.7112  -4.4115  -4.4107
    -4.1231  -4.1220  -4.0201  -4.0195  -3.7955  -3.7948  -3.7379  -3.7376
    -3.6954  -3.6950  -3.4614  -3.4609  -3.4214  -3.4205  -3.4122  -3.4116
    -3.3102  -3.3099  -3.2683  -3.2675  -3.0619  -3.0619  -3.0257  -3.0252
    -2.9194  -2.9186  -2.7187  -2.7180  -2.6257  -2.6254  -2.3790  -2.3786
    -2.2268  -2.2259  -2.1403  -2.1401  -1.9985  -1.9983  -1.7517  -1.7515
    -1.6673  -1.6672  -1.5809  -1.5797  -1.3553  -1.3550  -1.1541  -1.1540
    -1.1035  -1.1033  -1.0169  -1.0167  -0.7828  -0.7814  -0.7259  -0.7248
     2.1435   2.1435   2.1931   2.1936   2.2483   2.2484   2.4636   2.4638
     2.6611   2.6612   2.6976   2.6983   2.7678   2.7683   2.8244   2.8244
     2.8902   2.8908   3.0337   3.0341   3.0958   3.0964   3.1444   3.1455
     3.1588   3.1593   3.3021   3.3049   3.3180

          k = 0.2000 0.0000 0.0000 (140578 PWs)   bands (ev):

   -57.1431 -57.1384 -57.1321 -57.1296 -57.1251 -57.1174 -57.1053 -57.1029
   -56.8371 -56.8371 -56.8264 -56.8264 -33.6299 -33.6259 -33.5614 -33.5516
   -33.4815 -33.4746 -33.4328 -33.4257 -33.4015 -33.3983 -33.3848 -33.3736
   -33.3587 -33.3497 -33.3471 -33.3375 -33.3302 -33.3270 -33.3148 -33.3086
   -33.2950 -33.2889 -33.2855 -33.2802 -33.2341 -33.2331 -33.2304 -33.2258
   -33.1455 -33.1443 -33.0997 -33.0988 -33.0074 -33.0073 -32.9887 -32.9886
   -18.1733 -17.9935 -17.6027 -17.3022 -17.2502 -17.2367 -17.1612 -17.1433
   -17.1276 -17.0950 -16.9837 -16.8985 -16.8743 -16.8405 -16.7538 -16.7046
   -16.6949 -16.6065 -16.5666 -16.5425 -16.2523 -16.2515 -16.2161 -16.2127
    -5.6529  -5.3965  -5.2640  -5.1008  -5.0533  -4.9276  -4.9153  -4.8495
    -4.8168  -4.6747  -4.6448  -4.5882  -4.5078  -4.4516  -4.4036  -4.2950
    -4.2698  -4.1163  -4.1024  -4.0788  -3.9662  -3.9321  -3.9178  -3.8511
    -3.8213  -3.8112  -3.7592  -3.6117  -3.5954  -3.5748  -3.4767  -3.3173
    -3.2362  -3.1535  -2.9771  -2.9676  -2.9064  -2.8964  -2.8728  -2.8096
    -2.7361  -2.7075  -2.7067  -2.5976  -2.4743  -2.4718  -2.4420  -2.3325
    -2.3272  -2.2105  -2.1752  -2.0430  -2.0009  -1.9323  -1.9055  -1.7562
    -1.6629  -1.6283  -1.5476  -1.5173  -1.4322  -1.3567  -1.3287  -1.2913
    -1.1845  -1.1406  -1.0759  -1.0311  -1.0080  -0.6365  -0.4798  -0.3923
     1.9102   1.9769   2.0089   2.0691   2.0991   2.2205   2.2239   2.3166
     2.3275   2.5008   2.5103   2.5246   2.5486   2.5621   2.5829   2.6466
     2.7984   2.8437   2.8861   2.9077   2.9921   3.0516   3.1149   3.1199
     3.1398   3.2220   3.3592   3.4674   3.5269

          k = 0.2000 0.1976 0.0000 (140595 PWs)   bands (ev):

   -57.1424 -57.1380 -57.1327 -57.1302 -57.1245 -57.1179 -57.1051 -57.1031
   -56.8370 -56.8369 -56.8266 -56.8265 -33.6308 -33.6231 -33.5621 -33.5490
   -33.4865 -33.4654 -33.4395 -33.4128 -33.4044 -33.3930 -33.3917 -33.3758
   -33.3685 -33.3660 -33.3393 -33.3341 -33.3316 -33.3260 -33.3144 -33.3072
   -33.2960 -33.2903 -33.2850 -33.2782 -33.2370 -33.2317 -33.2289 -33.2237
   -33.1445 -33.1435 -33.0998 -33.0989 -33.0093 -33.0092 -32.9884 -32.9883
   -18.0990 -17.9325 -17.5664 -17.2976 -17.2681 -17.2075 -17.1860 -17.1705
   -17.0938 -17.0717 -16.9653 -16.9167 -16.8829 -16.8637 -16.8070 -16.7313
   -16.6943 -16.6310 -16.5673 -16.5486 -16.3076 -16.3059 -16.1992 -16.1976
    -5.6322  -5.4133  -5.1416  -5.1048  -5.0353  -4.9586  -4.8493  -4.7723
    -4.7682  -4.7100  -4.6582  -4.5958  -4.5646  -4.5298  -4.4433  -4.3801
    -4.3139  -4.1875  -4.0693  -4.0272  -3.9643  -3.9384  -3.8964  -3.8526
    -3.8132  -3.7520  -3.7171  -3.6777  -3.6195  -3.5359  -3.3938  -3.3026
    -3.2127  -3.1720  -3.0844  -3.0232  -2.9417  -2.8817  -2.8039  -2.7798
    -2.6994  -2.6422  -2.6288  -2.5607  -2.4781  -2.4367  -2.3809  -2.3458
    -2.3284  -2.1704  -2.1312  -2.0829  -1.9967  -1.9097  -1.8535  -1.7625
    -1.6989  -1.6232  -1.5878  -1.4978  -1.4554  -1.3935  -1.3248  -1.2930
    -1.2358  -1.1676  -1.1230  -1.0765  -1.0240  -0.7173  -0.5578  -0.4886
     1.8851   1.9327   1.9960   2.0932   2.1274   2.2161   2.2641   2.3427
     2.3939   2.4731   2.4786   2.5274   2.6319   2.6720   2.7243   2.7617
     2.8237   2.8707   2.9128   2.9276   3.0114   3.0375   3.0632   3.0957
     3.1429   3.2400   3.3019   3.3481   3.4499

          k = 0.2000 0.3952 0.0000 (140535 PWs)   bands (ev):

   -57.1405 -57.1372 -57.1339 -57.1317 -57.1230 -57.1193 -57.1046 -57.1035
   -56.8366 -56.8366 -56.8269 -56.8269 -33.6289 -33.6216 -33.5595 -33.5481
   -33.4844 -33.4622 -33.4377 -33.4111 -33.4044 -33.4028 -33.3847 -33.3829
   -33.3739 -33.3664 -33.3455 -33.3407 -33.3352 -33.3264 -33.3137 -33.3097
   -33.2921 -33.2894 -33.2833 -33.2800 -33.2351 -33.2302 -33.2272 -33.2229
   -33.1422 -33.1415 -33.1003 -33.0998 -33.0110 -33.0109 -32.9894 -32.9893
   -17.8972 -17.7659 -17.4749 -17.3885 -17.3368 -17.2088 -17.2049 -17.1129
   -17.0800 -17.0375 -16.9980 -16.9526 -16.9266 -16.8819 -16.8160 -16.7706
   -16.7015 -16.6597 -16.6142 -16.6021 -16.3543 -16.3515 -16.2148 -16.2137
    -5.5395  -5.3301  -5.1334  -5.0704  -5.0495  -4.9690  -4.9048  -4.8353
    -4.8024  -4.7328  -4.6680  -4.6390  -4.5779  -4.5716  -4.4410  -4.3408
    -4.2466  -4.2076  -4.1293  -4.0368  -3.9290  -3.9030  -3.8711  -3.8336
    -3.7920  -3.6618  -3.5922  -3.5428  -3.5253  -3.4351  -3.3556  -3.3253
    -3.2199  -3.2042  -3.1511  -3.0478  -2.9365  -2.8884  -2.8619  -2.7985
    -2.7117  -2.6654  -2.5930  -2.5349  -2.4579  -2.3649  -2.3459  -2.3046
    -2.2264  -2.1464  -2.0972  -2.0648  -2.0082  -1.9730  -1.8943  -1.8035
    -1.7030  -1.6237  -1.5842  -1.5578  -1.4965  -1.4413  -1.3958  -1.3696
    -1.3017  -1.1866  -1.1292  -1.0286  -0.9961  -0.8493  -0.7152  -0.6934
     1.8754   1.9791   2.0396   2.1711   2.2020   2.2382   2.2932   2.3824
     2.4488   2.4905   2.5076   2.6393   2.6536   2.7090   2.8027   2.8157
     2.8574   2.8771   2.9629   2.9974   3.0230   3.0435   3.0994   3.1315
     3.1743   3.2372   3.2539   3.2936   3.3661

          k = 0.2000-0.5928 0.0000 (140574 PWs)   bands (ev):

   -57.1384 -57.1379 -57.1337 -57.1332 -57.1212 -57.1210 -57.1041 -57.1039
   -56.8364 -56.8364 -56.8271 -56.8271 -33.6245 -33.6245 -33.5530 -33.5530
   -33.4733 -33.4733 -33.4253 -33.4253 -33.4080 -33.4079 -33.3758 -33.3758
   -33.3684 -33.3683 -33.3525 -33.3521 -33.3314 -33.3312 -33.3136 -33.3135
   -33.2877 -33.2872 -33.2836 -33.2833 -33.2306 -33.2306 -33.2253 -33.2253
   -33.1407 -33.1406 -33.1009 -33.1007 -33.0109 -33.0108 -32.9908 -32.9907
   -17.6341 -17.6341 -17.5416 -17.5416 -17.3115 -17.3112 -17.1257 -17.1255
   -17.0692 -17.0685 -17.0092 -17.0083 -16.8929 -16.8928 -16.7553 -16.7552
   -16.7031 -16.7022 -16.6662 -16.6660 -16.3546 -16.3538 -16.2348 -16.2340
    -5.3302  -5.3302  -5.1655  -5.1654  -5.0438  -5.0436  -4.9319  -4.9318
    -4.8517  -4.8516  -4.6565  -4.6562  -4.5740  -4.5739  -4.3084  -4.3081
    -4.1085  -4.1084  -4.0671  -4.0662  -3.9046  -3.9044  -3.8153  -3.8149
    -3.6944  -3.6939  -3.6189  -3.6187  -3.4679  -3.4676  -3.2434  -3.2433
    -3.1741  -3.1739  -3.0905  -3.0902  -2.9184  -2.9184  -2.8151  -2.8149
    -2.7646  -2.7645  -2.5933  -2.5929  -2.4269  -2.4261  -2.3540  -2.3533
    -2.1856  -2.1847  -2.1050  -2.1048  -1.9886  -1.9885  -1.8230  -1.8228
    -1.7356  -1.7353  -1.6272  -1.6268  -1.5098  -1.5098  -1.3425  -1.3423
    -1.1651  -1.1649  -1.1015  -1.1009  -0.9415  -0.9403  -0.7824  -0.7817
     1.9628   1.9631   2.1593   2.1595   2.2625   2.2629   2.3435   2.3438
     2.4851   2.4853   2.5729   2.5733   2.6289   2.6290   2.7738   2.7740
     2.8769   2.8772   3.0174   3.0182   3.0684   3.0700   3.1921   3.1948
     3.3046   3.3337   3.3574   3.3636   3.4154

          k = 0.4000 0.0000 0.0000 (140644 PWs)   bands (ev):

   -57.1397 -57.1357 -57.1355 -57.1323 -57.1228 -57.1199 -57.1044 -57.1035
   -56.8338 -56.8338 -56.8297 -56.8297 -33.6227 -33.6213 -33.5507 -33.5472
   -33.4652 -33.4637 -33.4153 -33.4099 -33.4045 -33.4005 -33.3843 -33.3818
   -33.3726 -33.3698 -33.3627 -33.3597 -33.3400 -33.3367 -33.3133 -33.3117
   -33.2911 -33.2906 -33.2838 -33.2791 -33.2287 -33.2282 -33.2249 -33.2232
   -33.1289 -33.1282 -33.1107 -33.1101 -33.0065 -33.0063 -33.0000 -32.9997
   -17.9079 -17.7506 -17.5497 -17.4361 -17.4117 -17.2538 -17.1710 -17.1332
   -17.0215 -16.9780 -16.9262 -16.8863 -16.8717 -16.8567 -16.8398 -16.7529
   -16.7366 -16.6789 -16.6397 -16.6327 -16.3244 -16.3238 -16.2817 -16.2794
    -5.2704  -5.0859  -5.0481  -4.9538  -4.8439  -4.8312  -4.7428  -4.7347
    -4.6310  -4.5660  -4.5173  -4.4521  -4.3579  -4.3117  -4.2470  -4.1511
    -4.1339  -4.0702  -4.0192  -3.9549  -3.9369  -3.8817  -3.8558  -3.8205
    -3.7360  -3.7323  -3.6953  -3.6109  -3.5786  -3.4485  -3.4463  -3.3733
    -3.3577  -3.3237  -3.2686  -3.2058  -3.1914  -3.0791  -3.0620  -3.0591
    -2.8755  -2.8496  -2.8155  -2.7254  -2.7135  -2.6437  -2.5577  -2.4868
    -2.4261  -2.3000  -2.2794  -2.2565  -2.2283  -2.1197  -2.1144  -2.0319
    -1.8915  -1.8505  -1.7677  -1.5872  -1.5804  -1.4865  -1.3178  -1.2999
    -1.2356  -1.1777  -1.0307  -0.9325  -0.8939  -0.8523  -0.7113  -0.6427
     2.0131   2.0596   2.1685   2.1943   2.2516   2.3228   2.4343   2.5006
     2.5162   2.5865   2.5925   2.6689   2.7471   2.7927   2.8637   2.8738
     2.8741   2.9375   3.0063   3.0192   3.0638   3.0919   3.1543   3.1884
     3.2420   3.2554   3.3225   3.4399   3.4460

          k = 0.4000 0.1976 0.0000 (140629 PWs)   bands (ev):

   -57.1394 -57.1359 -57.1353 -57.1325 -57.1226 -57.1201 -57.1044 -57.1036
   -56.8338 -56.8337 -56.8298 -56.8298 -33.6263 -33.6217 -33.5554 -33.5481
   -33.4773 -33.4627 -33.4306 -33.4126 -33.4044 -33.4040 -33.3864 -33.3773
   -33.3685 -33.3678 -33.3551 -33.3435 -33.3390 -33.3294 -33.3132 -33.3110
   -33.2913 -33.2887 -33.2832 -33.2808 -33.2325 -33.2284 -33.2274 -33.2236
   -33.1298 -33.1292 -33.1123 -33.1118 -33.0054 -33.0052 -32.9966 -32.9964
   -17.8675 -17.7248 -17.5531 -17.4578 -17.4011 -17.2667 -17.1869 -17.1380
   -17.0321 -16.9852 -16.9378 -16.9179 -16.8627 -16.8591 -16.8268 -16.7678
   -16.7155 -16.6727 -16.6665 -16.6388 -16.3191 -16.3184 -16.2521 -16.2504
    -5.4366  -5.2271  -5.1060  -4.9883  -4.9036  -4.8525  -4.8073  -4.6740
    -4.6562  -4.6165  -4.5910  -4.5632  -4.4676  -4.3351  -4.2999  -4.2930
    -4.1697  -4.1652  -4.0422  -4.0126  -3.9294  -3.8947  -3.8712  -3.8105
    -3.6918  -3.6660  -3.6441  -3.5709  -3.5251  -3.4936  -3.3856  -3.3323
    -3.2592  -3.2182  -3.1889  -3.1343  -3.0292  -2.9690  -2.9354  -2.8869
    -2.8406  -2.8143  -2.6974  -2.6141  -2.5596  -2.4980  -2.4497  -2.4111
    -2.3436  -2.3210  -2.2608  -2.1846  -2.1335  -2.0919  -2.0294  -1.9994
    -1.8757  -1.7898  -1.7120  -1.6657  -1.5472  -1.4719  -1.3860  -1.3393
    -1.2976  -1.2433  -1.1418  -1.0211  -0.9997  -0.9321  -0.7865  -0.7508
     1.9706   2.0076   2.0489   2.1404   2.2213   2.2850   2.3369   2.3807
     2.4722   2.5201   2.5319   2.6703   2.7223   2.7570   2.8189   2.8865
     2.9415   2.9614   3.0063   3.0201   3.0239   3.1030   3.1750   3.1898
     3.2236   3.2367   3.3042   3.3545   3.4408

          k = 0.4000 0.3952 0.0000 (140554 PWs)   bands (ev):

   -57.1386 -57.1366 -57.1347 -57.1330 -57.1220 -57.1205 -57.1043 -57.1039
   -56.8336 -56.8336 -56.8299 -56.8299 -33.6302 -33.6259 -33.5607 -33.5540
   -33.4868 -33.4748 -33.4436 -33.4305 -33.4076 -33.3977 -33.3905 -33.3783
   -33.3602 -33.3492 -33.3357 -33.3321 -33.3297 -33.3263 -33.3127 -33.3075
   -33.2942 -33.2869 -33.2838 -33.2791 -33.2366 -33.2321 -33.2307 -33.2268
   -33.1313 -33.1309 -33.1157 -33.1154 -33.0014 -33.0012 -32.9920 -32.9919
   -17.7685 -17.6555 -17.5868 -17.4957 -17.3823 -17.2799 -17.2103 -17.1591
   -17.0615 -17.0101 -16.9839 -16.9503 -16.8863 -16.8544 -16.7978 -16.7823
   -16.7004 -16.6834 -16.6641 -16.6453 -16.2839 -16.2821 -16.2231 -16.2217
    -5.5713  -5.3744  -5.3399  -5.1786  -5.0550  -5.0033  -4.9157  -4.8309
    -4.7921  -4.7724  -4.6344  -4.5509  -4.5175  -4.4612  -4.4362  -4.2442
    -4.2256  -4.1561  -4.0710  -4.0378  -4.0026  -3.9618  -3.9299  -3.8519
    -3.6943  -3.5791  -3.5612  -3.4562  -3.3966  -3.3556  -3.2286  -3.1596
    -3.1280  -2.9667  -2.9255  -2.8888  -2.8402  -2.8008  -2.7499  -2.7117
    -2.7025  -2.6620  -2.5344  -2.4413  -2.3660  -2.3547  -2.3516  -2.3209
    -2.2606  -2.1954  -2.1505  -2.0494  -2.0120  -1.9605  -1.9262  -1.8943
    -1.8247  -1.7774  -1.6987  -1.6707  -1.6241  -1.5522  -1.5064  -1.4433
    -1.4035  -1.3800  -1.3417  -1.1906  -1.0933  -1.0493  -0.9528  -0.9056
     1.8609   1.9266   1.9414   2.0509   2.1238   2.1788   2.2264   2.2855
     2.3497   2.4131   2.4421   2.5068   2.5773   2.6170   2.7794   2.8294
     2.8319   2.9146   2.9819   3.0174   3.0957   3.1013   3.2108   3.2184
     3.2553   3.2824   3.3708   3.4031   3.4382

          k = 0.4000-0.5928 0.0000 (140590 PWs)   bands (ev):

   -57.1376 -57.1374 -57.1339 -57.1337 -57.1213 -57.1212 -57.1042 -57.1041
   -56.8336 -56.8335 -56.8300 -56.8299 -33.6301 -33.6301 -33.5602 -33.5602
   -33.4858 -33.4858 -33.4437 -33.4437 -33.4005 -33.4004 -33.3885 -33.3884
   -33.3411 -33.3408 -33.3329 -33.3328 -33.3262 -33.3259 -33.3086 -33.3085
   -33.2923 -33.2921 -33.2796 -33.2796 -33.2361 -33.2361 -33.2307 -33.2307
   -33.1318 -33.1317 -33.1175 -33.1173 -32.9987 -32.9986 -32.9904 -32.9903
   -17.6629 -17.6629 -17.5676 -17.5676 -17.3244 -17.3244 -17.1965 -17.1964
   -17.0440 -17.0432 -17.0100 -17.0091 -16.8499 -16.8496 -16.8091 -16.8090
   -16.6714 -16.6709 -16.6619 -16.6616 -16.2560 -16.2551 -16.2204 -16.2195
    -5.5513  -5.5512  -5.3217  -5.3216  -5.1013  -5.1013  -4.9858  -4.9856
    -4.8341  -4.8340  -4.6350  -4.6349  -4.4563  -4.4561  -4.4096  -4.4095
    -4.2185  -4.2184  -4.1157  -4.1156  -3.9300  -3.9299  -3.8966  -3.8962
    -3.5767  -3.5765  -3.5050  -3.5048  -3.2602  -3.2596  -3.0161  -3.0159
    -2.8969  -2.8968  -2.8641  -2.8637  -2.7415  -2.7413  -2.6825  -2.6823
    -2.5107  -2.5100  -2.4410  -2.4402  -2.3317  -2.3313  -2.2957  -2.2954
    -2.2325  -2.2321  -2.0853  -2.0851  -2.0113  -2.0106  -1.9534  -1.9531
    -1.8517  -1.8510  -1.6670  -1.6665  -1.5603  -1.5601  -1.4522  -1.4509
    -1.3791  -1.3785  -1.2739  -1.2739  -1.1883  -1.1878  -1.0084  -1.0083
     1.8455   1.8458   1.9558   1.9560   2.1026   2.1027   2.1858   2.1860
     2.4044   2.4047   2.4241   2.4246   2.4921   2.4922   2.7107   2.7109
     2.8073   2.8075   3.0040   3.0041   3.1384   3.1387   3.2374   3.2377
     3.3166   3.3171   3.4031   3.4033   3.4869

     the Fermi energy is     0.7264 ev

!    total energy              =   -2155.74700355 Ry
     estimated scf accuracy    <       0.00000022 Ry
     smearing contrib. (-TS)   =      -0.00000000 Ry
     internal energy E=F+TS    =   -2155.74700355 Ry

     The total energy is F=E-TS. E is the sum of the following terms:
     one-electron contribution =  -47151.39534619 Ry
     hartree contribution      =   23612.43467247 Ry
     xc contribution           =    -340.07644594 Ry
     ewald contribution        =   21723.29011611 Ry

     convergence has been achieved in  15 iterations

     Forces acting on atoms (cartesian axes, Ry/au):

     atom    1 type  1   force =     0.00015960    0.00030344   -0.00025063
     atom    2 type  1   force =     0.00015960   -0.00030344   -0.00025063
     atom    3 type  1   force =    -0.00003378   -0.00026574   -0.00005450
     atom    4 type  1   force =    -0.00003378    0.00026574   -0.00005450
     atom    5 type  1   force =    -0.00022313    0.00014793    0.00025320
     atom    6 type  1   force =    -0.00022313   -0.00014793    0.00025320
     atom    7 type  1   force =     0.00024317   -0.00014837   -0.00014709
     atom    8 type  1   force =     0.00024317    0.00014837   -0.00014709
     atom    9 type  1   force =    -0.00000148    0.00028569   -0.00001231
     atom   10 type  1   force =    -0.00000148   -0.00028569   -0.00001231
     atom   11 type  1   force =    -0.00019778   -0.00032941    0.00017338
     atom   12 type  1   force =    -0.00019778    0.00032941    0.00017338
     atom   13 type  2   force =    -0.00073005    0.00079323    0.00003290
     atom   14 type  2   force =    -0.00073005   -0.00079323    0.00003290
     atom   15 type  2   force =    -0.00049332    0.00032108   -0.00026066
     atom   16 type  2   force =    -0.00050724   -0.00032840   -0.00021244
     atom   17 type  2   force =    -0.00049332   -0.00032108   -0.00026066
     atom   18 type  2   force =    -0.00050724    0.00032840   -0.00021244
     atom   19 type  2   force =     0.00013069   -0.00015767   -0.00003595
     atom   20 type  2   force =    -0.00017855    0.00024655    0.00047325
     atom   21 type  2   force =     0.00013069    0.00015767   -0.00003595
     atom   22 type  2   force =    -0.00017855   -0.00024655    0.00047325
     atom   23 type  2   force =    -0.00062851   -0.00035555    0.00003193
     atom   24 type  2   force =     0.00066407    0.00034676   -0.00012233
     atom   25 type  2   force =    -0.00062851    0.00035555    0.00003193
     atom   26 type  2   force =     0.00066407   -0.00034676   -0.00012233
     atom   27 type  2   force =     0.00024943   -0.00031502   -0.00049903
     atom   28 type  2   force =    -0.00016821    0.00019132    0.00003565
     atom   29 type  2   force =     0.00024943    0.00031502   -0.00049903
     atom   30 type  2   force =    -0.00016821   -0.00019132    0.00003565
     atom   31 type  2   force =     0.00044783    0.00035262    0.00026576
     atom   32 type  2   force =     0.00053768   -0.00035927    0.00034216
     atom   33 type  2   force =     0.00044783   -0.00035262    0.00026576
     atom   34 type  2   force =     0.00053768    0.00035927    0.00034216
     atom   35 type  2   force =     0.00072956   -0.00079075   -0.00001331
     atom   36 type  2   force =     0.00072956    0.00079075   -0.00001331

     Total force =     0.003678     Total SCF correction =     0.002035
     SCF correction compared to forces is large: reduce conv_thr to get better values


     Computing stress (Cartesian axis) and pressure

          total   stress  (Ry/bohr**3)                   (kbar)     P=        0.02
  -0.00000022   0.00000000   0.00000951           -0.03        0.00        1.40
   0.00000000  -0.00000173   0.00000000            0.00       -0.25        0.00
   0.00000951   0.00000000   0.00000235            1.40        0.00        0.35


     BFGS Geometry Optimization
     Energy error            =      0.0E+00 Ry
     Gradient error          =      7.9E-04 Ry/Bohr
     Cell gradient error     =      2.5E-01 kbar

     bfgs converged in   1 scf cycles and   0 bfgs steps
     (criteria: energy <  1.0E-04 Ry, force <  1.0E-03 Ry/Bohr, cell <  5.0E-01 kbar)

     End of BFGS Geometry Optimization

     Final enthalpy           =   -2155.7470035492 Ry
Begin final coordinates
     new unit-cell volume =   6333.01830 a.u.^3 (   938.45649 Ang^3 )
     density =      1.69579 g/cm^3

CELL_PARAMETERS (angstrom)
   5.509726651   0.000000000   0.000000000
   0.000000000   4.646922051   0.000000000
   0.000000000   0.000000000  36.653774261

ATOMIC_POSITIONS (angstrom)
Ti               3.9601170242       -0.2518419957       12.5376200848
Ti               1.2052538628        2.5753028824       12.5376200848
Ti               2.2213646976        0.1531749016       14.8960892075
Ti               4.9762276948        2.1702859851       14.8960892075
Ti               0.6867178751       -0.1126489245       17.4894744051
Ti               3.4415808309        2.4361098112       17.4894744051
Ti               4.5347757835        0.1126719293       19.9224420241
Ti               1.7799126220        2.2107889574       19.9224420241
Ti               3.0003730584       -0.1529527091       22.5161213255
Ti               0.2455099998        2.4764135958       22.5161213255
Ti               1.2590331595        0.2514309985       24.8741020446
Ti               4.0138960750        2.0720298882       24.8741020446
O                2.6697599852        3.3108308538       11.7302986840
O                5.4246233111        3.6595513914       11.7302986840
O                5.0647907274        1.4051802407       13.1903760658
O                1.0850655767        3.2561709654       14.2203775449
O                2.3099272382        0.9182807158       13.1903738808
O                3.8399284095        3.7142115561       14.2203753609
O                3.4501485247        1.4177680464       15.7130802143
O                4.9913755665        3.2169783048       16.6881452253
O                0.6952855276        0.9056928403       15.7130813073
O                2.2365120763        3.7534042167       16.6881441333
O                1.8560621331        1.4176158405       18.2146024602
O                3.3647413250        3.2294015843       19.1972796196
O                4.6109254589        0.9058449774       18.2146024602
O                0.6098780405        3.7409806610       19.1972796196
O                0.2306494033        1.4297535380       20.7236731359
O                1.7713499522        3.2287976692       21.6994503269
O                2.9855121130        0.8937074184       20.7236709519
O                4.5262136068        3.7415848533       21.6994525119
O                4.1340282442        1.3923567576       23.1908059794
O                0.1580665014        3.2407002245       24.2222572196
O                1.3791645079        0.9311041989       23.1908037954
O                2.9129294270        3.7296822969       24.2222550346
O                2.5492105938        1.3371621729       25.6807805403
O                5.3040737553        0.9862987138       25.6807827243
End final coordinates



     Writing config-only to output data dir ./Out/pwscf.save/

     Final scf calculation at the relaxed structure.
     The G-vectors are recalculated for the final unit cell
     Results may differ from those at the preceding step.
 
     G-vector sticks info
     --------------------
     sticks:   dense  smooth     PW     G-vecs:    dense   smooth      PW
     Sum        3493    3493    931              1124735  1124735  157705
 
     Using Slab Decomposition
 


     bravais-lattice index     =            0
     lattice parameter (alat)  =      10.4119  a.u.
     unit-cell volume          =    6333.0183 (a.u.)^3
     number of atoms/cell      =           36
     number of atomic types    =            2
     number of electrons       =       288.00
     number of Kohn-Sham states=          173
     kinetic-energy cutoff     =     120.0000  Ry
     charge density cutoff     =     480.0000  Ry
     scf convergence threshold =      1.0E-06
     mixing beta               =       0.4000
     number of iterations used =           20  plain     mixing
     press convergence thresh. =      5.0E-01
     Exchange-correlation= PBE
                           (   1   4   3   4   0   0   0)

     GPU acceleration is ACTIVE.


     celldm(1)=  10.411874  celldm(2)=   0.000000  celldm(3)=   0.000000
     celldm(4)=   0.000000  celldm(5)=   0.000000  celldm(6)=   0.000000

     crystal axes: (cart. coord. in units of alat)
               a(1) = (   1.000000   0.000000   0.000000 )  
               a(2) = (   0.000000   0.843403   0.000000 )  
               a(3) = (   0.000000   0.000000   6.652558 )  

     reciprocal axes: (cart. coord. in units 2 pi/alat)
               b(1) = (  1.000000  0.000000  0.000000 )  
               b(2) = (  0.000000  1.185672  0.000000 )  
               b(3) = (  0.000000  0.000000  0.150318 )  


     PseudoPot. # 1 for Ti read from file:
     /cm/shared/apps/KO/pseudo/sg15/Ti_ONCV_PBE-1.2.upf
     MD5 check sum: 1aea57736bd12dcfee93c97d0b9b5968
     Pseudo is Norm-conserving, Zval = 12.0
     Generated using ONCVPSP code by D. R. Hamann
     Using radial grid of  602 points,  6 beta functions with: 
                l(1) =   0
                l(2) =   0
                l(3) =   1
                l(4) =   1
                l(5) =   2
                l(6) =   2

     PseudoPot. # 2 for O  read from file:
     /cm/shared/apps/KO/pseudo/sg15/O_ONCV_PBE-1.2.upf
     MD5 check sum: e36c48deb68f4e355fffe4602be2c42c
     Pseudo is Norm-conserving, Zval =  6.0
     Generated using ONCVPSP code by D. R. Hamann
     Using radial grid of  602 points,  4 beta functions with: 
                l(1) =   0
                l(2) =   0
                l(3) =   1
                l(4) =   1

     atomic species   valence    mass     pseudopotential
     Ti               12.00    47.86700     Ti( 1.00)
     O                 6.00    15.99900     O ( 1.00)

      2 Sym. Ops. (no inversion) found ( 1 have fractional translation)



   Cartesian axes

     site n.     atom                  positions (alat units)
         1        Ti     tau(   1) = (   0.7187502  -0.0457086   2.2755430  )
         2        Ti     tau(   2) = (   0.2187502   0.4674103   2.2755430  )
         3        Ti     tau(   3) = (   0.4031715   0.0278008   2.7035986  )
         4        Ti     tau(   4) = (   0.9031714   0.3939008   2.7035986  )
         5        Ti     tau(   5) = (   0.1246374  -0.0204455   3.1742908  )
         6        Ti     tau(   6) = (   0.6246373   0.4421471   3.1742908  )
         7        Ti     tau(   7) = (   0.8230491   0.0204496   3.6158676  )
         8        Ti     tau(   8) = (   0.3230492   0.4012520   3.6158676  )
         9        Ti     tau(   9) = (   0.5445593  -0.0277605   4.0866131  )
        10        Ti     tau(  10) = (   0.0445594   0.4494622   4.0866131  )
        11        Ti     tau(  11) = (   0.2285110   0.0456340   4.5145801  )
        12        Ti     tau(  12) = (   0.7285109   0.3760676   4.5145801  )
        13        O      tau(  13) = (   0.4845540   0.6009066   2.1290165  )
        14        O      tau(  14) = (   0.9845540   0.6641984   2.1290165  )
        15        O      tau(  15) = (   0.9192454   0.2550363   2.3940164  )
        16        O      tau(  16) = (   0.1969364   0.5909859   2.5809588  )
        17        O      tau(  17) = (   0.4192453   0.1666654   2.3940160  )
        18        O      tau(  18) = (   0.6969363   0.6741190   2.5809584  )
        19        O      tau(  19) = (   0.6261923   0.2573209   2.8518802  )
        20        O      tau(  20) = (   0.9059207   0.5838726   3.0288518  )
        21        O      tau(  21) = (   0.1261924   0.1643807   2.8518804  )
        22        O      tau(  22) = (   0.4059207   0.6812324   3.0288516  )
        23        O      tau(  23) = (   0.3368701   0.2572933   3.3058995  )
        24        O      tau(  24) = (   0.6106912   0.5861274   3.4842526  )
        25        O      tau(  25) = (   0.8368701   0.1644083   3.3058995  )
        26        O      tau(  26) = (   0.1106912   0.6789775   3.4842526  )
        27        O      tau(  27) = (   0.0418622   0.2594963   3.7612888  )
        28        O      tau(  28) = (   0.3214951   0.5860178   3.9383896  )
        29        O      tau(  29) = (   0.5418621   0.1622054   3.7612884  )
        30        O      tau(  30) = (   0.8214951   0.6790872   3.9383900  )
        31        O      tau(  31) = (   0.7503146   0.2527089   4.2090665  )
        32        O      tau(  32) = (   0.0286886   0.5881780   4.3962720  )
        33        O      tau(  33) = (   0.2503145   0.1689928   4.2090661  )
        34        O      tau(  34) = (   0.5286886   0.6769269   4.3962716  )
        35        O      tau(  35) = (   0.4626746   0.2426912   4.6609899  )
        36        O      tau(  36) = (   0.9626746   0.1790105   4.6609903  )

     number of k points=    12  Gaussian smearing, width (Ry)=  0.0200
                       cart. coord. in units 2pi/alat
        k(    1) = (   0.0000000   0.0000000   0.0000000), wk =   0.0666667
        k(    2) = (   0.0000000   0.1976120   0.0000000), wk =   0.1333333
        k(    3) = (   0.0000000   0.3952241   0.0000000), wk =   0.1333333
        k(    4) = (   0.0000000  -0.5928361   0.0000000), wk =   0.0666667
        k(    5) = (   0.2000000   0.0000000   0.0000000), wk =   0.1333333
        k(    6) = (   0.2000000   0.1976120   0.0000000), wk =   0.2666667
        k(    7) = (   0.2000000   0.3952241   0.0000000), wk =   0.2666667
        k(    8) = (   0.2000000  -0.5928361   0.0000000), wk =   0.1333333
        k(    9) = (   0.4000000   0.0000000   0.0000000), wk =   0.1333333
        k(   10) = (   0.4000000   0.1976120   0.0000000), wk =   0.2666667
        k(   11) = (   0.4000000   0.3952241   0.0000000), wk =   0.2666667
        k(   12) = (   0.4000000  -0.5928361   0.0000000), wk =   0.1333333

     Dense  grid:  1124735 G-vectors     FFT dimensions: (  80,  64, 486)

     Estimated max dynamical RAM per process >       8.11 GB

     Initial potential from superposition of free atoms

     starting charge     286.6604, renormalised to     288.0000

     negative rho (up, down):  1.382E-03 0.000E+00
     Starting wfcs are random

     total cpu time spent up to now is      181.6 secs

     per-process dynamical memory:  1533.2 Mb

     Self-consistent Calculation

     iteration #  1     ecut=   120.00 Ry     beta= 0.40
     Davidson diagonalization with overlap
     c_bands:  2 eigenvalues not converged
     c_bands:  2 eigenvalues not converged
     c_bands:  1 eigenvalues not converged
     c_bands:  2 eigenvalues not converged
     c_bands:  2 eigenvalues not converged
     c_bands:  3 eigenvalues not converged
     c_bands:  1 eigenvalues not converged
     c_bands:  5 eigenvalues not converged
     c_bands:  3 eigenvalues not converged
     c_bands:  2 eigenvalues not converged
     c_bands:  2 eigenvalues not converged
     ethr =  1.00E-06,  avg # of iterations = 60.0

     negative rho (up, down):  7.644E-04 0.000E+00

     total cpu time spent up to now is      241.0 secs

     total energy              =   -2150.84598042 Ry
     estimated scf accuracy    <      16.38525288 Ry

     iteration #  2     ecut=   120.00 Ry     beta= 0.40
     Davidson diagonalization with overlap
     ethr =  5.69E-03,  avg # of iterations =  4.2

     negative rho (up, down):  5.136E-04 0.000E+00

     total cpu time spent up to now is      249.7 secs

     total energy              =   -2153.75947169 Ry
     estimated scf accuracy    <       7.69250412 Ry

     iteration #  3     ecut=   120.00 Ry     beta= 0.40
     Davidson diagonalization with overlap
     ethr =  2.67E-03,  avg # of iterations =  3.3

     negative rho (up, down):  3.972E-04 0.000E+00

     total cpu time spent up to now is      257.4 secs

     total energy              =   -2155.55008117 Ry
     estimated scf accuracy    <       0.98969076 Ry

     iteration #  4     ecut=   120.00 Ry     beta= 0.40
     Davidson diagonalization with overlap
     ethr =  3.44E-04,  avg # of iterations =  4.3

     negative rho (up, down):  2.440E-04 0.000E+00

     total cpu time spent up to now is      265.7 secs

     total energy              =   -2155.67469472 Ry
     estimated scf accuracy    <       0.37585156 Ry

     iteration #  5     ecut=   120.00 Ry     beta= 0.40
     Davidson diagonalization with overlap
     ethr =  1.31E-04,  avg # of iterations =  6.8

     negative rho (up, down):  5.695E-05 0.000E+00

     total cpu time spent up to now is      274.4 secs

     total energy              =   -2155.72043065 Ry
     estimated scf accuracy    <       0.06411895 Ry

     iteration #  6     ecut=   120.00 Ry     beta= 0.40
     Davidson diagonalization with overlap
     c_bands:  1 eigenvalues not converged
     c_bands:  4 eigenvalues not converged
     c_bands:  1 eigenvalues not converged
     c_bands:  1 eigenvalues not converged
     ethr =  2.23E-05,  avg # of iterations = 16.5

     negative rho (up, down):  1.572E-05 0.000E+00

     total cpu time spent up to now is      286.8 secs

     total energy              =   -2155.73722522 Ry
     estimated scf accuracy    <       0.11332307 Ry

     iteration #  7     ecut=   120.00 Ry     beta= 0.40
     Davidson diagonalization with overlap
     ethr =  2.23E-05,  avg # of iterations =  3.5

     negative rho (up, down):  6.648E-06 0.000E+00

     total cpu time spent up to now is      294.7 secs

     total energy              =   -2155.74204575 Ry
     estimated scf accuracy    <       0.01584793 Ry

     iteration #  8     ecut=   120.00 Ry     beta= 0.40
     Davidson diagonalization with overlap
     ethr =  5.50E-06,  avg # of iterations =  8.3

     negative rho (up, down):  2.007E-06 0.000E+00

     total cpu time spent up to now is      304.8 secs

     total energy              =   -2155.74665335 Ry
     estimated scf accuracy    <       0.00136697 Ry

     iteration #  9     ecut=   120.00 Ry     beta= 0.40
     Davidson diagonalization with overlap
     c_bands:  3 eigenvalues not converged
     ethr =  4.75E-07,  avg # of iterations =  6.7

     negative rho (up, down):  1.094E-06 0.000E+00

     total cpu time spent up to now is      313.7 secs

     total energy              =   -2155.74694705 Ry
     estimated scf accuracy    <       0.00012206 Ry

     iteration # 10     ecut=   120.00 Ry     beta= 0.40
     Davidson diagonalization with overlap
     ethr =  4.24E-08,  avg # of iterations =  5.1

     negative rho (up, down):  3.094E-07 0.000E+00

     total cpu time spent up to now is      323.2 secs

     total energy              =   -2155.74698795 Ry
     estimated scf accuracy    <       0.00008467 Ry

     iteration # 11     ecut=   120.00 Ry     beta= 0.40
     Davidson diagonalization with overlap
     ethr =  2.94E-08,  avg # of iterations =  2.4

     total cpu time spent up to now is      330.8 secs

     total energy              =   -2155.74700035 Ry
     estimated scf accuracy    <       0.00000565 Ry

     iteration # 12     ecut=   120.00 Ry     beta= 0.40
     Davidson diagonalization with overlap
     ethr =  1.96E-09,  avg # of iterations =  7.1

     negative rho (up, down):  3.575E-08 0.000E+00

     total cpu time spent up to now is      341.5 secs

     total energy              =   -2155.74700448 Ry
     estimated scf accuracy    <       0.00002253 Ry

     iteration # 13     ecut=   120.00 Ry     beta= 0.40
     Davidson diagonalization with overlap
     ethr =  1.96E-09,  avg # of iterations =  2.0

     negative rho (up, down):  3.121E-08 0.000E+00

     total cpu time spent up to now is      348.9 secs

     total energy              =   -2155.74700136 Ry
     estimated scf accuracy    <       0.00001110 Ry

     iteration # 14     ecut=   120.00 Ry     beta= 0.40
     Davidson diagonalization with overlap
     ethr =  1.96E-09,  avg # of iterations =  7.0

     total cpu time spent up to now is      357.9 secs

     End of self-consistent calculation

          k = 0.0000 0.0000 0.0000 (140607 PWs)   bands (ev):

   -57.1448 -57.1396 -57.1311 -57.1287 -57.1266 -57.1172 -57.1065 -57.1037
   -56.8404 -56.8389 -56.8271 -56.8256 -33.6347 -33.6294 -33.5675 -33.5551
   -33.4901 -33.4806 -33.4417 -33.4333 -33.3967 -33.3903 -33.3897 -33.3831
   -33.3455 -33.3386 -33.3322 -33.3286 -33.3260 -33.3237 -33.3152 -33.3071
   -33.3008 -33.2935 -33.2851 -33.2797 -33.2387 -33.2381 -33.2348 -33.2288
   -33.1532 -33.1512 -33.0981 -33.0961 -33.0088 -33.0073 -32.9847 -32.9832
   -18.2705 -18.0837 -17.6801 -17.3005 -17.2981 -17.2662 -17.1816 -17.1568
   -17.0692 -17.0358 -16.9555 -16.9098 -16.8888 -16.8214 -16.7226 -16.6827
   -16.6702 -16.5762 -16.5457 -16.5253 -16.1907 -16.1888 -16.1883 -16.1845
    -5.8149  -5.5463  -5.3643  -5.1955  -5.1801  -5.0986  -5.0167  -5.0071
    -4.8436  -4.8160  -4.7445  -4.6764  -4.5532  -4.4305  -4.3647  -4.3278
    -4.2840  -4.2244  -4.2131  -4.0864  -4.0240  -3.9786  -3.9553  -3.9145
    -3.8580  -3.8241  -3.6919  -3.6133  -3.5927  -3.5699  -3.4157  -3.2292
    -3.2285  -3.0759  -2.9576  -2.8228  -2.7969  -2.7171  -2.6855  -2.6507
    -2.6111  -2.5605  -2.5414  -2.4986  -2.4922  -2.4541  -2.3801  -2.3773
    -2.3496  -2.3358  -2.1550  -2.0569  -2.0181  -1.8663  -1.8086  -1.6961
    -1.5349  -1.5196  -1.4834  -1.4524  -1.3664  -1.2576  -1.2292  -1.2138
    -1.1459  -0.9987  -0.8769  -0.8646  -0.8070  -0.5355  -0.3806  -0.2997
     1.7881   1.8374   1.8885   2.0038   2.0158   2.0756   2.1498   2.1661
     2.2722   2.3744   2.3780   2.3927   2.4081   2.4365   2.5131   2.6085
     2.6087   2.6943   2.8010   2.8351   2.9306   2.9885   3.0884   3.2339
     3.2799   3.2829   3.3755   3.4888   3.5899

          k = 0.0000 0.1976 0.0000 (140543 PWs)   bands (ev):

   -57.1439 -57.1391 -57.1318 -57.1297 -57.1256 -57.1178 -57.1063 -57.1039
   -56.8402 -56.8387 -56.8273 -56.8258 -33.6317 -33.6273 -33.5632 -33.5533
   -33.4838 -33.4782 -33.4351 -33.4286 -33.4069 -33.3941 -33.3804 -33.3796
   -33.3546 -33.3526 -33.3400 -33.3359 -33.3299 -33.3255 -33.3164 -33.3108
   -33.2925 -33.2922 -33.2863 -33.2817 -33.2358 -33.2351 -33.2319 -33.2270
   -33.1515 -33.1496 -33.0971 -33.0953 -33.0112 -33.0097 -32.9873 -32.9857
   -18.1837 -18.0096 -17.6279 -17.2738 -17.2714 -17.2487 -17.1479 -17.1297
   -17.0762 -17.0208 -16.9897 -16.9803 -16.8689 -16.8673 -16.7398 -16.7350
   -16.6572 -16.6527 -16.5436 -16.5339 -16.2492 -16.2457 -16.2008 -16.1990
    -5.6667  -5.4914  -5.2716  -5.2364  -5.0753  -5.0623  -4.9890  -4.8716
    -4.8666  -4.7942  -4.7089  -4.7061  -4.5729  -4.5672  -4.3956  -4.2514
    -4.2268  -4.1498  -4.1429  -4.0415  -4.0378  -3.9780  -3.8954  -3.8881
    -3.8744  -3.8585  -3.7174  -3.6757  -3.6659  -3.3950  -3.3786  -3.3635
    -3.3339  -3.0722  -2.9890  -2.9211  -2.8566  -2.8206  -2.8056  -2.7935
    -2.7066  -2.6883  -2.5907  -2.5435  -2.4478  -2.3771  -2.3697  -2.2994
    -2.2262  -2.2089  -2.2007  -1.9943  -1.9262  -1.8904  -1.7953  -1.7483
    -1.6536  -1.5478  -1.4434  -1.4028  -1.3223  -1.3157  -1.2622  -1.2610
    -1.1608  -1.1336  -0.9307  -0.8583  -0.8296  -0.6247  -0.4758  -0.4000
     1.8399   1.8609   1.9452   2.0339   2.1132   2.1216   2.2055   2.2075
     2.3382   2.3738   2.4619   2.4835   2.5288   2.5814   2.6161   2.6379
     2.7646   2.7771   2.8404   2.8461   2.9160   3.0239   3.0765   3.1716
     3.2761   3.2884   3.3047   3.3610   3.4580

          k = 0.0000 0.3952 0.0000 (140518 PWs)   bands (ev):

   -57.1416 -57.1379 -57.1336 -57.1316 -57.1238 -57.1195 -57.1056 -57.1043
   -56.8397 -56.8382 -56.8278 -56.8262 -33.6254 -33.6230 -33.5543 -33.5496
   -33.4712 -33.4700 -33.4192 -33.4168 -33.4130 -33.3996 -33.3765 -33.3763
   -33.3731 -33.3700 -33.3615 -33.3559 -33.3379 -33.3333 -33.3155 -33.3126
   -33.2909 -33.2894 -33.2871 -33.2812 -33.2308 -33.2302 -33.2265 -33.2239
   -33.1478 -33.1461 -33.0952 -33.0935 -33.0159 -33.0145 -32.9925 -32.9909
   -17.9437 -17.8053 -17.4905 -17.3258 -17.2642 -17.1840 -17.1337 -17.1163
   -17.0948 -17.0832 -17.0339 -16.9886 -16.8799 -16.8741 -16.8225 -16.7693
   -16.7547 -16.6768 -16.5570 -16.5545 -16.3791 -16.3756 -16.2325 -16.2307
    -5.3359  -5.2883  -5.2023  -5.0582  -5.0261  -5.0094  -4.9027  -4.8475
    -4.8065  -4.7710  -4.7295  -4.6904  -4.6252  -4.6143  -4.3682  -4.3527
    -4.2775  -4.1315  -4.0588  -4.0004  -3.9551  -3.9291  -3.8412  -3.8018
    -3.7672  -3.7079  -3.6631  -3.6343  -3.5479  -3.5244  -3.3723  -3.3438
    -3.3303  -3.1933  -3.1558  -3.0155  -3.0090  -2.9937  -2.9525  -2.9017
    -2.7736  -2.7671  -2.7534  -2.6854  -2.5142  -2.4643  -2.4396  -2.3934
    -2.2025  -2.1025  -2.0797  -2.0711  -1.9759  -1.8418  -1.7881  -1.7439
    -1.6808  -1.6411  -1.5682  -1.5635  -1.4411  -1.3517  -1.2957  -1.1848
    -1.0997  -1.0557  -1.0154  -0.8650  -0.8132  -0.7798  -0.6494  -0.6358
     1.9407   2.0149   2.1057   2.1532   2.2504   2.2582   2.3016   2.3708
     2.5263   2.5498   2.5789   2.6297   2.7294   2.7437   2.8131   2.8351
     2.8757   2.9032   2.9378   2.9467   3.0075   3.0173   3.0394   3.0997
     3.1448   3.1957   3.2694   3.2728   3.2808

          k = 0.0000-0.5928 0.0000 (140510 PWs)   bands (ev):

   -57.1389 -57.1386 -57.1336 -57.1335 -57.1217 -57.1216 -57.1049 -57.1049
   -56.8395 -56.8380 -56.8280 -56.8265 -33.6215 -33.6215 -33.5487 -33.5486
   -33.4646 -33.4645 -33.4092 -33.4091 -33.4041 -33.4039 -33.3877 -33.3875
   -33.3763 -33.3762 -33.3656 -33.3654 -33.3432 -33.3431 -33.3125 -33.3125
   -33.2919 -33.2918 -33.2824 -33.2823 -33.2285 -33.2280 -33.2236 -33.2231
   -33.1458 -33.1442 -33.0943 -33.0926 -33.0184 -33.0170 -32.9952 -32.9936
   -17.6142 -17.6141 -17.5260 -17.5259 -17.2997 -17.2996 -17.1017 -17.1012
   -17.0473 -17.0469 -17.0060 -17.0053 -16.9428 -16.9426 -16.7662 -16.7661
   -16.7191 -16.7190 -16.5964 -16.5951 -16.4489 -16.4468 -16.2502 -16.2484
    -5.0735  -5.0730  -5.0583  -5.0581  -4.9626  -4.9625  -4.9064  -4.9060
    -4.8431  -4.8426  -4.7585  -4.7576  -4.7127  -4.7117  -4.4121  -4.4112
    -4.1237  -4.1224  -4.0202  -4.0202  -3.7955  -3.7953  -3.7384  -3.7379
    -3.6959  -3.6952  -3.4615  -3.4610  -3.4220  -3.4209  -3.4124  -3.4115
    -3.3106  -3.3102  -3.2688  -3.2671  -3.0625  -3.0624  -3.0262  -3.0255
    -2.9196  -2.9194  -2.7190  -2.7184  -2.6262  -2.6259  -2.3795  -2.3788
    -2.2269  -2.2265  -2.1408  -2.1406  -1.9990  -1.9982  -1.7520  -1.7519
    -1.6680  -1.6672  -1.5807  -1.5805  -1.3559  -1.3551  -1.1545  -1.1541
    -1.1040  -1.1037  -1.0173  -1.0172  -0.7840  -0.7813  -0.7263  -0.7242
     2.1429   2.1430   2.1928   2.1929   2.2476   2.2482   2.4630   2.4632
     2.6601   2.6608   2.6973   2.6974   2.7673   2.7675   2.8237   2.8241
     2.8894   2.8897   3.0328   3.0338   3.0946   3.0955   3.1439   3.1446
     3.1574   3.1579   3.2984   3.3054   3.3153

          k = 0.2000 0.0000 0.0000 (140578 PWs)   bands (ev):

   -57.1435 -57.1386 -57.1324 -57.1297 -57.1257 -57.1181 -57.1062 -57.1039
   -56.8391 -56.8376 -56.8284 -56.8269 -33.6306 -33.6265 -33.5617 -33.5520
   -33.4820 -33.4751 -33.4334 -33.4262 -33.4019 -33.3988 -33.3852 -33.3740
   -33.3591 -33.3501 -33.3474 -33.3377 -33.3309 -33.3277 -33.3155 -33.3094
   -33.2960 -33.2899 -33.2864 -33.2811 -33.2352 -33.2340 -33.2313 -33.2266
   -33.1469 -33.1450 -33.1012 -33.0994 -33.0092 -33.0077 -32.9905 -32.9890
   -18.1737 -17.9937 -17.6031 -17.3025 -17.2505 -17.2371 -17.1614 -17.1435
   -17.1280 -17.0955 -16.9843 -16.8988 -16.8747 -16.8408 -16.7544 -16.7052
   -16.6955 -16.6071 -16.5675 -16.5433 -16.2525 -16.2506 -16.2161 -16.2125
    -5.6534  -5.3969  -5.2645  -5.1012  -5.0537  -4.9280  -4.9157  -4.8498
    -4.8172  -4.6750  -4.6452  -4.5887  -4.5083  -4.4520  -4.4041  -4.2955
    -4.2703  -4.1169  -4.1029  -4.0793  -3.9667  -3.9324  -3.9183  -3.8516
    -3.8219  -3.8115  -3.7596  -3.6120  -3.5958  -3.5750  -3.4771  -3.3175
    -3.2365  -3.1537  -2.9774  -2.9679  -2.9066  -2.8967  -2.8733  -2.8097
    -2.7364  -2.7079  -2.7071  -2.5980  -2.4745  -2.4721  -2.4426  -2.3328
    -2.3275  -2.2110  -2.1755  -2.0433  -2.0013  -1.9328  -1.9060  -1.7566
    -1.6632  -1.6284  -1.5477  -1.5178  -1.4322  -1.3571  -1.3289  -1.2918
    -1.1847  -1.1410  -1.0762  -1.0313  -1.0084  -0.6369  -0.4800  -0.3926
     1.9096   1.9763   2.0083   2.0686   2.0987   2.2200   2.2234   2.3158
     2.3270   2.5003   2.5098   2.5240   2.5479   2.5614   2.5823   2.6461
     2.7977   2.8430   2.8855   2.9070   2.9914   3.0510   3.1142   3.1195
     3.1394   3.2214   3.3587   3.4665   3.5816

          k = 0.2000 0.1976 0.0000 (140595 PWs)   bands (ev):

   -57.1428 -57.1382 -57.1330 -57.1304 -57.1251 -57.1186 -57.1060 -57.1040
   -56.8389 -56.8374 -56.8286 -56.8271 -33.6315 -33.6238 -33.5624 -33.5493
   -33.4870 -33.4658 -33.4401 -33.4133 -33.4048 -33.3934 -33.3922 -33.3762
   -33.3690 -33.3664 -33.3398 -33.3346 -33.3318 -33.3265 -33.3151 -33.3080
   -33.2970 -33.2913 -33.2859 -33.2791 -33.2381 -33.2326 -33.2298 -33.2245
   -33.1460 -33.1441 -33.1013 -33.0995 -33.0111 -33.0096 -32.9902 -32.9887
   -18.0994 -17.9328 -17.5668 -17.2980 -17.2685 -17.2077 -17.1861 -17.1710
   -17.0942 -17.0722 -16.9657 -16.9171 -16.8833 -16.8640 -16.8075 -16.7319
   -16.6949 -16.6317 -16.5681 -16.5493 -16.3076 -16.3053 -16.1994 -16.1971
    -5.6327  -5.4136  -5.1421  -5.1052  -5.0357  -4.9589  -4.8496  -4.7726
    -4.7685  -4.7104  -4.6586  -4.5962  -4.5650  -4.5303  -4.4438  -4.3806
    -4.3144  -4.1879  -4.0698  -4.0276  -3.9647  -3.9389  -3.8968  -3.8530
    -3.8138  -3.7523  -3.7175  -3.6781  -3.6198  -3.5361  -3.3940  -3.3029
    -3.2128  -3.1722  -3.0847  -3.0235  -2.9420  -2.8821  -2.8042  -2.7801
    -2.6998  -2.6425  -2.6293  -2.5610  -2.4785  -2.4371  -2.3812  -2.3462
    -2.3286  -2.1708  -2.1315  -2.0833  -1.9969  -1.9101  -1.8539  -1.7629
    -1.6992  -1.6234  -1.5882  -1.4982  -1.4557  -1.3937  -1.3251  -1.2934
    -1.2362  -1.1680  -1.1235  -1.0768  -1.0242  -0.7177  -0.5580  -0.4889
     1.8845   1.9320   1.9955   2.0927   2.1270   2.2156   2.2636   2.3420
     2.3933   2.4725   2.4780   2.5267   2.6312   2.6714   2.7237   2.7611
     2.8229   2.8699   2.9121   2.9270   3.0107   3.0368   3.0624   3.0950
     3.1423   3.2393   3.3013   3.3474   3.4488

          k = 0.2000 0.3952 0.0000 (140535 PWs)   bands (ev):

   -57.1409 -57.1374 -57.1342 -57.1319 -57.1236 -57.1199 -57.1055 -57.1044
   -56.8386 -56.8371 -56.8289 -56.8274 -33.6296 -33.6223 -33.5598 -33.5485
   -33.4848 -33.4627 -33.4384 -33.4116 -33.4048 -33.4032 -33.3852 -33.3833
   -33.3744 -33.3670 -33.3460 -33.3412 -33.3354 -33.3271 -33.3145 -33.3105
   -33.2930 -33.2903 -33.2842 -33.2810 -33.2362 -33.2310 -33.2281 -33.2237
   -33.1438 -33.1421 -33.1020 -33.1003 -33.0128 -33.0113 -32.9913 -32.9898
   -17.8976 -17.7662 -17.4751 -17.3889 -17.3371 -17.2090 -17.2052 -17.1133
   -17.0805 -17.0379 -16.9986 -16.9531 -16.9271 -16.8823 -16.8165 -16.7712
   -16.7021 -16.6604 -16.6150 -16.6027 -16.3543 -16.3511 -16.2150 -16.2130
    -5.5400  -5.3304  -5.1338  -5.0708  -5.0500  -4.9695  -4.9051  -4.8356
    -4.8028  -4.7331  -4.6684  -4.6394  -4.5784  -4.5722  -4.4415  -4.3412
    -4.2471  -4.2080  -4.1298  -4.0373  -3.9293  -3.9035  -3.8714  -3.8341
    -3.7924  -3.6620  -3.5925  -3.5432  -3.5256  -3.4354  -3.3557  -3.3254
    -3.2202  -3.2047  -3.1515  -3.0483  -2.9369  -2.8887  -2.8624  -2.7988
    -2.7121  -2.6658  -2.5935  -2.5353  -2.4583  -2.3653  -2.3462  -2.3050
    -2.2267  -2.1468  -2.0974  -2.0652  -2.0085  -1.9733  -1.8947  -1.8040
    -1.7034  -1.6240  -1.5848  -1.5580  -1.4967  -1.4416  -1.3963  -1.3699
    -1.3020  -1.1870  -1.1295  -1.0291  -0.9964  -0.8497  -0.7154  -0.6935
     1.8748   1.9785   2.0390   2.1706   2.2015   2.2377   2.2926   2.3817
     2.4482   2.4899   2.5070   2.6387   2.6528   2.7083   2.8019   2.8151
     2.8567   2.8763   2.9622   2.9967   3.0222   3.0428   3.0987   3.1307
     3.1735   3.2362   3.2538   3.2936   3.3661

          k = 0.2000-0.5928 0.0000 (140574 PWs)   bands (ev):

   -57.1386 -57.1383 -57.1338 -57.1336 -57.1218 -57.1217 -57.1050 -57.1049
   -56.8384 -56.8369 -56.8291 -56.8276 -33.6252 -33.6251 -33.5534 -33.5533
   -33.4737 -33.4737 -33.4259 -33.4259 -33.4084 -33.4083 -33.3763 -33.3762
   -33.3689 -33.3687 -33.3527 -33.3525 -33.3320 -33.3319 -33.3144 -33.3143
   -33.2884 -33.2883 -33.2844 -33.2843 -33.2318 -33.2313 -33.2264 -33.2259
   -33.1425 -33.1409 -33.1026 -33.1010 -33.0127 -33.0112 -32.9926 -32.9911
   -17.6345 -17.6344 -17.5418 -17.5418 -17.3117 -17.3117 -17.1262 -17.1258
   -17.0694 -17.0691 -17.0094 -17.0090 -16.8936 -16.8931 -16.7561 -16.7557
   -16.7033 -16.7033 -16.6670 -16.6661 -16.3553 -16.3533 -16.2349 -16.2331
    -5.3307  -5.3306  -5.1658  -5.1658  -5.0442  -5.0440  -4.9323  -4.9321
    -4.8521  -4.8520  -4.6570  -4.6567  -4.5745  -4.5743  -4.3090  -4.3086
    -4.1093  -4.1084  -4.0676  -4.0666  -3.9051  -3.9048  -3.8155  -3.8154
    -3.6946  -3.6945  -3.6194  -3.6188  -3.4684  -3.4677  -3.2437  -3.2434
    -3.1742  -3.1742  -3.0910  -3.0903  -2.9189  -2.9186  -2.8156  -2.8152
    -2.7651  -2.7649  -2.5939  -2.5931  -2.4272  -2.4264  -2.3542  -2.3538
    -2.1859  -2.1852  -2.1053  -2.1052  -1.9891  -1.9886  -1.8233  -1.8232
    -1.7359  -1.7358  -1.6278  -1.6269  -1.5103  -1.5100  -1.3428  -1.3423
    -1.1654  -1.1654  -1.1019  -1.1016  -0.9427  -0.9403  -0.7829  -0.7811
     1.9621   1.9625   2.1589   2.1589   2.2621   2.2622   2.3427   2.3435
     2.4844   2.4846   2.5721   2.5725   2.6281   2.6283   2.7732   2.7733
     2.8759   2.8762   3.0163   3.0163   3.0671   3.0677   3.1905   3.1910
     3.2990   3.2996   3.3444   3.3453   3.3640

          k = 0.4000 0.0000 0.0000 (140644 PWs)   bands (ev):

   -57.1401 -57.1359 -57.1359 -57.1325 -57.1234 -57.1206 -57.1053 -57.1044
   -56.8358 -56.8343 -56.8317 -56.8302 -33.6233 -33.6220 -33.5510 -33.5475
   -33.4657 -33.4642 -33.4158 -33.4103 -33.4048 -33.4009 -33.3849 -33.3822
   -33.3730 -33.3703 -33.3631 -33.3603 -33.3405 -33.3373 -33.3141 -33.3125
   -33.2920 -33.2915 -33.2847 -33.2799 -33.2298 -33.2292 -33.2257 -33.2240
   -33.1305 -33.1288 -33.1123 -33.1106 -33.0083 -33.0068 -33.0017 -33.0002
   -17.9083 -17.7509 -17.5501 -17.4364 -17.4121 -17.2540 -17.1711 -17.1334
   -17.0221 -16.9784 -16.9267 -16.8868 -16.8722 -16.8572 -16.8404 -16.7535
   -16.7372 -16.6794 -16.6406 -16.6334 -16.3245 -16.3228 -16.2818 -16.2791
    -5.2709  -5.0863  -5.0485  -4.9542  -4.8443  -4.8315  -4.7431  -4.7352
    -4.6315  -4.5664  -4.5179  -4.4525  -4.3583  -4.3121  -4.2474  -4.1516
    -4.1345  -4.0706  -4.0196  -3.9552  -3.9373  -3.8822  -3.8561  -3.8210
    -3.7363  -3.7327  -3.6956  -3.6112  -3.5790  -3.4489  -3.4465  -3.3737
    -3.3580  -3.3239  -3.2688  -3.2060  -3.1918  -3.0796  -3.0624  -3.0594
    -2.8761  -2.8500  -2.8160  -2.7257  -2.7139  -2.6442  -2.5583  -2.4873
    -2.4264  -2.3004  -2.2797  -2.2567  -2.2287  -2.1200  -2.1148  -2.0324
    -1.8920  -1.8509  -1.7682  -1.5875  -1.5808  -1.4869  -1.3177  -1.2997
    -1.2355  -1.1779  -1.0312  -0.9329  -0.8943  -0.8528  -0.7115  -0.6431
     2.0125   2.0589   2.1679   2.1938   2.2511   2.3222   2.4338   2.5000
     2.5157   2.5859   2.5918   2.6683   2.7466   2.7922   2.8632   2.8731
     2.8734   2.9369   3.0055   3.0185   3.0631   3.0914   3.1536   3.1878
     3.2413   3.2548   3.3218   3.4440   3.4449

          k = 0.4000 0.1976 0.0000 (140629 PWs)   bands (ev):

   -57.1398 -57.1363 -57.1355 -57.1327 -57.1232 -57.1207 -57.1053 -57.1046
   -56.8357 -56.8342 -56.8318 -56.8303 -33.6270 -33.6224 -33.5557 -33.5484
   -33.4778 -33.4632 -33.4312 -33.4131 -33.4048 -33.4044 -33.3869 -33.3777
   -33.3691 -33.3682 -33.3556 -33.3438 -33.3395 -33.3300 -33.3140 -33.3117
   -33.2922 -33.2897 -33.2841 -33.2817 -33.2335 -33.2293 -33.2283 -33.2244
   -33.1314 -33.1297 -33.1140 -33.1123 -33.0072 -33.0057 -32.9984 -32.9969
   -17.8679 -17.7251 -17.5535 -17.4581 -17.4015 -17.2669 -17.1872 -17.1383
   -17.0325 -16.9857 -16.9383 -16.9184 -16.8632 -16.8597 -16.8274 -16.7684
   -16.7162 -16.6733 -16.6673 -16.6395 -16.3193 -16.3176 -16.2522 -16.2499
    -5.4371  -5.2274  -5.1065  -4.9887  -4.9040  -4.8529  -4.8076  -4.6744
    -4.6566  -4.6170  -4.5914  -4.5637  -4.4681  -4.3355  -4.3002  -4.2934
    -4.1702  -4.1656  -4.0427  -4.0130  -3.9298  -3.8951  -3.8716  -3.8109
    -3.6921  -3.6664  -3.6445  -3.5712  -3.5253  -3.4938  -3.3859  -3.3325
    -3.2596  -3.2186  -3.1894  -3.1345  -3.0296  -2.9694  -2.9358  -2.8873
    -2.8410  -2.8147  -2.6977  -2.6145  -2.5600  -2.4986  -2.4499  -2.4116
    -2.3439  -2.3213  -2.2612  -2.1850  -2.1339  -2.0922  -2.0298  -1.9998
    -1.8762  -1.7902  -1.7125  -1.6662  -1.5474  -1.4722  -1.3858  -1.3395
    -1.2977  -1.2434  -1.1423  -1.0215  -1.0001  -0.9325  -0.7867  -0.7512
     1.9700   2.0070   2.0483   2.1398   2.2208   2.2844   2.3364   2.3802
     2.4717   2.5195   2.5312   2.6696   2.7217   2.7564   2.8183   2.8860
     2.9408   2.9607   3.0056   3.0195   3.0232   3.1025   3.1745   3.1893
     3.2231   3.2361   3.3035   3.3542   3.4437

          k = 0.4000 0.3952 0.0000 (140554 PWs)   bands (ev):

   -57.1390 -57.1369 -57.1349 -57.1332 -57.1226 -57.1212 -57.1053 -57.1048
   -56.8356 -56.8341 -56.8319 -56.8304 -33.6309 -33.6266 -33.5610 -33.5543
   -33.4873 -33.4753 -33.4442 -33.4311 -33.4080 -33.3982 -33.3909 -33.3787
   -33.3607 -33.3494 -33.3362 -33.3325 -33.3301 -33.3268 -33.3134 -33.3082
   -33.2952 -33.2878 -33.2848 -33.2801 -33.2377 -33.2331 -33.2317 -33.2276
   -33.1329 -33.1313 -33.1174 -33.1158 -33.0032 -33.0017 -32.9938 -32.9923
   -17.7689 -17.6557 -17.5872 -17.4959 -17.3827 -17.2802 -17.2107 -17.1595
   -17.0619 -17.0105 -16.9843 -16.9506 -16.8869 -16.8549 -16.7984 -16.7829
   -16.7010 -16.6840 -16.6647 -16.6459 -16.2841 -16.2816 -16.2233 -16.2211
    -5.5718  -5.3749  -5.3402  -5.1789  -5.0554  -5.0036  -4.9162  -4.8313
    -4.7925  -4.7728  -4.6348  -4.5514  -4.5179  -4.4617  -4.4366  -4.2447
    -4.2261  -4.1565  -4.0714  -4.0383  -4.0030  -3.9622  -3.9304  -3.8524
    -3.6946  -3.5793  -3.5616  -3.4564  -3.3969  -3.3560  -3.2289  -3.1599
    -3.1283  -2.9671  -2.9259  -2.8891  -2.8405  -2.8011  -2.7501  -2.7122
    -2.7028  -2.6623  -2.5348  -2.4417  -2.3663  -2.3551  -2.3519  -2.3212
    -2.2610  -2.1958  -2.1508  -2.0498  -2.0124  -1.9609  -1.9265  -1.8947
    -1.8252  -1.7777  -1.6991  -1.6712  -1.6245  -1.5527  -1.5065  -1.4436
    -1.4036  -1.3803  -1.3421  -1.1909  -1.0938  -1.0497  -0.9529  -0.9058
     1.8603   1.9260   1.9408   2.0504   2.1233   2.1784   2.2259   2.2849
     2.3491   2.4126   2.4414   2.5061   2.5765   2.6163   2.7788   2.8288
     2.8313   2.9139   2.9812   3.0166   3.0951   3.1007   3.2100   3.2179
     3.2547   3.2818   3.3702   3.4026   3.4375

          k = 0.4000-0.5928 0.0000 (140590 PWs)   bands (ev):

   -57.1379 -57.1378 -57.1340 -57.1340 -57.1219 -57.1218 -57.1051 -57.1051
   -56.8355 -56.8340 -56.8320 -56.8305 -33.6308 -33.6307 -33.5605 -33.5605
   -33.4863 -33.4863 -33.4444 -33.4443 -33.4009 -33.4008 -33.3888 -33.3888
   -33.3415 -33.3412 -33.3334 -33.3332 -33.3266 -33.3263 -33.3093 -33.3093
   -33.2931 -33.2931 -33.2806 -33.2806 -33.2373 -33.2370 -33.2317 -33.2314
   -33.1335 -33.1320 -33.1192 -33.1177 -33.0005 -32.9990 -32.9922 -32.9907
   -17.6632 -17.6632 -17.5678 -17.5677 -17.3247 -17.3247 -17.1971 -17.1970
   -17.0441 -17.0438 -17.0100 -17.0099 -16.8506 -16.8499 -16.8101 -16.8092
   -16.6718 -16.6717 -16.6624 -16.6623 -16.2565 -16.2544 -16.2207 -16.2187
    -5.5517  -5.5517  -5.3220  -5.3220  -5.1018  -5.1016  -4.9861  -4.9860
    -4.8344  -4.8344  -4.6354  -4.6354  -4.4567  -4.4565  -4.4101  -4.4100
    -4.2192  -4.2185  -4.1163  -4.1158  -3.9308  -3.9300  -3.8970  -3.8967
    -3.5771  -3.5769  -3.5055  -3.5052  -3.2602  -3.2601  -3.0165  -3.0162
    -2.8975  -2.8968  -2.8642  -2.8642  -2.7419  -2.7414  -2.6828  -2.6823
    -2.5108  -2.5104  -2.4413  -2.4408  -2.3319  -2.3318  -2.2960  -2.2960
    -2.2329  -2.2324  -2.0860  -2.0853  -2.0118  -2.0109  -1.9538  -1.9536
    -1.8520  -1.8514  -1.6675  -1.6662  -1.5606  -1.5604  -1.4529  -1.4508
    -1.3796  -1.3788  -1.2745  -1.2744  -1.1892  -1.1877  -1.0089  -1.0078
     1.8449   1.8452   1.9552   1.9554   2.1022   2.1022   2.1854   2.1855
     2.4038   2.4040   2.4237   2.4237   2.4914   2.4915   2.7101   2.7104
     2.8067   2.8067   3.0032   3.0033   3.1377   3.1384   3.2364   3.2376
     3.3162   3.3165   3.4029   3.4031   3.4865

     the Fermi energy is     0.7260 ev

!    total energy              =   -2155.74700328 Ry
     estimated scf accuracy    <       0.00000057 Ry
     smearing contrib. (-TS)   =      -0.00000000 Ry
     internal energy E=F+TS    =   -2155.74700328 Ry

     The total energy is F=E-TS. E is the sum of the following terms:
     one-electron contribution =  -47151.39881809 Ry
     hartree contribution      =   23612.43839439 Ry
     xc contribution           =    -340.07669569 Ry
     ewald contribution        =   21723.29011611 Ry

     convergence has been achieved in  14 iterations

     Forces acting on atoms (cartesian axes, Ry/au):

     atom    1 type  1   force =     0.00016402    0.00027741   -0.00025604
     atom    2 type  1   force =     0.00016402   -0.00027741   -0.00025604
     atom    3 type  1   force =    -0.00003489   -0.00028117   -0.00006717
     atom    4 type  1   force =    -0.00003489    0.00028117   -0.00006717
     atom    5 type  1   force =    -0.00021522    0.00013924    0.00018013
     atom    6 type  1   force =    -0.00021522   -0.00013924    0.00018013
     atom    7 type  1   force =     0.00024717   -0.00015084   -0.00019038
     atom    8 type  1   force =     0.00024717    0.00015084   -0.00019038
     atom    9 type  1   force =    -0.00000180    0.00030235   -0.00003019
     atom   10 type  1   force =    -0.00000180   -0.00030235   -0.00003019
     atom   11 type  1   force =    -0.00020797   -0.00029725    0.00019545
     atom   12 type  1   force =    -0.00020797    0.00029725    0.00019545
     atom   13 type  2   force =    -0.00073520    0.00079306    0.00004243
     atom   14 type  2   force =    -0.00073520   -0.00079306    0.00004243
     atom   15 type  2   force =    -0.00049092    0.00030945   -0.00027107
     atom   16 type  2   force =    -0.00050366   -0.00033092   -0.00022922
     atom   17 type  2   force =    -0.00049092   -0.00030945   -0.00027107
     atom   18 type  2   force =    -0.00050366    0.00033092   -0.00022922
     atom   19 type  2   force =     0.00012863   -0.00014236   -0.00000112
     atom   20 type  2   force =    -0.00018789    0.00025319    0.00050245
     atom   21 type  2   force =     0.00012863    0.00014236   -0.00000112
     atom   22 type  2   force =    -0.00018789   -0.00025319    0.00050245
     atom   23 type  2   force =    -0.00062351   -0.00033113    0.00008725
     atom   24 type  2   force =     0.00065133    0.00034954   -0.00010067
     atom   25 type  2   force =    -0.00062351    0.00033113    0.00008725
     atom   26 type  2   force =     0.00065133   -0.00034954   -0.00010067
     atom   27 type  2   force =     0.00025770   -0.00030620   -0.00049516
     atom   28 type  2   force =    -0.00016557    0.00017712    0.00000760
     atom   29 type  2   force =     0.00025770    0.00030620   -0.00049516
     atom   30 type  2   force =    -0.00016557   -0.00017712    0.00000760
     atom   31 type  2   force =     0.00044400    0.00036615    0.00029191
     atom   32 type  2   force =     0.00053634   -0.00034569    0.00036277
     atom   33 type  2   force =     0.00044400   -0.00036615    0.00029191
     atom   34 type  2   force =     0.00053634    0.00034569    0.00036277
     atom   35 type  2   force =     0.00073744   -0.00078803   -0.00002899
     atom   36 type  2   force =     0.00073744    0.00078803   -0.00002899

     Total force =     0.003679     Total SCF correction =     0.002281
     SCF correction compared to forces is large: reduce conv_thr to get better values


     Computing stress (Cartesian axis) and pressure

          total   stress  (Ry/bohr**3)                   (kbar)     P=        0.05
   0.00000002   0.00000000   0.00000954            0.00        0.00        1.40
   0.00000000  -0.00000154   0.00000000            0.00       -0.23        0.00
   0.00000954   0.00000000   0.00000258            1.40        0.00        0.38


     Writing all to output data dir ./Out/pwscf.save/
 
     init_run     :     21.37s CPU     23.85s WALL (       2 calls)
     electrons    :    320.77s CPU    322.94s WALL (       2 calls)
     forces       :      4.92s CPU      4.20s WALL (       2 calls)
     stress       :     17.78s CPU     17.75s WALL (       2 calls)

     Called by init_run:
     wfcinit      :     14.04s CPU     16.03s WALL (       2 calls)
     potinit      :      0.18s CPU      0.13s WALL (       2 calls)
     hinit0       :      6.08s CPU      5.82s WALL (       2 calls)

     Called by electrons:
     c_bands      :    265.38s CPU    267.36s WALL (      29 calls)
     sum_band     :     49.87s CPU     49.95s WALL (      29 calls)
     v_of_rho     :      1.23s CPU      0.96s WALL (      31 calls)
     mix_rho      :      3.60s CPU      3.85s WALL (      29 calls)

     Called by c_bands:
     init_us_2    :      1.46s CPU      1.47s WALL (     768 calls)
     init_us_2:gp :      1.44s CPU      1.44s WALL (     768 calls)
     cegterg      :    210.75s CPU    210.97s WALL (     372 calls)

     Called by *egterg:
     cdiaghg      :     16.60s CPU     17.21s WALL (    3322 calls)
                                       17.19s GPU  (    3322 calls)
     h_psi        :    156.67s CPU    156.98s WALL (    3370 calls)
                                      156.78s GPU  (    3370 calls)
     g_psi        :      0.01s CPU      2.03s WALL (    2974 calls)
                                        2.00s GPU  (    2974 calls)

     Called by h_psi:
     h_psi:calbec :      0.18s CPU      9.83s WALL (    3370 calls)
                                        9.80s GPU  (    3370 calls)
     vloc_psi     :    135.30s CPU    135.51s WALL (    3370 calls)
                                      135.48s GPU  (    3370 calls)
     add_vuspsi   :      3.10s CPU     10.67s WALL (    3370 calls)
                                       10.64s GPU  (    3370 calls)

     General routines
     calbec       :      0.15s CPU      0.20s WALL (    3490 calls)
     fft          :      0.03s CPU      0.16s WALL (     324 calls)
                                        0.16s GPU  (     324 calls)
     ffts         :      0.00s CPU      0.01s WALL (      29 calls)
                                        0.01s GPU  (      29 calls)
     fftw         :      0.34s CPU    120.56s WALL (   36516 calls)
                                      120.31s GPU  (   36516 calls)
 
 
     PWSCF        :   6m 6.24s CPU   6m12.46s WALL

 
   This run was terminated on:  15:25:35  26Jul2026            

=------------------------------------------------------------------------------=
   JOB DONE.
=------------------------------------------------------------------------------=
