vc-relax TiO2-R
1.0
   4.514940995   0.000000000   0.000000000
   0.000000000   4.514940995   0.000000000
   0.000000000   0.000000000   3.135983998
Ru O
2  4
Cartesian
            0.0000000000        0.0000000000        0.0000000000
            2.2574704977        2.2574704977        1.5679919990
            1.3882579406        1.3882579406       -0.0000000000
            3.1266830548        3.1266830548       -0.0000000000
            3.6457284382        0.8692125571        1.5679919990
            0.8692125571        3.6457284382        1.5679919990
