
     Program PWSCF v.7.2 starts on 26Jul2026 at 14:53:48 
        Git branch: krg.prod
        Last git commit: daa121e36ad33d2e2c57a5cfc9f193e3f68d7ebf
        Last git commit date: Wed Feb 25 11:53:28 2026 -0600
        Last git commit subject: use krg software repo instead

     This program is part of the open-source Quantum ESPRESSO suite
     for quantum simulation of materials; please cite
         "P. Giannozzi et al., J. Phys.:Condens. Matter 21 395502 (2009);
         "P. Giannozzi et al., J. Phys.:Condens. Matter 29 465901 (2017);
         "P. Giannozzi et al., J. Chem. Phys. 152 154105 (2020);
          URL http://www.quantum-espresso.org", 
     in publications or presentations arising from this work. More details at
     http://www.quantum-espresso.org/quote

     Serial multi-threaded version, running on    8 processor cores
     137358 MiB available memory on the printing compute node when the environment starts
 
     Waiting for input...
     Reading input from standard input
Warning: card &FCP ignored
Warning: card / ignored
Warning: card &RISM ignored
Warning: card / ignored

     Current dimensions of program PWSCF are:
     Max number of different atomic species (ntypx) = 10
     Max number of k-points (npk) =  40000
     Max angular momentum in pseudopotentials (lmaxx) =  4
     Message from routine setup:
     using ibrav=0 with symmetry is DISCOURAGED, use correct ibrav instead
 
 
     G-vector sticks info
     --------------------
     sticks:   dense  smooth     PW     G-vecs:    dense   smooth      PW
     Sum        1909    1909    537               782927   782927  115337
 
     Using Slab Decomposition
 


     bravais-lattice index     =            0
     lattice parameter (alat)  =       8.9426  a.u.
     unit-cell volume          =    4407.9772 (a.u.)^3
     number of atoms/cell      =           30
     number of atomic types    =            2
     number of electrons       =       240.00
     number of Kohn-Sham states=          144
     kinetic-energy cutoff     =     120.0000  Ry
     charge density cutoff     =     480.0000  Ry
     scf convergence threshold =      1.0E-06
     mixing beta               =       0.4000
     number of iterations used =           20  plain     mixing
     energy convergence thresh.=      1.0E-04
     force convergence thresh. =      1.0E-03
     press convergence thresh. =      5.0E-01
     Exchange-correlation= PBE
                           (   1   4   3   4   0   0   0)
     nstep                     =          500


     GPU acceleration is ACTIVE.


     celldm(1)=   8.942561  celldm(2)=   0.000000  celldm(3)=   0.000000
     celldm(4)=   0.000000  celldm(5)=   0.000000  celldm(6)=   0.000000

     crystal axes: (cart. coord. in units of alat)
               a(1) = (   1.000000   0.000000   0.000000 )  
               a(2) = (   0.000000   0.625060   0.000000 )  
               a(3) = (   0.000000   0.000000   9.861253 )  

     reciprocal axes: (cart. coord. in units 2 pi/alat)
               b(1) = (  1.000000  0.000000  0.000000 )  
               b(2) = (  0.000000  1.599847  0.000000 )  
               b(3) = (  0.000000  0.000000  0.101407 )  


     PseudoPot. # 1 for Ti read from file:
     /cm/shared/apps/KO/pseudo/sg15/Ti_ONCV_PBE-1.2.upf
     MD5 check sum: 1aea57736bd12dcfee93c97d0b9b5968
     Pseudo is Norm-conserving, Zval = 12.0
     Generated using ONCVPSP code by D. R. Hamann
     Using radial grid of  602 points,  6 beta functions with: 
                l(1) =   0
                l(2) =   0
                l(3) =   1
                l(4) =   1
                l(5) =   2
                l(6) =   2

     PseudoPot. # 2 for O  read from file:
     /cm/shared/apps/KO/pseudo/sg15/O_ONCV_PBE-1.2.upf
     MD5 check sum: e36c48deb68f4e355fffe4602be2c42c
     Pseudo is Norm-conserving, Zval =  6.0
     Generated using ONCVPSP code by D. R. Hamann
     Using radial grid of  602 points,  4 beta functions with: 
                l(1) =   0
                l(2) =   0
                l(3) =   1
                l(4) =   1

     atomic species   valence    mass     pseudopotential
     Ti               12.00    47.86700     Ti( 1.00)
     O                 6.00    15.99900     O ( 1.00)

      2 Sym. Ops. (no inversion) found



   Cartesian axes

     site n.     atom                  positions (alat units)
         1        Ti     tau(   1) = (   0.0343656   0.0000000   3.0867574  )
         2        Ti     tau(   2) = (   0.5256309   0.3125298   3.5583628  )
         3        Ti     tau(   3) = (   0.0210952   0.0000000   4.0580962  )
         4        Ti     tau(   4) = (   0.5193016   0.3125298   4.5360133  )
         5        Ti     tau(   5) = (   0.0183921   0.0000000   5.0295555  )
         6        Ti     tau(   6) = (   0.5181358   0.3125298   5.5070559  )
         7        Ti     tau(   7) = (   0.0189229   0.0000000   6.0004411  )
         8        Ti     tau(   8) = (   0.5208251   0.3125298   6.4781454  )
         9        Ti     tau(   9) = (   0.0253957   0.0000000   6.9772077  )
        10        Ti     tau(  10) = (   0.5340596   0.3125298   7.4489478  )
        11        O      tau(  11) = (   0.1305359   0.3125299   2.8744230  )
        12        O      tau(  12) = (   0.3012529   0.0000000   3.3692340  )
        13        O      tau(  13) = (   0.6874333   0.0000000   3.7549727  )
        14        O      tau(  14) = (   0.1839903   0.3125299   3.8595758  )
        15        O      tau(  15) = (   0.7803723   0.3125299   3.2600231  )
        16        O      tau(  16) = (   0.3088127   0.0000000   4.3446108  )
        17        O      tau(  17) = (   0.6874358   0.0000000   4.7334594  )
        18        O      tau(  18) = (   0.1868336   0.3125299   4.8320942  )
        19        O      tau(  19) = (   0.8073487   0.3125299   4.2487214  )
        20        O      tau(  20) = (   0.3094614   0.0000000   5.3149760  )
        21        O      tau(  21) = (   0.6856490   0.0000000   5.7053448  )
        22        O      tau(  22) = (   0.1860092   0.3125299   5.8020554  )
        23        O      tau(  23) = (   0.8092271   0.3125299   5.2213622  )
        24        O      tau(  24) = (   0.3074477   0.0000000   6.2873346  )
        25        O      tau(  25) = (   0.6838973   0.0000000   6.6765602  )
        26        O      tau(  26) = (   0.1871203   0.3125299   6.7803834  )
        27        O      tau(  27) = (   0.8090923   0.3125299   6.1923873  )
        28        O      tau(  28) = (   0.2806119   0.0000000   7.2749994  )
        29        O      tau(  29) = (   0.6296076   0.0000000   7.6615528  )
        30        O      tau(  30) = (   0.8017354   0.3125299   7.1672233  )

     number of k points=    20  Gaussian smearing, width (Ry)=  0.0200
                       cart. coord. in units 2pi/alat
        k(    1) = (   0.0000000   0.0000000   0.0000000), wk =   0.0370370
        k(    2) = (   0.0000000   0.1777608   0.0000000), wk =   0.0740741
        k(    3) = (   0.0000000   0.3555216   0.0000000), wk =   0.0740741
        k(    4) = (   0.0000000   0.5332824   0.0000000), wk =   0.0740741
        k(    5) = (   0.0000000   0.7110432   0.0000000), wk =   0.0740741
        k(    6) = (   0.1666667   0.0000000   0.0000000), wk =   0.0740741
        k(    7) = (   0.1666667   0.1777608   0.0000000), wk =   0.1481481
        k(    8) = (   0.1666667   0.3555216   0.0000000), wk =   0.1481481
        k(    9) = (   0.1666667   0.5332824   0.0000000), wk =   0.1481481
        k(   10) = (   0.1666667   0.7110432   0.0000000), wk =   0.1481481
        k(   11) = (   0.3333333   0.0000000   0.0000000), wk =   0.0740741
        k(   12) = (   0.3333333   0.1777608   0.0000000), wk =   0.1481481
        k(   13) = (   0.3333333   0.3555216   0.0000000), wk =   0.1481481
        k(   14) = (   0.3333333   0.5332824   0.0000000), wk =   0.1481481
        k(   15) = (   0.3333333   0.7110432   0.0000000), wk =   0.1481481
        k(   16) = (  -0.5000000   0.0000000   0.0000000), wk =   0.0370370
        k(   17) = (  -0.5000000   0.1777608   0.0000000), wk =   0.0740741
        k(   18) = (  -0.5000000   0.3555216   0.0000000), wk =   0.0740741
        k(   19) = (  -0.5000000   0.5332824   0.0000000), wk =   0.0740741
        k(   20) = (  -0.5000000   0.7110432   0.0000000), wk =   0.0740741

     Dense  grid:   782927 G-vectors     FFT dimensions: (  64,  40, 625)

     Estimated max dynamical RAM per process >       6.48 GB

     Initial potential from superposition of free atoms

     starting charge     238.8836, renormalised to     240.0000

     negative rho (up, down):  7.398E-04 0.000E+00
     Starting wfcs are random

     total cpu time spent up to now is       10.7 secs

     per-process dynamical memory:   842.1 Mb

     Self-consistent Calculation

     iteration #  1     ecut=   120.00 Ry     beta= 0.40
     Davidson diagonalization with overlap
     ethr =  1.00E-02,  avg # of iterations = 16.4

     negative rho (up, down):  1.953E-06 0.000E+00

     total cpu time spent up to now is       28.3 secs

     total energy              =   -1793.17716517 Ry
     estimated scf accuracy    <      11.79799219 Ry

     iteration #  2     ecut=   120.00 Ry     beta= 0.40
     Davidson diagonalization with overlap
     ethr =  4.92E-03,  avg # of iterations =  4.2

     total cpu time spent up to now is       35.7 secs

     total energy              =   -1795.63613433 Ry
     estimated scf accuracy    <       2.59460037 Ry

     iteration #  3     ecut=   120.00 Ry     beta= 0.40
     Davidson diagonalization with overlap
     ethr =  1.08E-03,  avg # of iterations =  7.3

     total cpu time spent up to now is       43.4 secs

     total energy              =   -1795.54603735 Ry
     estimated scf accuracy    <      14.21477927 Ry

     iteration #  4     ecut=   120.00 Ry     beta= 0.40
     Davidson diagonalization with overlap
     ethr =  1.08E-03,  avg # of iterations =  9.3

     total cpu time spent up to now is       51.2 secs

     total energy              =   -1796.45964995 Ry
     estimated scf accuracy    <       0.58357815 Ry

     iteration #  5     ecut=   120.00 Ry     beta= 0.40
     Davidson diagonalization with overlap
     c_bands:  1 eigenvalues not converged
     c_bands:  1 eigenvalues not converged
     ethr =  2.43E-04,  avg # of iterations = 12.3

     total cpu time spent up to now is       60.0 secs

     total energy              =   -1796.54574814 Ry
     estimated scf accuracy    <       0.08321588 Ry

     iteration #  6     ecut=   120.00 Ry     beta= 0.40
     Davidson diagonalization with overlap
     c_bands:  1 eigenvalues not converged
     c_bands:  1 eigenvalues not converged
     c_bands:  1 eigenvalues not converged
     c_bands:  1 eigenvalues not converged
     c_bands:  1 eigenvalues not converged
     c_bands:  4 eigenvalues not converged
     c_bands:  1 eigenvalues not converged
     c_bands:  5 eigenvalues not converged
     c_bands:  2 eigenvalues not converged
     c_bands:  3 eigenvalues not converged
     ethr =  3.47E-05,  avg # of iterations = 18.1

     total cpu time spent up to now is       70.6 secs

     total energy              =   -1796.56159691 Ry
     estimated scf accuracy    <       0.05751363 Ry

     iteration #  7     ecut=   120.00 Ry     beta= 0.40
     Davidson diagonalization with overlap
     c_bands:  1 eigenvalues not converged
     c_bands:  1 eigenvalues not converged
     c_bands:  4 eigenvalues not converged
     c_bands:  1 eigenvalues not converged
     ethr =  2.40E-05,  avg # of iterations = 11.1

     total cpu time spent up to now is       78.8 secs

     total energy              =   -1796.56412814 Ry
     estimated scf accuracy    <       0.01510131 Ry

     iteration #  8     ecut=   120.00 Ry     beta= 0.40
     Davidson diagonalization with overlap
     c_bands:  2 eigenvalues not converged
     c_bands:  2 eigenvalues not converged
     c_bands:  4 eigenvalues not converged
     c_bands:  2 eigenvalues not converged
     c_bands:  2 eigenvalues not converged
     c_bands:  4 eigenvalues not converged
     c_bands:  2 eigenvalues not converged
     ethr =  6.29E-06,  avg # of iterations = 16.4

     total cpu time spent up to now is       88.6 secs

     total energy              =   -1796.56626133 Ry
     estimated scf accuracy    <       0.00644167 Ry

     iteration #  9     ecut=   120.00 Ry     beta= 0.40
     Davidson diagonalization with overlap
     c_bands:  2 eigenvalues not converged
     c_bands:  2 eigenvalues not converged
     c_bands:  1 eigenvalues not converged
     c_bands:  1 eigenvalues not converged
     c_bands:  2 eigenvalues not converged
     c_bands:  1 eigenvalues not converged
     ethr =  2.68E-06,  avg # of iterations = 15.4

     total cpu time spent up to now is       97.6 secs

     total energy              =   -1796.56636168 Ry
     estimated scf accuracy    <       0.00362527 Ry

     iteration # 10     ecut=   120.00 Ry     beta= 0.40
     Davidson diagonalization with overlap
     c_bands:  3 eigenvalues not converged
     c_bands:  1 eigenvalues not converged
     c_bands:  2 eigenvalues not converged
     c_bands:  1 eigenvalues not converged
     ethr =  1.51E-06,  avg # of iterations =  8.8

     total cpu time spent up to now is      105.0 secs

     total energy              =   -1796.56624166 Ry
     estimated scf accuracy    <       0.00207820 Ry

     iteration # 11     ecut=   120.00 Ry     beta= 0.40
     Davidson diagonalization with overlap
     c_bands:  1 eigenvalues not converged
     c_bands:  5 eigenvalues not converged
     ethr =  8.66E-07,  avg # of iterations =  8.4

     total cpu time spent up to now is      112.6 secs

     total energy              =   -1796.56620071 Ry
     estimated scf accuracy    <       0.00095896 Ry

     iteration # 12     ecut=   120.00 Ry     beta= 0.40
     Davidson diagonalization with overlap
     c_bands:  1 eigenvalues not converged
     c_bands:  1 eigenvalues not converged
     ethr =  4.00E-07,  avg # of iterations =  7.5

     total cpu time spent up to now is      120.0 secs

     total energy              =   -1796.56622671 Ry
     estimated scf accuracy    <       0.00034170 Ry

     iteration # 13     ecut=   120.00 Ry     beta= 0.40
     Davidson diagonalization with overlap
     c_bands:  1 eigenvalues not converged
     c_bands:  1 eigenvalues not converged
     ethr =  1.42E-07,  avg # of iterations =  7.0

     total cpu time spent up to now is      127.5 secs

     total energy              =   -1796.56624153 Ry
     estimated scf accuracy    <       0.00013189 Ry

     iteration # 14     ecut=   120.00 Ry     beta= 0.40
     Davidson diagonalization with overlap
     ethr =  5.50E-08,  avg # of iterations =  6.0

     negative rho (up, down):  5.300E-07 0.000E+00

     total cpu time spent up to now is      134.7 secs

     total energy              =   -1796.56624820 Ry
     estimated scf accuracy    <       0.00004213 Ry

     iteration # 15     ecut=   120.00 Ry     beta= 0.40
     Davidson diagonalization with overlap
     c_bands:  3 eigenvalues not converged
     ethr =  1.76E-08,  avg # of iterations =  9.3

     negative rho (up, down):  9.121E-07 0.000E+00

     total cpu time spent up to now is      142.8 secs

     total energy              =   -1796.56625383 Ry
     estimated scf accuracy    <       0.00000650 Ry

     iteration # 16     ecut=   120.00 Ry     beta= 0.40
     Davidson diagonalization with overlap
     ethr =  2.71E-09,  avg # of iterations =  6.0

     negative rho (up, down):  5.131E-07 0.000E+00

     total cpu time spent up to now is      150.5 secs

     total energy              =   -1796.56625477 Ry
     estimated scf accuracy    <       0.00000150 Ry

     iteration # 17     ecut=   120.00 Ry     beta= 0.40
     Davidson diagonalization with overlap
     ethr =  6.25E-10,  avg # of iterations =  4.6

     total cpu time spent up to now is      157.5 secs

     End of self-consistent calculation

          k = 0.0000 0.0000 0.0000 ( 97835 PWs)   bands (ev):

   -56.3307 -56.3301 -56.3214 -56.3138 -56.3000 -56.2989 -56.2785 -56.2783
   -55.8360 -55.8353 -32.6236 -32.6234 -32.6065 -32.6057 -32.5826 -32.5810
   -32.5743 -32.5738 -32.5242 -32.5159 -32.5038 -32.5003 -32.4894 -32.4859
   -32.4789 -32.4766 -32.4246 -32.4226 -32.4103 -32.3974 -32.3969 -32.3958
   -32.3777 -32.3771 -32.2299 -32.2293 -32.0984 -32.0979 -31.8772 -31.8765
   -17.4425 -17.3528 -17.2168 -17.0342 -16.7824 -16.5792 -16.4320 -16.3693
   -16.3122 -16.3110 -15.9507 -15.9411 -15.8874 -15.8449 -15.8004 -15.7721
   -15.7226 -15.6997 -15.3418 -15.3417  -5.0141  -4.8614  -4.6570  -4.5751
    -4.4804  -4.4590  -4.3611  -4.2977  -4.0838  -3.9175  -3.7598  -3.7062
    -3.5748  -3.2227  -3.1954  -3.1949  -3.1307  -3.1207  -3.1036  -3.0968
    -3.0753  -3.0721  -2.7580  -2.6993  -2.6986  -2.5741  -2.4635  -2.3355
    -2.2808  -2.2424  -2.0973  -2.0650  -1.9670  -1.8979  -1.5454  -1.4882
    -1.3148  -1.3123  -1.2698  -1.2598  -1.1840  -1.0260  -1.0170  -0.8719
    -0.8493  -0.8342  -0.7185  -0.6796  -0.4876  -0.3191  -0.3163  -0.3125
    -0.3050  -0.1436  -0.1375  -0.1060   0.0590   0.2338   0.3752   0.4692
     2.6062   2.7218   2.8594   2.8748   3.0020   3.0315   3.1267   3.1543
     3.1641   3.1980   3.2000   3.2671   3.3152   3.3560   3.3790   3.3820
     3.4824   3.5874   3.6023   3.7549   3.7970   4.2458   4.2632   4.3607

          k = 0.0000 0.1778 0.0000 ( 97983 PWs)   bands (ev):

   -56.3258 -56.3253 -56.3166 -56.3094 -56.2954 -56.2942 -56.2738 -56.2737
   -55.8311 -55.8303 -32.6112 -32.6107 -32.5951 -32.5939 -32.5725 -32.5698
   -32.5635 -32.5626 -32.5253 -32.5155 -32.5053 -32.4995 -32.4920 -32.4840
   -32.4753 -32.4737 -32.4713 -32.4688 -32.4561 -32.4501 -32.4497 -32.4476
   -32.4290 -32.4285 -32.2251 -32.2245 -32.0900 -32.0894 -31.9337 -31.9331
   -17.3188 -17.2336 -17.1044 -16.9301 -16.6893 -16.4927 -16.3477 -16.2934
   -16.2362 -16.2344 -15.9859 -15.9788 -15.9316 -15.8941 -15.8485 -15.8213
   -15.7745 -15.7547 -15.3740 -15.3739  -4.8411  -4.6984  -4.5040  -4.4407
    -4.3408  -4.3100  -4.2134  -4.1488  -3.9665  -3.8471  -3.7295  -3.6580
    -3.5767  -3.4332  -3.3769  -3.3545  -3.3443  -3.3232  -3.2932  -3.2145
    -3.0997  -2.9334  -2.7128  -2.6998  -2.4659  -2.4129  -2.3178  -2.1633
    -2.1443  -2.0198  -1.9706  -1.9014  -1.8536  -1.8474  -1.7884  -1.6895
    -1.6756  -1.4556  -1.4453  -1.3939  -1.3812  -1.2351  -1.1383  -1.0856
    -1.0824  -0.9730  -0.8365  -0.8097  -0.8014  -0.5568  -0.3450  -0.3401
    -0.3103  -0.2574  -0.2341  -0.0680   0.0476   0.1906   0.3231   0.4210
     2.7671   2.8582   2.9537   2.9792   3.0587   3.0614   3.1265   3.1663
     3.2283   3.2793   3.2856   3.3174   3.3347   3.3902   3.4521   3.5137
     3.5666   3.6397   3.7038   3.7341   3.8912   3.9334   3.9759   4.3201

          k = 0.0000 0.3555 0.0000 ( 97871 PWs)   bands (ev):

   -56.3134 -56.3131 -56.3044 -56.2983 -56.2835 -56.2824 -56.2620 -56.2618
   -55.8185 -55.8178 -32.6205 -32.6192 -32.6128 -32.5970 -32.5957 -32.5951
   -32.5787 -32.5766 -32.5727 -32.5701 -32.5596 -32.5540 -32.5384 -32.5357
   -32.5252 -32.5229 -32.4915 -32.4893 -32.4825 -32.4803 -32.4758 -32.4730
   -32.4651 -32.4643 -32.2159 -32.2153 -32.1030 -32.1024 -32.0384 -32.0378
   -16.9900 -16.9206 -16.8153 -16.6725 -16.4842 -16.3287 -16.1788 -16.1160
   -16.0995 -16.0889 -16.0362 -16.0206 -16.0045 -15.9845 -15.9460 -15.9410
   -15.8998 -15.8857 -15.4416 -15.4413  -4.3853  -4.2794  -4.1312  -4.1079
    -3.9952  -3.9715  -3.8477  -3.8286  -3.7126  -3.6944  -3.6753  -3.6008
    -3.5614  -3.5486  -3.5412  -3.5022  -3.4966  -3.4893  -3.3778  -3.2071
    -3.0274  -3.0099  -2.6630  -2.6397  -2.5580  -2.5197  -2.5089  -2.4882
    -2.4349  -2.3299  -2.2322  -2.0937  -2.0892  -2.0648  -1.9523  -1.8704
    -1.7113  -1.6691  -1.6294  -1.4615  -1.4371  -1.3276  -1.3162  -1.1944
    -1.1719  -1.0395  -0.8923  -0.8360  -0.7528  -0.7307  -0.7195  -0.6411
    -0.5648  -0.5303  -0.4305  -0.1468  -0.0706   0.0453   0.1374   0.1961
     2.8224   2.8783   2.9793   3.0705   3.0941   3.1187   3.1363   3.2323
     3.2701   3.3793   3.4319   3.4972   3.5270   3.6170   3.6531   3.6856
     3.7849   3.8098   3.8749   3.9308   3.9338   3.9695   4.0904   4.1821

          k = 0.0000 0.5333 0.0000 ( 97858 PWs)   bands (ev):

   -56.2993 -56.2991 -56.2903 -56.2859 -56.2700 -56.2688 -56.2485 -56.2483
   -55.8041 -55.8034 -32.7624 -32.7617 -32.7524 -32.7424 -32.7383 -32.7379
   -32.7236 -32.7231 -32.5348 -32.5344 -32.5240 -32.5231 -32.5078 -32.5073
   -32.4937 -32.4928 -32.4797 -32.4780 -32.4731 -32.4722 -32.4700 -32.4679
   -32.4558 -32.4556 -32.2573 -32.2568 -32.1943 -32.1937 -32.0236 -32.0230
   -16.5710 -16.5411 -16.4962 -16.4358 -16.3983 -16.3539 -16.2609 -16.1739
   -16.0864 -16.0506 -16.0346 -16.0059 -15.9670 -15.9488 -15.9300 -15.9135
   -15.8471 -15.8460 -15.4459 -15.4451  -3.9230  -3.8814  -3.8563  -3.8485
    -3.8059  -3.7993  -3.7546  -3.7492  -3.6886  -3.6681  -3.6167  -3.6024
    -3.5514  -3.5455  -3.4723  -3.4388  -3.4347  -3.3973  -3.3243  -3.2703
    -3.0787  -3.0679  -3.0244  -2.9920  -2.8187  -2.7155  -2.7069  -2.6507
    -2.6156  -2.4426  -2.2281  -2.1101  -2.0931  -2.0756  -1.9511  -1.9173
    -1.7696  -1.6408  -1.5628  -1.4904  -1.4744  -1.4554  -1.3972  -1.1821
    -1.1537  -1.1024  -1.0441  -1.0005  -0.9682  -0.9013  -0.8702  -0.8179
    -0.6932  -0.6214  -0.5857  -0.3314  -0.2749  -0.2721  -0.2032  -0.1976
     2.7477   2.7501   2.8321   3.0020   3.0135   3.1770   3.3868   3.3890
     3.4719   3.4996   3.6259   3.6398   3.6618   3.7525   3.8328   3.8439
     3.8870   3.9460   4.0523   4.0580   4.1449   4.2135   4.2705   4.2914

          k = 0.0000 0.7110 0.0000 ( 97832 PWs)   bands (ev):

   -56.2900 -56.2900 -56.2807 -56.2783 -56.2611 -56.2600 -56.2397 -56.2395
   -55.7947 -55.7940 -32.8556 -32.8554 -32.8434 -32.8396 -32.8326 -32.8323
   -32.8188 -32.8184 -32.5026 -32.5013 -32.4978 -32.4971 -32.4898 -32.4894
   -32.4800 -32.4797 -32.4730 -32.4709 -32.4669 -32.4667 -32.4601 -32.4599
   -32.4522 -32.4517 -32.3488 -32.3483 -32.1920 -32.1914 -32.0051 -32.0044
   -16.4541 -16.4441 -16.4002 -16.3770 -16.3336 -16.2947 -16.2547 -16.1990
   -16.1865 -16.0723 -15.9819 -15.9758 -15.9251 -15.8906 -15.8476 -15.8104
   -15.7737 -15.7595 -15.3654 -15.3646  -4.2802  -4.2087  -4.1684  -4.0837
    -4.0024  -3.9304  -3.8418  -3.8042  -3.6053  -3.6011  -3.5076  -3.4866
    -3.4589  -3.3898  -3.3475  -3.3372  -3.3127  -3.2812  -3.2554  -3.2446
    -2.9154  -2.8657  -2.8381  -2.7735  -2.6982  -2.5693  -2.4788  -2.4050
    -2.2597  -2.1948  -2.1628  -2.1223  -2.1051  -2.0775  -2.0345  -2.0133
    -1.8935  -1.8703  -1.7977  -1.7575  -1.5604  -1.4263  -1.4079  -1.2065
    -1.2006  -1.1874  -1.0596  -1.0561  -0.9724  -0.9649  -0.8963  -0.8816
    -0.8617  -0.8551  -0.7012  -0.6631  -0.5470  -0.5163  -0.3527  -0.3105
     2.6400   2.7849   2.8312   3.0192   3.0904   3.2308   3.2876   3.3794
     3.6307   3.6669   3.7126   3.7523   3.7636   3.8018   3.8302   3.8791
     3.8826   3.8857   4.1345   4.1350   4.2623   4.3053   4.3344   4.3664

          k = 0.1667 0.0000 0.0000 ( 97933 PWs)   bands (ev):

   -56.3302 -56.3298 -56.3212 -56.3144 -56.3001 -56.2990 -56.2786 -56.2784
   -55.8360 -55.8353 -32.6261 -32.6256 -32.6085 -32.6073 -32.5836 -32.5824
   -32.5749 -32.5740 -32.5196 -32.5193 -32.5041 -32.4985 -32.4875 -32.4851
   -32.4771 -32.4768 -32.4233 -32.4219 -32.4100 -32.3977 -32.3967 -32.3962
   -32.3784 -32.3779 -32.2297 -32.2291 -32.0984 -32.0978 -31.8772 -31.8765
   -17.3599 -17.2836 -17.1676 -17.0112 -16.7928 -16.6138 -16.4757 -16.3983
   -16.3245 -16.3232 -15.9644 -15.9625 -15.8790 -15.8679 -15.8123 -15.7948
   -15.7422 -15.7091 -15.3461 -15.3460  -4.8970  -4.8532  -4.7536  -4.6161
    -4.4555  -4.4266  -4.3063  -4.2983  -3.9277  -3.8119  -3.7366  -3.6693
    -3.4729  -3.2018  -3.2015  -3.1475  -3.1408  -3.1346  -3.1112  -3.1009
    -3.0761  -3.0721  -2.7919  -2.7032  -2.7026  -2.4853  -2.4595  -2.4100
    -2.2414  -2.1592  -2.0082  -1.9958  -1.9814  -1.6901  -1.5606  -1.4993
    -1.2984  -1.2873  -1.2338  -1.2291  -1.1249  -1.0651  -1.0260  -0.9121
    -0.8808  -0.8320  -0.7668  -0.6401  -0.5757  -0.5235  -0.5198  -0.4780
    -0.4192  -0.4158  -0.2844  -0.2502  -0.0789   0.1165   0.2658   0.3623
     2.6594   2.6858   2.7924   2.8976   3.0365   3.0427   3.1406   3.1439
     3.1962   3.1974   3.2762   3.2940   3.3336   3.3524   3.4760   3.5079
     3.5960   3.6502   3.6908   3.7391   3.9274   4.2429   4.2584   4.2987

          k = 0.1667 0.1778 0.0000 ( 97914 PWs)   bands (ev):

   -56.3254 -56.3250 -56.3164 -56.3100 -56.2954 -56.2943 -56.2739 -56.2737
   -55.8311 -55.8304 -32.6135 -32.6129 -32.5966 -32.5958 -32.5733 -32.5714
   -32.5641 -32.5625 -32.5205 -32.5198 -32.5049 -32.4988 -32.4883 -32.4849
   -32.4739 -32.4738 -32.4696 -32.4681 -32.4563 -32.4500 -32.4495 -32.4480
   -32.4295 -32.4289 -32.2249 -32.2243 -32.0900 -32.0894 -31.9337 -31.9331
   -17.2402 -17.1677 -17.0570 -16.9073 -16.6982 -16.5259 -16.3903 -16.3172
   -16.2431 -16.2418 -16.0028 -16.0011 -15.9240 -15.9161 -15.8613 -15.8448
   -15.7941 -15.7626 -15.3779 -15.3778  -4.7355  -4.6991  -4.6036  -4.4704
    -4.3144  -4.2854  -4.1559  -4.1472  -3.8552  -3.7861  -3.7149  -3.6511
    -3.5688  -3.4779  -3.4147  -3.3550  -3.3250  -3.2984  -3.2263  -3.1874
    -3.0584  -2.8481  -2.7018  -2.6753  -2.4477  -2.3308  -2.3088  -2.2356
    -2.1112  -2.0339  -1.9168  -1.8637  -1.8538  -1.7279  -1.6849  -1.6806
    -1.6753  -1.5347  -1.5189  -1.3010  -1.2904  -1.1682  -1.1563  -1.1056
    -1.0924  -1.0061  -0.9369  -0.9051  -0.7727  -0.5654  -0.4762  -0.4651
    -0.4338  -0.3974  -0.3415  -0.2399  -0.1035   0.0554   0.1995   0.3042
     2.7925   2.8089   2.9060   3.0141   3.0829   3.1132   3.1375   3.2214
     3.2385   3.2671   3.3150   3.3158   3.3683   3.4110   3.5237   3.6195
     3.6411   3.6692   3.6862   3.8251   3.9151   3.9381   4.0120   4.3343

          k = 0.1667 0.3555 0.0000 ( 97844 PWs)   bands (ev):

   -56.3131 -56.3129 -56.3042 -56.2988 -56.2835 -56.2824 -56.2621 -56.2619
   -55.8185 -55.8178 -32.6192 -32.6189 -32.6123 -32.5973 -32.5964 -32.5960
   -32.5796 -32.5790 -32.5737 -32.5717 -32.5592 -32.5561 -32.5375 -32.5372
   -32.5250 -32.5238 -32.4908 -32.4897 -32.4821 -32.4800 -32.4740 -32.4719
   -32.4640 -32.4640 -32.2158 -32.2152 -32.1030 -32.1024 -32.0383 -32.0377
   -16.9257 -16.8656 -16.7736 -16.6484 -16.4823 -16.3460 -16.2155 -16.1255
   -16.0958 -16.0935 -16.0491 -16.0350 -16.0156 -16.0092 -15.9769 -15.9574
   -15.9158 -15.8925 -15.4443 -15.4439  -4.3263  -4.3067  -4.2235  -4.1118
    -3.9724  -3.9705  -3.8322  -3.8306  -3.7706  -3.7637  -3.7234  -3.7127
    -3.6162  -3.5877  -3.5623  -3.5225  -3.4542  -3.4210  -3.1351  -3.0581
    -2.9695  -2.8569  -2.7759  -2.7063  -2.5980  -2.5117  -2.4956  -2.4073
    -2.3536  -2.2256  -2.2186  -2.1078  -2.0358  -1.9897  -1.9665  -1.8049
    -1.7322  -1.6555  -1.5991  -1.4995  -1.4659  -1.3394  -1.3270  -1.1670
    -1.1305  -1.0398  -0.9449  -0.8743  -0.8046  -0.7437  -0.7010  -0.6495
    -0.5733  -0.5165  -0.4906  -0.2605  -0.1564  -0.0368   0.0564   0.1214
     2.8050   2.8731   2.9802   3.0653   3.0937   3.1782   3.1883   3.2771
     3.2977   3.4264   3.4654   3.4975   3.5318   3.5614   3.6440   3.6905
     3.7694   3.7944   3.9144   3.9163   3.9501   4.0292   4.1412   4.1726

          k = 0.1667 0.5333 0.0000 ( 97870 PWs)   bands (ev):

   -56.2991 -56.2990 -56.2901 -56.2862 -56.2700 -56.2688 -56.2485 -56.2483
   -55.8041 -55.8034 -32.7619 -32.7617 -32.7517 -32.7430 -32.7382 -32.7378
   -32.7239 -32.7235 -32.5363 -32.5358 -32.5252 -32.5237 -32.5083 -32.5077
   -32.4935 -32.4934 -32.4791 -32.4787 -32.4738 -32.4714 -32.4681 -32.4673
   -32.4554 -32.4554 -32.2574 -32.2568 -32.1942 -32.1936 -32.0237 -32.0231
   -16.5447 -16.5159 -16.4721 -16.4161 -16.3800 -16.3311 -16.2397 -16.1662
   -16.1084 -16.1013 -16.0525 -16.0415 -15.9805 -15.9498 -15.9277 -15.9232
   -15.8536 -15.8524 -15.4458 -15.4451  -3.9727  -3.9107  -3.8964  -3.8939
    -3.8775  -3.8215  -3.8056  -3.7585  -3.7117  -3.7074  -3.6488  -3.6365
    -3.6087  -3.5879  -3.5550  -3.4901  -3.4795  -3.4331  -3.3572  -3.3432
    -3.0974  -3.0932  -2.9103  -2.8523  -2.7013  -2.6245  -2.5964  -2.5459
    -2.5359  -2.3752  -2.2138  -2.1254  -2.0790  -1.9980  -1.9617  -1.8910
    -1.7653  -1.6388  -1.5520  -1.5006  -1.4811  -1.4329  -1.4283  -1.1294
    -1.1167  -1.0517  -1.0129  -1.0048  -0.9650  -0.9393  -0.8747  -0.7708
    -0.6616  -0.5989  -0.5402  -0.3043  -0.2744  -0.2542  -0.1954  -0.1836
     2.7536   2.7642   2.8103   3.0051   3.0143   3.2671   3.4365   3.4542
     3.5214   3.5350   3.6152   3.6335   3.7034   3.7354   3.7779   3.7872
     3.8616   3.8727   3.9683   3.9805   4.0844   4.1023   4.2157   4.2519

          k = 0.1667 0.7110 0.0000 ( 97852 PWs)   bands (ev):

   -56.2900 -56.2899 -56.2806 -56.2783 -56.2611 -56.2600 -56.2397 -56.2395
   -55.7947 -55.7940 -32.8554 -32.8553 -32.8432 -32.8398 -32.8327 -32.8323
   -32.8189 -32.8185 -32.5030 -32.5023 -32.4979 -32.4974 -32.4899 -32.4895
   -32.4799 -32.4797 -32.4729 -32.4708 -32.4674 -32.4672 -32.4597 -32.4595
   -32.4524 -32.4519 -32.3487 -32.3482 -32.1921 -32.1915 -32.0052 -32.0045
   -16.4531 -16.4511 -16.3928 -16.3862 -16.3214 -16.3197 -16.2487 -16.2133
   -16.1037 -16.0732 -16.0330 -15.9641 -15.9058 -15.9042 -15.8325 -15.8289
   -15.7697 -15.7672 -15.3622 -15.3615  -4.2743  -4.2537  -4.1611  -4.1411
    -4.0202  -3.9860  -3.8400  -3.8164  -3.6520  -3.6293  -3.5307  -3.5236
    -3.5090  -3.4821  -3.4770  -3.4002  -3.3955  -3.3741  -3.2991  -3.2715
    -3.1501  -3.0646  -2.9388  -2.7146  -2.5421  -2.5312  -2.3585  -2.3286
    -2.2073  -2.1789  -2.1156  -2.1062  -2.1029  -1.9833  -1.9295  -1.9195
    -1.8766  -1.8729  -1.7503  -1.6411  -1.4701  -1.3284  -1.2428  -1.1943
    -1.1516  -1.0644  -1.0541  -1.0014  -0.9687  -0.9514  -0.8741  -0.8701
    -0.7948  -0.7811  -0.6794  -0.6353  -0.4871  -0.4779  -0.3415  -0.2899
     2.7064   2.7698   2.9284   2.9447   3.1317   3.1698   3.2947   3.4753
     3.5825   3.6284   3.7161   3.7386   3.7711   3.8000   3.8249   3.8595
     3.8690   3.8772   4.0878   4.0981   4.1311   4.1327   4.2872   4.2885

          k = 0.3333 0.0000 0.0000 ( 97837 PWs)   bands (ev):

   -56.3293 -56.3292 -56.3204 -56.3160 -56.3002 -56.2990 -56.2788 -56.2786
   -55.8361 -55.8353 -32.6306 -32.6302 -32.6117 -32.6110 -32.5860 -32.5846
   -32.5756 -32.5748 -32.5193 -32.5177 -32.5004 -32.4990 -32.4846 -32.4839
   -32.4752 -32.4747 -32.4207 -32.4204 -32.4088 -32.4010 -32.3959 -32.3953
   -32.3801 -32.3795 -32.2292 -32.2286 -32.0982 -32.0976 -31.8772 -31.8766
   -17.1324 -17.0959 -17.0357 -16.9496 -16.8183 -16.7023 -16.6060 -16.5357
   -16.3950 -16.3939 -15.9800 -15.9779 -15.8927 -15.8720 -15.8276 -15.8011
   -15.7661 -15.7602 -15.3556 -15.3552  -4.8062  -4.8039  -4.7047  -4.6572
    -4.5529  -4.4474  -4.3026  -4.2692  -3.7478  -3.7458  -3.4002  -3.2902
    -3.2163  -3.2159  -3.1599  -3.1559  -3.1205  -3.1161  -3.1079  -3.0815
    -3.0729  -2.8544  -2.7099  -2.7094  -2.6022  -2.4452  -2.4145  -2.3506
    -2.2916  -2.2598  -2.0798  -1.9156  -1.7248  -1.6543  -1.5742  -1.4297
    -1.3520  -1.3239  -1.2366  -1.2229  -1.1523  -1.1368  -1.1366  -1.0237
    -0.9279  -0.9049  -0.8821  -0.8477  -0.7684  -0.7084  -0.6850  -0.6504
    -0.6209  -0.6195  -0.5572  -0.4226  -0.3181  -0.1647  -0.0448   0.0640
     2.6691   2.6785   2.8403   2.8433   2.9648   3.0464   3.1298   3.1575
     3.1914   3.2165   3.3079   3.4239   3.4782   3.5037   3.5957   3.6318
     3.7222   3.7994   3.8945   4.0115   4.1427   4.1723   4.1733   4.2471

          k = 0.3333 0.1778 0.0000 ( 97799 PWs)   bands (ev):

   -56.3246 -56.3245 -56.3156 -56.3115 -56.2955 -56.2943 -56.2741 -56.2739
   -55.8311 -55.8304 -32.6179 -32.6172 -32.5999 -32.5991 -32.5750 -32.5739
   -32.5644 -32.5635 -32.5195 -32.5189 -32.5015 -32.5002 -32.4864 -32.4836
   -32.4727 -32.4723 -32.4662 -32.4661 -32.4563 -32.4506 -32.4490 -32.4485
   -32.4305 -32.4300 -32.2246 -32.2240 -32.0899 -32.0893 -31.9337 -31.9331
   -17.0238 -16.9887 -16.9304 -16.8468 -16.7206 -16.6100 -16.5169 -16.4484
   -16.3088 -16.3077 -16.0174 -16.0153 -15.9392 -15.9180 -15.8761 -15.8498
   -15.8163 -15.8100 -15.3865 -15.3861  -4.6611  -4.6587  -4.5573  -4.5125
    -4.4037  -4.3030  -4.1513  -4.1159  -3.6988  -3.6970  -3.5749  -3.5738
    -3.5395  -3.5042  -3.4577  -3.4115  -3.3649  -3.3288  -3.0029  -2.9393
    -2.7910  -2.6975  -2.6744  -2.5231  -2.3395  -2.3097  -2.2266  -2.1693
    -2.0700  -2.0158  -1.9889  -1.9042  -1.8173  -1.7303  -1.6562  -1.6434
    -1.5719  -1.4792  -1.4475  -1.3890  -1.2748  -1.2030  -1.1761  -1.1066
    -1.0873  -1.0750  -1.0336  -1.0040  -0.8931  -0.8589  -0.7636  -0.7630
    -0.6863  -0.5528  -0.4894  -0.3924  -0.3342  -0.1986  -0.0615   0.0641
     2.7883   2.7960   2.9368   2.9383   3.0282   3.1361   3.2011   3.2396
     3.2830   3.3251   3.3730   3.4022   3.4871   3.4988   3.6111   3.6135
     3.7860   3.7995   3.8718   3.9228   3.9618   4.0360   4.1408   4.3338

          k = 0.3333 0.3555 0.0000 ( 97773 PWs)   bands (ev):

   -56.3126 -56.3125 -56.3035 -56.3000 -56.2836 -56.2824 -56.2621 -56.2620
   -55.8185 -55.8178 -32.6198 -32.6169 -32.6094 -32.6011 -32.5966 -32.5961
   -32.5832 -32.5803 -32.5755 -32.5744 -32.5617 -32.5583 -32.5388 -32.5379
   -32.5254 -32.5250 -32.4915 -32.4885 -32.4802 -32.4787 -32.4715 -32.4709
   -32.4624 -32.4623 -32.2158 -32.2152 -32.1031 -32.1024 -32.0380 -32.0374
   -16.7488 -16.7168 -16.6633 -16.5870 -16.4832 -16.3974 -16.3181 -16.2555
   -16.1630 -16.1612 -16.0487 -16.0468 -16.0341 -16.0150 -15.9842 -15.9609
   -15.9341 -15.9264 -15.4498 -15.4492  -4.2955  -4.2905  -4.1903  -4.1648
    -4.0591  -3.9726  -3.8526  -3.8488  -3.8151  -3.7985  -3.7610  -3.7374
    -3.6869  -3.6748  -3.5824  -3.5758  -3.5564  -3.5027  -2.9162  -2.9094
    -2.7461  -2.6986  -2.5946  -2.5638  -2.4861  -2.4514  -2.4274  -2.4014
    -2.3057  -2.2066  -2.1122  -2.0538  -1.9344  -1.8784  -1.8310  -1.8097
    -1.7434  -1.6583  -1.6051  -1.4847  -1.4310  -1.3736  -1.3195  -1.1640
    -1.1379  -1.0313  -0.9938  -0.9462  -0.8989  -0.8666  -0.7766  -0.7232
    -0.5980  -0.5806  -0.4908  -0.4605  -0.3676  -0.2318  -0.1342  -0.0670
     2.9400   2.9566   2.9930   3.0562   3.0986   3.2804   3.2859   3.3090
     3.3511   3.3905   3.4494   3.4603   3.5170   3.5752   3.7073   3.7150
     3.8215   3.8227   3.9887   4.0159   4.0379   4.0414   4.1165   4.1361

          k = 0.3333 0.5333 0.0000 ( 97835 PWs)   bands (ev):

   -56.2989 -56.2989 -56.2897 -56.2869 -56.2700 -56.2688 -56.2486 -56.2484
   -55.8041 -55.8034 -32.7619 -32.7612 -32.7497 -32.7449 -32.7380 -32.7377
   -32.7243 -32.7239 -32.5389 -32.5385 -32.5275 -32.5255 -32.5095 -32.5082
   -32.4940 -32.4934 -32.4803 -32.4773 -32.4716 -32.4709 -32.4672 -32.4669
   -32.4546 -32.4545 -32.2575 -32.2569 -32.1941 -32.1935 -32.0238 -32.0231
   -16.4739 -16.4511 -16.4141 -16.3704 -16.3321 -16.2717 -16.2401 -16.2183
   -16.1518 -16.1451 -16.0772 -16.0606 -16.0206 -15.9945 -15.9541 -15.9328
   -15.8708 -15.8691 -15.4457 -15.4449  -4.0303  -4.0134  -3.9864  -3.9796
    -3.9478  -3.9095  -3.8662  -3.8543  -3.8249  -3.7608  -3.7540  -3.7272
    -3.6509  -3.6445  -3.6321  -3.5715  -3.4586  -3.4315  -3.3929  -3.3635
    -3.0669  -3.0425  -2.9299  -2.6746  -2.6120  -2.5921  -2.5427  -2.5191
    -2.2794  -2.2383  -2.0906  -2.0141  -1.9579  -1.9279  -1.8818  -1.7890
    -1.7598  -1.7260  -1.6085  -1.4909  -1.4201  -1.3725  -1.2671  -1.1887
    -1.1576  -1.0691  -0.9833  -0.9721  -0.8630  -0.8469  -0.7443  -0.6732
    -0.6095  -0.5475  -0.4683  -0.3271  -0.3125  -0.2878  -0.2387  -0.2330
     2.7489   2.8332   2.9599   3.0943   3.1248   3.3728   3.4452   3.4505
     3.5036   3.5056   3.5804   3.5999   3.6494   3.6818   3.7016   3.7228
     3.8133   3.8330   3.9038   3.9777   4.0518   4.0566   4.1396   4.1893

          k = 0.3333 0.7110 0.0000 ( 97930 PWs)   bands (ev):

   -56.2900 -56.2899 -56.2805 -56.2784 -56.2611 -56.2599 -56.2397 -56.2394
   -55.7947 -55.7940 -32.8554 -32.8552 -32.8426 -32.8402 -32.8326 -32.8323
   -32.8188 -32.8185 -32.5044 -32.5032 -32.5000 -32.4973 -32.4902 -32.4898
   -32.4798 -32.4793 -32.4726 -32.4707 -32.4673 -32.4670 -32.4603 -32.4602
   -32.4525 -32.4519 -32.3485 -32.3480 -32.1923 -32.1916 -32.0054 -32.0048
   -16.4558 -16.4545 -16.3935 -16.3807 -16.3276 -16.3117 -16.2506 -16.2413
   -16.0580 -16.0443 -15.9937 -15.9623 -15.9269 -15.9046 -15.8535 -15.8277
   -15.7797 -15.7775 -15.3561 -15.3556  -4.2826  -4.2805  -4.2181  -4.2035
    -4.1074  -4.0887  -3.9861  -3.9584  -3.8697  -3.8457  -3.6845  -3.6141
    -3.5738  -3.5164  -3.4758  -3.4722  -3.4176  -3.3583  -3.3045  -3.2983
    -3.1150  -3.0713  -2.9297  -2.7696  -2.6294  -2.5571  -2.3727  -2.3001
    -2.1853  -2.1711  -2.1291  -2.0841  -2.0702  -1.9949  -1.9809  -1.9419
    -1.8640  -1.7971  -1.4145  -1.4100  -1.2800  -1.2334  -1.1159  -1.0833
    -1.0028  -0.9763  -0.9175  -0.8959  -0.8661  -0.8120  -0.7751  -0.7107
    -0.6748  -0.6276  -0.5342  -0.5116  -0.3995  -0.3625  -0.3097  -0.2514
     2.7338   2.7691   2.8651   3.0042   3.1073   3.1391   3.3147   3.3379
     3.6035   3.6158   3.7672   3.7676   3.7818   3.7896   3.8167   3.8273
     3.8355   3.8693   3.9642   3.9862   4.0789   4.0860   4.1958   4.2063

          k =-0.5000 0.0000 0.0000 ( 97808 PWs)   bands (ev):

   -56.3289 -56.3289 -56.3194 -56.3175 -56.3002 -56.2990 -56.2788 -56.2787
   -55.8361 -55.8353 -32.6327 -32.6324 -32.6133 -32.6127 -32.5864 -32.5864
   -32.5756 -32.5755 -32.5182 -32.5181 -32.4993 -32.4988 -32.4832 -32.4830
   -32.4740 -32.4740 -32.4194 -32.4194 -32.4066 -32.4047 -32.3953 -32.3947
   -32.3811 -32.3804 -32.2290 -32.2284 -32.0981 -32.0975 -31.8773 -31.8766
   -16.9187 -16.9175 -16.8447 -16.8444 -16.8226 -16.8201 -16.7976 -16.7949
   -16.4543 -16.4529 -15.9715 -15.9695 -15.8608 -15.8599 -15.8299 -15.8284
   -15.7930 -15.7908 -15.3606 -15.3601  -4.7963  -4.7959  -4.6675  -4.6668
    -4.4951  -4.4934  -4.3246  -4.3233  -3.7449  -3.7439  -3.2240  -3.2239
    -3.1681  -3.1658  -3.1247  -3.1219  -3.0824  -3.0792  -2.7134  -2.7124
    -2.7120  -2.7115  -2.6468  -2.6453  -2.5635  -2.5626  -2.4398  -2.4392
    -2.2997  -2.2967  -2.2452  -2.2449  -1.9263  -1.9245  -1.6008  -1.5983
    -1.3456  -1.3450  -1.2647  -1.2639  -1.2002  -1.1974  -0.9799  -0.9757
    -0.9699  -0.9682  -0.8803  -0.8781  -0.7803  -0.7782  -0.6598  -0.6595
    -0.6109  -0.6080  -0.5062  -0.5057  -0.4279  -0.4264  -0.2691  -0.2672
     2.6643   2.6645   2.8486   2.8494   3.0123   3.0130   3.1033   3.1037
     3.2475   3.2476   3.3745   3.3758   3.5137   3.5149   3.6020   3.6021
     4.0946   4.0961   4.1022   4.1037   4.1879   4.1885   4.2452   4.2469

          k =-0.5000 0.1778 0.0000 ( 97758 PWs)   bands (ev):

   -56.3242 -56.3242 -56.3147 -56.3128 -56.2955 -56.2943 -56.2741 -56.2739
   -55.8311 -55.8304 -32.6197 -32.6195 -32.6014 -32.6008 -32.5755 -32.5755
   -32.5644 -32.5642 -32.5189 -32.5188 -32.5006 -32.5000 -32.4843 -32.4841
   -32.4720 -32.4719 -32.4649 -32.4647 -32.4548 -32.4532 -32.4483 -32.4479
   -32.4312 -32.4306 -32.2244 -32.2238 -32.0898 -32.0892 -31.9337 -31.9331
   -16.8206 -16.8194 -16.7456 -16.7451 -16.7247 -16.7221 -16.7018 -16.6992
   -16.3684 -16.3671 -16.0051 -16.0031 -15.9058 -15.9051 -15.8775 -15.8760
   -15.8418 -15.8395 -15.3910 -15.3904  -4.6523  -4.6520  -4.5234  -4.5226
    -4.3486  -4.3468  -4.1715  -4.1702  -3.6886  -3.6872  -3.5266  -3.5259
    -3.4837  -3.4812  -3.4284  -3.4271  -3.3694  -3.3674  -2.7085  -2.7078
    -2.6281  -2.6261  -2.4674  -2.4671  -2.3249  -2.3233  -2.1552  -2.1531
    -2.1190  -2.1178  -1.9240  -1.9221  -1.8464  -1.8428  -1.5882  -1.5861
    -1.4916  -1.4904  -1.3919  -1.3910  -1.3369  -1.3350  -1.2678  -1.2655
    -1.1957  -1.1948  -1.0999  -1.0996  -1.0344  -1.0340  -0.8392  -0.8358
    -0.6199  -0.6185  -0.4452  -0.4440  -0.3077  -0.3070  -0.1912  -0.1900
     2.7807   2.7810   2.9352   2.9361   3.0860   3.0871   3.1817   3.1817
     3.3418   3.3422   3.4410   3.4418   3.5186   3.5204   3.6351   3.6356
     3.8572   3.8578   4.1500   4.1507   4.1812   4.1825   4.2177   4.2185

          k =-0.5000 0.3555 0.0000 ( 97706 PWs)   bands (ev):

   -56.3124 -56.3123 -56.3029 -56.3009 -56.2836 -56.2824 -56.2622 -56.2620
   -55.8185 -55.8178 -32.6182 -32.6182 -32.6061 -32.6046 -32.5973 -32.5970
   -32.5819 -32.5818 -32.5758 -32.5756 -32.5612 -32.5608 -32.5401 -32.5398
   -32.5254 -32.5253 -32.4892 -32.4891 -32.4794 -32.4789 -32.4704 -32.4702
   -32.4615 -32.4615 -32.2157 -32.2151 -32.1031 -32.1025 -32.0379 -32.0373
   -16.5733 -16.5720 -16.5034 -16.5015 -16.4902 -16.4869 -16.4731 -16.4711
   -16.2231 -16.2213 -16.0326 -16.0311 -16.0012 -16.0002 -15.9860 -15.9839
   -15.9528 -15.9506 -15.4526 -15.4519  -4.2899  -4.2895  -4.1684  -4.1677
    -4.0019  -3.9997  -3.8635  -3.8628  -3.8263  -3.8256  -3.7991  -3.7984
    -3.7150  -3.7141  -3.6142  -3.6130  -3.5437  -3.5423  -2.9579  -2.9559
    -2.6917  -2.6907  -2.4830  -2.4829  -2.4198  -2.4185  -2.2125  -2.2115
    -2.0740  -2.0731  -2.0271  -2.0261  -1.9486  -1.9474  -1.7682  -1.7672
    -1.6039  -1.6021  -1.5268  -1.5249  -1.4387  -1.4378  -1.3390  -1.3388
    -1.2588  -1.2565  -1.0742  -1.0724  -0.8975  -0.8967  -0.7780  -0.7772
    -0.5927  -0.5904  -0.4617  -0.4609  -0.3606  -0.3596  -0.2603  -0.2594
     3.0132   3.0135   3.1393   3.1413   3.1919   3.1932   3.2281   3.2291
     3.2915   3.2920   3.5128   3.5141   3.6096   3.6128   3.7386   3.7401
     3.9122   3.9142   4.0203   4.0208   4.0575   4.0589   4.0994   4.1000

          k =-0.5000 0.5333 0.0000 ( 97802 PWs)   bands (ev):

   -56.2988 -56.2988 -56.2893 -56.2874 -56.2700 -56.2688 -56.2486 -56.2484
   -55.8041 -55.8034 -32.7615 -32.7615 -32.7483 -32.7464 -32.7379 -32.7375
   -32.7243 -32.7239 -32.5400 -32.5399 -32.5276 -32.5272 -32.5098 -32.5097
   -32.4935 -32.4934 -32.4785 -32.4782 -32.4715 -32.4709 -32.4668 -32.4665
   -32.4541 -32.4539 -32.2575 -32.2569 -32.1940 -32.1934 -32.0238 -32.0232
   -16.4048 -16.4039 -16.3531 -16.3515 -16.3102 -16.3090 -16.2548 -16.2545
   -16.1591 -16.1579 -16.0771 -16.0769 -16.0172 -16.0168 -15.9686 -15.9670
   -15.8817 -15.8798 -15.4456 -15.4448  -4.0405  -4.0389  -4.0171  -4.0156
    -3.9648  -3.9640  -3.8986  -3.8969  -3.8707  -3.8695  -3.7780  -3.7767
    -3.6837  -3.6833  -3.6146  -3.6138  -3.5218  -3.5198  -3.3524  -3.3507
    -2.8285  -2.8283  -2.7887  -2.7875  -2.7252  -2.7232  -2.5820  -2.5814
    -2.1305  -2.1290  -2.0320  -2.0314  -1.9099  -1.9089  -1.7843  -1.7833
    -1.7068  -1.7055  -1.5420  -1.5405  -1.3326  -1.3319  -1.2551  -1.2529
    -1.1137  -1.1120  -0.9600  -0.9590  -0.7424  -0.7416  -0.5294  -0.5292
    -0.4925  -0.4921  -0.4594  -0.4584  -0.4338  -0.4318  -0.3466  -0.3459
     2.9683   2.9688   3.0759   3.0764   3.2084   3.2091   3.3410   3.3419
     3.3838   3.3846   3.5963   3.5977   3.6919   3.6933   3.7890   3.7901
     3.8592   3.8604   3.9192   3.9207   3.9988   3.9996   4.1160   4.1178

          k =-0.5000 0.7110 0.0000 ( 97912 PWs)   bands (ev):

   -56.2900 -56.2899 -56.2804 -56.2785 -56.2611 -56.2599 -56.2396 -56.2394
   -55.7947 -55.7940 -32.8555 -32.8554 -32.8424 -32.8404 -32.8325 -32.8322
   -32.8188 -32.8184 -32.5046 -32.5045 -32.4993 -32.4989 -32.4903 -32.4901
   -32.4793 -32.4792 -32.4724 -32.4706 -32.4664 -32.4659 -32.4617 -32.4617
   -32.4523 -32.4517 -32.3484 -32.3479 -32.1923 -32.1917 -32.0055 -32.0049
   -16.4560 -16.4549 -16.3826 -16.3807 -16.3235 -16.3223 -16.2586 -16.2563
   -16.0355 -16.0342 -15.9639 -15.9619 -15.9130 -15.9122 -15.8492 -15.8484
   -15.7900 -15.7879 -15.3532 -15.3527  -4.2740  -4.2728  -4.2382  -4.2376
    -4.1766  -4.1758  -4.0766  -4.0752  -3.9412  -3.9409  -3.7348  -3.7346
    -3.5677  -3.5659  -3.4459  -3.4435  -3.3844  -3.3827  -3.3018  -3.2982
    -2.8802  -2.8800  -2.8120  -2.8113  -2.6946  -2.6941  -2.5844  -2.5834
    -2.1505  -2.1494  -2.0531  -2.0528  -2.0016  -2.0009  -1.9524  -1.9516
    -1.8639  -1.8637  -1.4015  -1.4006  -1.2271  -1.2257  -1.0715  -1.0702
    -0.9312  -0.9290  -0.7902  -0.7882  -0.7501  -0.7499  -0.6059  -0.6045
    -0.5289  -0.5272  -0.4222  -0.4210  -0.3580  -0.3577  -0.2713  -0.2708
     2.7244   2.7250   2.8845   2.8848   3.0808   3.0812   3.2896   3.2907
     3.6951   3.6958   3.7577   3.7581   3.8097   3.8098   3.8297   3.8318
     3.8552   3.8557   3.9487   3.9492   4.0564   4.0574   4.1643   4.1652

     the Fermi energy is     1.5248 ev

!    total energy              =   -1796.56625495 Ry
     estimated scf accuracy    <       0.00000011 Ry
     smearing contrib. (-TS)   =      -0.00000000 Ry
     internal energy E=F+TS    =   -1796.56625495 Ry

     The total energy is F=E-TS. E is the sum of the following terms:
     one-electron contribution =  -55138.54227447 Ry
     hartree contribution      =   27607.08691932 Ry
     xc contribution           =    -283.42767037 Ry
     ewald contribution        =   26018.31677058 Ry

     convergence has been achieved in  17 iterations

     Forces acting on atoms (cartesian axes, Ry/au):

     atom    1 type  1   force =     0.00044771    0.00000000   -0.00002298
     atom    2 type  1   force =    -0.00030752    0.00000000   -0.00042018
     atom    3 type  1   force =     0.00033727    0.00000000    0.00022900
     atom    4 type  1   force =     0.00049757    0.00000000   -0.00049373
     atom    5 type  1   force =    -0.00007472    0.00000000   -0.00025603
     atom    6 type  1   force =     0.00000428    0.00000000    0.00005401
     atom    7 type  1   force =     0.00058090    0.00000000    0.00034676
     atom    8 type  1   force =     0.00035990    0.00000000   -0.00008032
     atom    9 type  1   force =    -0.00032968    0.00000000    0.00044371
     atom   10 type  1   force =     0.00055121    0.00000000    0.00014018
     atom   11 type  2   force =     0.00014979    0.00000000    0.00029471
     atom   12 type  2   force =     0.00017465    0.00000000   -0.00027607
     atom   13 type  2   force =    -0.00037619    0.00000000   -0.00022522
     atom   14 type  2   force =     0.00040235    0.00000000    0.00023408
     atom   15 type  2   force =    -0.00000192    0.00000000   -0.00012227
     atom   16 type  2   force =    -0.00040071    0.00000000   -0.00034561
     atom   17 type  2   force =    -0.00055642    0.00000000   -0.00037922
     atom   18 type  2   force =     0.00045779    0.00000000    0.00032342
     atom   19 type  2   force =    -0.00061037    0.00000000   -0.00005597
     atom   20 type  2   force =    -0.00016917    0.00000000    0.00034447
     atom   21 type  2   force =     0.00063691    0.00000000   -0.00044189
     atom   22 type  2   force =    -0.00042497    0.00000000    0.00029288
     atom   23 type  2   force =    -0.00013654    0.00000000   -0.00046019
     atom   24 type  2   force =    -0.00051766    0.00000000   -0.00010653
     atom   25 type  2   force =    -0.00014037    0.00000000    0.00043973
     atom   26 type  2   force =    -0.00072266    0.00000000    0.00000064
     atom   27 type  2   force =    -0.00039579    0.00000000    0.00036637
     atom   28 type  2   force =     0.00038949    0.00000000   -0.00010367
     atom   29 type  2   force =     0.00000944    0.00000000    0.00005191
     atom   30 type  2   force =     0.00016545    0.00000000    0.00022801

     Total force =     0.002699     Total SCF correction =     0.001517
     SCF correction compared to forces is large: reduce conv_thr to get better values


     Computing stress (Cartesian axis) and pressure

          total   stress  (Ry/bohr**3)                   (kbar)     P=        0.43
  -0.00000032   0.00000000   0.00000060           -0.05        0.00        0.09
   0.00000000  -0.00000005   0.00000000            0.00       -0.01        0.00
   0.00000060   0.00000000   0.00000920            0.09        0.00        1.35


     BFGS Geometry Optimization
     Energy error            =      0.0E+00 Ry
     Gradient error          =      7.2E-04 Ry/Bohr
     Cell gradient error     =      4.7E-02 kbar

     bfgs converged in   1 scf cycles and   0 bfgs steps
     (criteria: energy <  1.0E-04 Ry, force <  1.0E-03 Ry/Bohr, cell <  5.0E-01 kbar)

     End of BFGS Geometry Optimization

     Final enthalpy           =   -1796.5662549482 Ry
Begin final coordinates
     new unit-cell volume =   4407.97719 a.u.^3 (   653.19483 Ang^3 )
     density =      2.03031 g/cm^3

CELL_PARAMETERS (angstrom)
   4.732199496   0.000000000   0.000000000
   0.000000000   2.957907197   0.000000000
   0.000000000   0.000000000  46.665416718

ATOMIC_POSITIONS (angstrom)
Ti               0.1626246691        0.0000000000       14.6071520272
Ti               2.4873903138        1.4789535108       16.8388827495
Ti               0.0998267484        0.0000000000       19.2037208081
Ti               2.4574386012        1.4789535108       21.4653196590
Ti               0.0870352791        0.0000000000       23.8008600396
Ti               2.4519220448        1.4789535108       26.0604870700
Ti               0.0895469231        0.0000000000       28.3952842108
Ti               2.4646483006        1.4789535108       30.6558762029
Ti               0.1201775754        0.0000000000       33.0175386761
Ti               2.5272767751        1.4789535108       35.2499071329
O                0.6177217028        1.4789535988       13.6023432084
O                1.4255885857        0.0000000000       15.9438872396
O                3.2530714170        0.0000000000       17.7692797787
O                0.8706787677        1.4789535988       18.2642825503
O                3.6928775186        1.4789535988       15.4270796325
O                1.4613631581        0.0000000000       20.5595649095
O                3.2530834562        0.0000000000       22.3996743608
O                0.8841338898        1.4789535988       22.8664337216
O                3.8205352248        1.4789535988       20.1057972904
O                1.4644328498        0.0000000000       25.1515267858
O                3.2446278618        0.0000000000       26.9988296026
O                0.8802325807        1.4789535988       27.4564838000
O                3.8294242641        1.4789535988       24.7085276096
O                1.4549037311        0.0000000000       29.7529217274
O                3.2363386494        0.0000000000       31.5948147928
O                0.8854905076        1.4789535988       32.0861268820
O                3.8287860106        1.4789535988       29.3036118437
O                1.3279113587        0.0000000000       34.4267485825
O                2.9794289560        0.0000000000       36.2559964617
O                3.7939717516        1.4789535988       33.9167303343
End final coordinates



     Writing config-only to output data dir ./Out/pwscf.save/

     Final scf calculation at the relaxed structure.
     The G-vectors are recalculated for the final unit cell
     Results may differ from those at the preceding step.
 
     G-vector sticks info
     --------------------
     sticks:   dense  smooth     PW     G-vecs:    dense   smooth      PW
     Sum        1909    1909    537               782927   782927  115337
 
     Using Slab Decomposition
 


     bravais-lattice index     =            0
     lattice parameter (alat)  =       8.9426  a.u.
     unit-cell volume          =    4407.9772 (a.u.)^3
     number of atoms/cell      =           30
     number of atomic types    =            2
     number of electrons       =       240.00
     number of Kohn-Sham states=          144
     kinetic-energy cutoff     =     120.0000  Ry
     charge density cutoff     =     480.0000  Ry
     scf convergence threshold =      1.0E-06
     mixing beta               =       0.4000
     number of iterations used =           20  plain     mixing
     press convergence thresh. =      5.0E-01
     Exchange-correlation= PBE
                           (   1   4   3   4   0   0   0)

     GPU acceleration is ACTIVE.


     celldm(1)=   8.942561  celldm(2)=   0.000000  celldm(3)=   0.000000
     celldm(4)=   0.000000  celldm(5)=   0.000000  celldm(6)=   0.000000

     crystal axes: (cart. coord. in units of alat)
               a(1) = (   1.000000   0.000000   0.000000 )  
               a(2) = (   0.000000   0.625060   0.000000 )  
               a(3) = (   0.000000   0.000000   9.861253 )  

     reciprocal axes: (cart. coord. in units 2 pi/alat)
               b(1) = (  1.000000  0.000000  0.000000 )  
               b(2) = (  0.000000  1.599847  0.000000 )  
               b(3) = (  0.000000  0.000000  0.101407 )  


     PseudoPot. # 1 for Ti read from file:
     /cm/shared/apps/KO/pseudo/sg15/Ti_ONCV_PBE-1.2.upf
     MD5 check sum: 1aea57736bd12dcfee93c97d0b9b5968
     Pseudo is Norm-conserving, Zval = 12.0
     Generated using ONCVPSP code by D. R. Hamann
     Using radial grid of  602 points,  6 beta functions with: 
                l(1) =   0
                l(2) =   0
                l(3) =   1
                l(4) =   1
                l(5) =   2
                l(6) =   2

     PseudoPot. # 2 for O  read from file:
     /cm/shared/apps/KO/pseudo/sg15/O_ONCV_PBE-1.2.upf
     MD5 check sum: e36c48deb68f4e355fffe4602be2c42c
     Pseudo is Norm-conserving, Zval =  6.0
     Generated using ONCVPSP code by D. R. Hamann
     Using radial grid of  602 points,  4 beta functions with: 
                l(1) =   0
                l(2) =   0
                l(3) =   1
                l(4) =   1

     atomic species   valence    mass     pseudopotential
     Ti               12.00    47.86700     Ti( 1.00)
     O                 6.00    15.99900     O ( 1.00)

      2 Sym. Ops. (no inversion) found



   Cartesian axes

     site n.     atom                  positions (alat units)
         1        Ti     tau(   1) = (   0.0343656   0.0000000   3.0867574  )
         2        Ti     tau(   2) = (   0.5256309   0.3125298   3.5583628  )
         3        Ti     tau(   3) = (   0.0210952   0.0000000   4.0580962  )
         4        Ti     tau(   4) = (   0.5193016   0.3125298   4.5360133  )
         5        Ti     tau(   5) = (   0.0183921   0.0000000   5.0295555  )
         6        Ti     tau(   6) = (   0.5181358   0.3125298   5.5070559  )
         7        Ti     tau(   7) = (   0.0189229   0.0000000   6.0004411  )
         8        Ti     tau(   8) = (   0.5208251   0.3125298   6.4781454  )
         9        Ti     tau(   9) = (   0.0253957   0.0000000   6.9772077  )
        10        Ti     tau(  10) = (   0.5340596   0.3125298   7.4489478  )
        11        O      tau(  11) = (   0.1305359   0.3125299   2.8744230  )
        12        O      tau(  12) = (   0.3012529   0.0000000   3.3692340  )
        13        O      tau(  13) = (   0.6874333   0.0000000   3.7549727  )
        14        O      tau(  14) = (   0.1839903   0.3125299   3.8595758  )
        15        O      tau(  15) = (   0.7803723   0.3125299   3.2600231  )
        16        O      tau(  16) = (   0.3088127   0.0000000   4.3446108  )
        17        O      tau(  17) = (   0.6874358   0.0000000   4.7334594  )
        18        O      tau(  18) = (   0.1868336   0.3125299   4.8320942  )
        19        O      tau(  19) = (   0.8073487   0.3125299   4.2487214  )
        20        O      tau(  20) = (   0.3094614   0.0000000   5.3149760  )
        21        O      tau(  21) = (   0.6856490   0.0000000   5.7053448  )
        22        O      tau(  22) = (   0.1860092   0.3125299   5.8020554  )
        23        O      tau(  23) = (   0.8092271   0.3125299   5.2213622  )
        24        O      tau(  24) = (   0.3074477   0.0000000   6.2873346  )
        25        O      tau(  25) = (   0.6838973   0.0000000   6.6765602  )
        26        O      tau(  26) = (   0.1871203   0.3125299   6.7803834  )
        27        O      tau(  27) = (   0.8090923   0.3125299   6.1923873  )
        28        O      tau(  28) = (   0.2806119   0.0000000   7.2749994  )
        29        O      tau(  29) = (   0.6296076   0.0000000   7.6615528  )
        30        O      tau(  30) = (   0.8017354   0.3125299   7.1672233  )

     number of k points=    20  Gaussian smearing, width (Ry)=  0.0200
                       cart. coord. in units 2pi/alat
        k(    1) = (   0.0000000   0.0000000   0.0000000), wk =   0.0370370
        k(    2) = (   0.0000000   0.1777608   0.0000000), wk =   0.0740741
        k(    3) = (   0.0000000   0.3555216   0.0000000), wk =   0.0740741
        k(    4) = (   0.0000000   0.5332824   0.0000000), wk =   0.0740741
        k(    5) = (   0.0000000   0.7110432   0.0000000), wk =   0.0740741
        k(    6) = (   0.1666667   0.0000000   0.0000000), wk =   0.0740741
        k(    7) = (   0.1666667   0.1777608   0.0000000), wk =   0.1481481
        k(    8) = (   0.1666667   0.3555216   0.0000000), wk =   0.1481481
        k(    9) = (   0.1666667   0.5332824   0.0000000), wk =   0.1481481
        k(   10) = (   0.1666667   0.7110432   0.0000000), wk =   0.1481481
        k(   11) = (   0.3333333   0.0000000   0.0000000), wk =   0.0740741
        k(   12) = (   0.3333333   0.1777608   0.0000000), wk =   0.1481481
        k(   13) = (   0.3333333   0.3555216   0.0000000), wk =   0.1481481
        k(   14) = (   0.3333333   0.5332824   0.0000000), wk =   0.1481481
        k(   15) = (   0.3333333   0.7110432   0.0000000), wk =   0.1481481
        k(   16) = (  -0.5000000   0.0000000   0.0000000), wk =   0.0370370
        k(   17) = (  -0.5000000   0.1777608   0.0000000), wk =   0.0740741
        k(   18) = (  -0.5000000   0.3555216   0.0000000), wk =   0.0740741
        k(   19) = (  -0.5000000   0.5332824   0.0000000), wk =   0.0740741
        k(   20) = (  -0.5000000   0.7110432   0.0000000), wk =   0.0740741

     Dense  grid:   782927 G-vectors     FFT dimensions: (  64,  40, 625)

     Estimated max dynamical RAM per process >       6.50 GB

     Initial potential from superposition of free atoms

     starting charge     238.8836, renormalised to     240.0000

     negative rho (up, down):  7.398E-04 0.000E+00
     Starting wfcs are random

     total cpu time spent up to now is      177.9 secs

     per-process dynamical memory:  1037.3 Mb

     Self-consistent Calculation

     iteration #  1     ecut=   120.00 Ry     beta= 0.40
     Davidson diagonalization with overlap
     c_bands:  1 eigenvalues not converged
     c_bands:  1 eigenvalues not converged
     c_bands:  3 eigenvalues not converged
     c_bands:  1 eigenvalues not converged
     c_bands:  1 eigenvalues not converged
     c_bands:  1 eigenvalues not converged
     c_bands:  1 eigenvalues not converged
     c_bands:  1 eigenvalues not converged
     c_bands:  1 eigenvalues not converged
     c_bands:  2 eigenvalues not converged
     c_bands:  4 eigenvalues not converged
     c_bands:  5 eigenvalues not converged
     c_bands:  5 eigenvalues not converged
     c_bands:  2 eigenvalues not converged
     c_bands:  1 eigenvalues not converged
     c_bands:  1 eigenvalues not converged
     ethr =  1.00E-06,  avg # of iterations = 59.8

     negative rho (up, down):  4.179E-04 0.000E+00

     total cpu time spent up to now is      228.0 secs

     total energy              =   -1792.53627222 Ry
     estimated scf accuracy    <      13.47660990 Ry

     iteration #  2     ecut=   120.00 Ry     beta= 0.40
     Davidson diagonalization with overlap
     ethr =  5.62E-03,  avg # of iterations =  4.0

     negative rho (up, down):  2.942E-04 0.000E+00

     total cpu time spent up to now is      235.4 secs

     total energy              =   -1794.78306106 Ry
     estimated scf accuracy    <       6.49422060 Ry

     iteration #  3     ecut=   120.00 Ry     beta= 0.40
     Davidson diagonalization with overlap
     ethr =  2.71E-03,  avg # of iterations = 10.1

     negative rho (up, down):  2.791E-04 0.000E+00

     total cpu time spent up to now is      243.8 secs

     total energy              =   -1791.56693207 Ry
     estimated scf accuracy    <     282.82956316 Ry

     iteration #  4     ecut=   120.00 Ry     beta= 0.40
     Davidson diagonalization with overlap
     ethr =  2.71E-03,  avg # of iterations =  3.4

     negative rho (up, down):  2.067E-04 0.000E+00

     total cpu time spent up to now is      250.3 secs

     total energy              =   -1796.48613313 Ry
     estimated scf accuracy    <       0.68317379 Ry

     iteration #  5     ecut=   120.00 Ry     beta= 0.40
     Davidson diagonalization with overlap
     c_bands:  2 eigenvalues not converged
     c_bands:  3 eigenvalues not converged
     c_bands:  1 eigenvalues not converged
     c_bands:  4 eigenvalues not converged
     c_bands:  2 eigenvalues not converged
     c_bands:  1 eigenvalues not converged
     c_bands:  4 eigenvalues not converged
     ethr =  2.85E-04,  avg # of iterations = 15.3

     negative rho (up, down):  9.467E-05 0.000E+00

     total cpu time spent up to now is      260.2 secs

     total energy              =   -1796.53426206 Ry
     estimated scf accuracy    <       0.15480690 Ry

     iteration #  6     ecut=   120.00 Ry     beta= 0.40
     Davidson diagonalization with overlap
     c_bands:  4 eigenvalues not converged
     c_bands:  3 eigenvalues not converged
     ethr =  6.45E-05,  avg # of iterations = 12.8

     negative rho (up, down):  2.142E-05 0.000E+00

     total cpu time spent up to now is      269.5 secs

     total energy              =   -1796.56285316 Ry
     estimated scf accuracy    <       0.03023929 Ry

     iteration #  7     ecut=   120.00 Ry     beta= 0.40
     Davidson diagonalization with overlap
     ethr =  1.26E-05,  avg # of iterations =  9.1

     negative rho (up, down):  3.517E-06 0.000E+00

     total cpu time spent up to now is      278.0 secs

     total energy              =   -1796.56507362 Ry
     estimated scf accuracy    <       0.02146974 Ry

     iteration #  8     ecut=   120.00 Ry     beta= 0.40
     Davidson diagonalization with overlap
     ethr =  8.95E-06,  avg # of iterations =  1.8

     negative rho (up, down):  1.132E-06 0.000E+00

     total cpu time spent up to now is      284.1 secs

     total energy              =   -1796.56543153 Ry
     estimated scf accuracy    <       0.00729598 Ry

     iteration #  9     ecut=   120.00 Ry     beta= 0.40
     Davidson diagonalization with overlap
     c_bands:  1 eigenvalues not converged
     ethr =  3.04E-06,  avg # of iterations =  7.0

     negative rho (up, down):  3.246E-07 0.000E+00

     total cpu time spent up to now is      291.8 secs

     total energy              =   -1796.56654095 Ry
     estimated scf accuracy    <       0.00364886 Ry

     iteration # 10     ecut=   120.00 Ry     beta= 0.40
     Davidson diagonalization with overlap
     ethr =  1.52E-06,  avg # of iterations =  2.1

     negative rho (up, down):  3.530E-08 0.000E+00

     total cpu time spent up to now is      298.1 secs

     total energy              =   -1796.56652700 Ry
     estimated scf accuracy    <       0.00302943 Ry

     iteration # 11     ecut=   120.00 Ry     beta= 0.40
     Davidson diagonalization with overlap
     c_bands:  2 eigenvalues not converged
     ethr =  1.26E-06,  avg # of iterations =  2.0

     negative rho (up, down):  1.706E-08 0.000E+00

     total cpu time spent up to now is      304.3 secs

     total energy              =   -1796.56651173 Ry
     estimated scf accuracy    <       0.00242954 Ry

     iteration # 12     ecut=   120.00 Ry     beta= 0.40
     Davidson diagonalization with overlap
     ethr =  1.01E-06,  avg # of iterations =  1.4

     total cpu time spent up to now is      310.4 secs

     total energy              =   -1796.56645459 Ry
     estimated scf accuracy    <       0.00211242 Ry

     iteration # 13     ecut=   120.00 Ry     beta= 0.40
     Davidson diagonalization with overlap
     c_bands:  1 eigenvalues not converged
     c_bands:  1 eigenvalues not converged
     ethr =  8.80E-07,  avg # of iterations =  3.1

     total cpu time spent up to now is      317.0 secs

     total energy              =   -1796.56643188 Ry
     estimated scf accuracy    <       0.00171475 Ry

     iteration # 14     ecut=   120.00 Ry     beta= 0.40
     Davidson diagonalization with overlap
     c_bands:  1 eigenvalues not converged
     ethr =  7.14E-07,  avg # of iterations =  2.8

     total cpu time spent up to now is      323.6 secs

     total energy              =   -1796.56641458 Ry
     estimated scf accuracy    <       0.00146398 Ry

     iteration # 15     ecut=   120.00 Ry     beta= 0.40
     Davidson diagonalization with overlap
     c_bands:  1 eigenvalues not converged
     ethr =  6.10E-07,  avg # of iterations =  2.1

     total cpu time spent up to now is      329.9 secs

     total energy              =   -1796.56640578 Ry
     estimated scf accuracy    <       0.00127394 Ry

     iteration # 16     ecut=   120.00 Ry     beta= 0.40
     Davidson diagonalization with overlap
     ethr =  5.31E-07,  avg # of iterations =  2.4

     total cpu time spent up to now is      336.4 secs

     total energy              =   -1796.56636572 Ry
     estimated scf accuracy    <       0.00115268 Ry

     iteration # 17     ecut=   120.00 Ry     beta= 0.40
     Davidson diagonalization with overlap
     ethr =  4.80E-07,  avg # of iterations =  2.9

     total cpu time spent up to now is      343.0 secs

     total energy              =   -1796.56631389 Ry
     estimated scf accuracy    <       0.00088931 Ry

     iteration # 18     ecut=   120.00 Ry     beta= 0.40
     Davidson diagonalization with overlap
     ethr =  3.71E-07,  avg # of iterations =  4.7

     total cpu time spent up to now is      349.9 secs

     total energy              =   -1796.56630495 Ry
     estimated scf accuracy    <       0.00056395 Ry

     iteration # 19     ecut=   120.00 Ry     beta= 0.40
     Davidson diagonalization with overlap
     ethr =  2.35E-07,  avg # of iterations =  2.7

     total cpu time spent up to now is      356.3 secs

     total energy              =   -1796.56627868 Ry
     estimated scf accuracy    <       0.00045671 Ry

     iteration # 20     ecut=   120.00 Ry     beta= 0.40
     Davidson diagonalization with overlap
     ethr =  1.90E-07,  avg # of iterations =  2.5

     total cpu time spent up to now is      362.8 secs

     total energy              =   -1796.56625050 Ry
     estimated scf accuracy    <       0.00029180 Ry

     iteration # 21     ecut=   120.00 Ry     beta= 0.40
     Davidson diagonalization with overlap
     c_bands:  1 eigenvalues not converged
     ethr =  1.22E-07,  avg # of iterations =  5.0

     total cpu time spent up to now is      369.8 secs

     total energy              =   -1796.56623881 Ry
     estimated scf accuracy    <       0.00011850 Ry

     iteration # 22     ecut=   120.00 Ry     beta= 0.40
     Davidson diagonalization with overlap
     c_bands:  2 eigenvalues not converged
     ethr =  4.94E-08,  avg # of iterations =  9.3

     total cpu time spent up to now is      377.8 secs

     total energy              =   -1796.56625056 Ry
     estimated scf accuracy    <       0.00001463 Ry

     iteration # 23     ecut=   120.00 Ry     beta= 0.40
     Davidson diagonalization with overlap
     ethr =  6.10E-09,  avg # of iterations =  6.9

     total cpu time spent up to now is      386.1 secs

     total energy              =   -1796.56625525 Ry
     estimated scf accuracy    <       0.00000224 Ry

     iteration # 24     ecut=   120.00 Ry     beta= 0.40
     Davidson diagonalization with overlap
     ethr =  9.34E-10,  avg # of iterations =  1.9

     total cpu time spent up to now is      392.4 secs

     total energy              =   -1796.56625479 Ry
     estimated scf accuracy    <       0.00000153 Ry

     iteration # 25     ecut=   120.00 Ry     beta= 0.40
     Davidson diagonalization with overlap
     ethr =  6.37E-10,  avg # of iterations =  6.0

     total cpu time spent up to now is      400.0 secs

     total energy              =   -1796.56625524 Ry
     estimated scf accuracy    <       0.00000203 Ry

     iteration # 26     ecut=   120.00 Ry     beta= 0.40
     Davidson diagonalization with overlap
     ethr =  6.37E-10,  avg # of iterations =  1.1

     total cpu time spent up to now is      406.1 secs

     total energy              =   -1796.56625481 Ry
     estimated scf accuracy    <       0.00000147 Ry

     iteration # 27     ecut=   120.00 Ry     beta= 0.40
     Davidson diagonalization with overlap
     ethr =  6.13E-10,  avg # of iterations =  2.2

     total cpu time spent up to now is      412.5 secs

     End of self-consistent calculation

          k = 0.0000 0.0000 0.0000 ( 97835 PWs)   bands (ev):

   -56.3316 -56.3309 -56.3223 -56.3147 -56.3012 -56.2998 -56.2788 -56.2787
   -55.8357 -55.8342 -32.6247 -32.6242 -32.6074 -32.6066 -32.5834 -32.5818
   -32.5749 -32.5745 -32.5250 -32.5167 -32.5047 -32.5011 -32.4904 -32.4866
   -32.4795 -32.4773 -32.4255 -32.4235 -32.4112 -32.3979 -32.3974 -32.3966
   -32.3788 -32.3779 -32.2296 -32.2282 -32.0982 -32.0968 -31.8768 -31.8754
   -17.4436 -17.3536 -17.2177 -17.0350 -16.7832 -16.5800 -16.4328 -16.3705
   -16.3121 -16.3116 -15.9514 -15.9418 -15.8885 -15.8459 -15.8014 -15.7731
   -15.7236 -15.7007 -15.3418 -15.3411  -5.0151  -4.8622  -4.6578  -4.5761
    -4.4812  -4.4599  -4.3620  -4.2987  -4.0848  -3.9182  -3.7600  -3.7062
    -3.5753  -3.2234  -3.1959  -3.1956  -3.1317  -3.1217  -3.1047  -3.0979
    -3.0760  -3.0732  -2.7588  -2.6986  -2.6986  -2.5749  -2.4642  -2.3365
    -2.2816  -2.2432  -2.0983  -2.0658  -1.9681  -1.8987  -1.5454  -1.4881
    -1.3156  -1.3131  -1.2709  -1.2604  -1.1850  -1.0257  -1.0167  -0.8725
    -0.8494  -0.8345  -0.7193  -0.6805  -0.4884  -0.3200  -0.3171  -0.3136
    -0.3060  -0.1446  -0.1384  -0.1068   0.0583   0.2330   0.3744   0.4681
     2.6053   2.7211   2.8588   2.8738   3.0014   3.0306   3.1258   3.1533
     3.1632   3.1973   3.1991   3.2667   3.3146   3.3553   3.3782   3.3813
     3.4820   3.5866   3.6018   3.7540   3.7962   4.2461   4.2637   4.3618

          k = 0.0000 0.1778 0.0000 ( 97983 PWs)   bands (ev):

   -56.3267 -56.3261 -56.3175 -56.3103 -56.2966 -56.2951 -56.2741 -56.2741
   -55.8307 -55.8292 -32.6122 -32.6116 -32.5960 -32.5948 -32.5734 -32.5706
   -32.5643 -32.5631 -32.5261 -32.5163 -32.5062 -32.5002 -32.4929 -32.4847
   -32.4759 -32.4744 -32.4722 -32.4697 -32.4570 -32.4506 -32.4502 -32.4485
   -32.4301 -32.4293 -32.2248 -32.2234 -32.0898 -32.0884 -31.9334 -31.9320
   -17.3198 -17.2344 -17.1052 -16.9310 -16.6901 -16.4935 -16.3486 -16.2945
   -16.2363 -16.2350 -15.9866 -15.9795 -15.9327 -15.8951 -15.8495 -15.8222
   -15.7755 -15.7557 -15.3740 -15.3733  -4.8421  -4.6991  -4.5048  -4.4417
    -4.3416  -4.3109  -4.2144  -4.1498  -3.9675  -3.8478  -3.7298  -3.6582
    -3.5773  -3.4340  -3.3776  -3.3553  -3.3453  -3.3242  -3.2943  -3.2155
    -3.1006  -2.9342  -2.7127  -2.6997  -2.4666  -2.4134  -2.3182  -2.1639
    -2.1453  -2.0206  -1.9714  -1.9023  -1.8544  -1.8484  -1.7892  -1.6904
    -1.6767  -1.4562  -1.4455  -1.3949  -1.3816  -1.2357  -1.1387  -1.0858
    -1.0831  -0.9734  -0.8368  -0.8102  -0.8017  -0.5576  -0.3459  -0.3408
    -0.3113  -0.2582  -0.2350  -0.0688   0.0470   0.1898   0.3224   0.4200
     2.7663   2.8575   2.9529   2.9783   3.0578   3.0607   3.1258   3.1655
     3.2277   3.2785   3.2848   3.3165   3.3338   3.3896   3.4514   3.5131
     3.5656   3.6393   3.7032   3.7333   3.8911   3.9336   3.9757   4.3211

          k = 0.0000 0.3555 0.0000 ( 97871 PWs)   bands (ev):

   -56.3143 -56.3139 -56.3053 -56.2992 -56.2847 -56.2832 -56.2623 -56.2622
   -55.8182 -55.8166 -32.6214 -32.6201 -32.6137 -32.5977 -32.5961 -32.5959
   -32.5797 -32.5776 -32.5736 -32.5710 -32.5606 -32.5550 -32.5392 -32.5367
   -32.5257 -32.5234 -32.4924 -32.4901 -32.4833 -32.4811 -32.4767 -32.4738
   -32.4658 -32.4650 -32.2156 -32.2142 -32.1027 -32.1013 -32.0381 -32.0367
   -16.9910 -16.9214 -16.8161 -16.6733 -16.4850 -16.3295 -16.1797 -16.1171
   -16.1003 -16.0897 -16.0370 -16.0216 -16.0052 -15.9851 -15.9470 -15.9420
   -15.9007 -15.8866 -15.4415 -15.4406  -4.3862  -4.2802  -4.1320  -4.1089
    -3.9959  -3.9723  -3.8486  -3.8295  -3.7134  -3.6954  -3.6760  -3.6014
    -3.5621  -3.5494  -3.5420  -3.5030  -3.4974  -3.4900  -3.3787  -3.2079
    -3.0281  -3.0108  -2.6636  -2.6403  -2.5590  -2.5202  -2.5099  -2.4884
    -2.4353  -2.3306  -2.2328  -2.0936  -2.0891  -2.0655  -1.9532  -1.8713
    -1.7121  -1.6699  -1.6302  -1.4623  -1.4379  -1.3286  -1.3171  -1.1948
    -1.1721  -1.0401  -0.8929  -0.8366  -0.7538  -0.7312  -0.7204  -0.6418
    -0.5649  -0.5305  -0.4314  -0.1476  -0.0712   0.0446   0.1366   0.1950
     2.8214   2.8774   2.9785   3.0702   3.0938   3.1182   3.1358   3.2315
     3.2694   3.3784   3.4311   3.4966   3.5263   3.6161   3.6521   3.6848
     3.7848   3.8096   3.8740   3.9303   3.9330   3.9689   4.0902   4.1837

          k = 0.0000 0.5333 0.0000 ( 97858 PWs)   bands (ev):

   -56.3002 -56.2999 -56.2911 -56.2869 -56.2712 -56.2697 -56.2488 -56.2487
   -55.8038 -55.8022 -32.7633 -32.7626 -32.7534 -32.7434 -32.7385 -32.7384
   -32.7248 -32.7240 -32.5358 -32.5353 -32.5249 -32.5241 -32.5087 -32.5082
   -32.4944 -32.4934 -32.4806 -32.4788 -32.4738 -32.4730 -32.4708 -32.4687
   -32.4566 -32.4562 -32.2570 -32.2556 -32.1940 -32.1926 -32.0234 -32.0220
   -16.5720 -16.5420 -16.4971 -16.4366 -16.3990 -16.3547 -16.2619 -16.1748
   -16.0875 -16.0516 -16.0354 -16.0069 -15.9679 -15.9498 -15.9310 -15.9146
   -15.8473 -15.8467 -15.4456 -15.4443  -3.9240  -3.8824  -3.8572  -3.8494
    -3.8068  -3.8001  -3.7554  -3.7500  -3.6895  -3.6689  -3.6172  -3.6029
    -3.5521  -3.5461  -3.4729  -3.4397  -3.4355  -3.3981  -3.3249  -3.2710
    -3.0796  -3.0687  -3.0253  -2.9927  -2.8195  -2.7164  -2.7078  -2.6514
    -2.6162  -2.4433  -2.2288  -2.1102  -2.0934  -2.0760  -1.9515  -1.9179
    -1.7703  -1.6414  -1.5636  -1.4915  -1.4753  -1.4562  -1.3982  -1.1826
    -1.1541  -1.1034  -1.0451  -1.0013  -0.9687  -0.9018  -0.8708  -0.8186
    -0.6936  -0.6213  -0.5860  -0.3322  -0.2754  -0.2726  -0.2041  -0.1983
     2.7467   2.7492   2.8312   3.0018   3.0133   3.1761   3.3861   3.3881
     3.4713   3.4990   3.6250   3.6393   3.6613   3.7518   3.8321   3.8431
     3.8867   3.9455   4.0519   4.0573   4.1440   4.2124   4.2696   4.2910

          k = 0.0000 0.7110 0.0000 ( 97832 PWs)   bands (ev):

   -56.2911 -56.2907 -56.2814 -56.2793 -56.2623 -56.2608 -56.2399 -56.2399
   -55.7944 -55.7928 -32.8566 -32.8562 -32.8443 -32.8406 -32.8329 -32.8329
   -32.8200 -32.8193 -32.5035 -32.5022 -32.4987 -32.4980 -32.4907 -32.4904
   -32.4811 -32.4805 -32.4739 -32.4720 -32.4672 -32.4671 -32.4606 -32.4605
   -32.4533 -32.4525 -32.3485 -32.3472 -32.1917 -32.1903 -32.0048 -32.0034
   -16.4549 -16.4449 -16.4013 -16.3780 -16.3345 -16.2956 -16.2555 -16.2000
   -16.1874 -16.0732 -15.9827 -15.9766 -15.9257 -15.8916 -15.8485 -15.8115
   -15.7743 -15.7603 -15.3651 -15.3638  -4.2812  -4.2097  -4.1692  -4.0845
    -4.0032  -3.9312  -3.8428  -3.8051  -3.6054  -3.6019  -3.5083  -3.4872
    -3.4599  -3.3904  -3.3481  -3.3381  -3.3137  -3.2820  -3.2562  -3.2454
    -2.9164  -2.8666  -2.8388  -2.7743  -2.6991  -2.5702  -2.4796  -2.4058
    -2.2603  -2.1954  -2.1637  -2.1229  -2.1061  -2.0780  -2.0348  -2.0137
    -1.8943  -1.8712  -1.7986  -1.7583  -1.5609  -1.4273  -1.4085  -1.2069
    -1.2015  -1.1884  -1.0604  -1.0569  -0.9732  -0.9656  -0.8973  -0.8823
    -0.8623  -0.8557  -0.7012  -0.6630  -0.5480  -0.5168  -0.3527  -0.3108
     2.6391   2.7840   2.8304   3.0184   3.0897   3.2304   3.2871   3.3789
     3.6302   3.6659   3.7118   3.7516   3.7629   3.8012   3.8294   3.8781
     3.8817   3.8848   4.1347   4.1355   4.2619   4.3052   4.3336   4.3662

          k = 0.1667 0.0000 0.0000 ( 97933 PWs)   bands (ev):

   -56.3311 -56.3306 -56.3220 -56.3153 -56.3013 -56.2998 -56.2789 -56.2788
   -55.8357 -55.8342 -32.6271 -32.6265 -32.6094 -32.6082 -32.5844 -32.5833
   -32.5755 -32.5746 -32.5205 -32.5201 -32.5049 -32.4993 -32.4883 -32.4859
   -32.4778 -32.4775 -32.4243 -32.4228 -32.4109 -32.3986 -32.3971 -32.3968
   -32.3796 -32.3787 -32.2294 -32.2280 -32.0982 -32.0967 -31.8768 -31.8754
   -17.3610 -17.2844 -17.1684 -17.0120 -16.7937 -16.6146 -16.4765 -16.3994
   -16.3244 -16.3239 -15.9648 -15.9635 -15.8801 -15.8690 -15.8133 -15.7957
   -15.7431 -15.7101 -15.3462 -15.3454  -4.8980  -4.8541  -4.7544  -4.6170
    -4.4564  -4.4273  -4.3073  -4.2992  -3.9286  -3.8124  -3.7367  -3.6696
    -3.4735  -3.2024  -3.2022  -3.1482  -3.1419  -3.1356  -3.1122  -3.1019
    -3.0769  -3.0732  -2.7927  -2.7026  -2.7026  -2.4861  -2.4603  -2.4108
    -2.2422  -2.1600  -2.0091  -1.9968  -1.9823  -1.6907  -1.5606  -1.4994
    -1.2993  -1.2880  -1.2343  -1.2301  -1.1259  -1.0650  -1.0260  -0.9125
    -0.8810  -0.8328  -0.7675  -0.6408  -0.5765  -0.5243  -0.5206  -0.4788
    -0.4202  -0.4168  -0.2851  -0.2512  -0.0796   0.1157   0.2650   0.3612
     2.6584   2.6849   2.7917   2.8970   3.0357   3.0418   3.1396   3.1430
     3.1953   3.1965   3.2753   3.2936   3.3332   3.3515   3.4754   3.5071
     3.5957   3.6493   3.6899   3.7386   3.9266   4.2441   4.2586   4.2994

          k = 0.1667 0.1778 0.0000 ( 97914 PWs)   bands (ev):

   -56.3263 -56.3259 -56.3173 -56.3109 -56.2966 -56.2951 -56.2742 -56.2741
   -55.8307 -55.8292 -32.6145 -32.6138 -32.5975 -32.5968 -32.5741 -32.5722
   -32.5647 -32.5631 -32.5214 -32.5207 -32.5058 -32.4996 -32.4891 -32.4857
   -32.4746 -32.4744 -32.4706 -32.4690 -32.4572 -32.4505 -32.4500 -32.4489
   -32.4306 -32.4298 -32.2246 -32.2233 -32.0898 -32.0884 -31.9334 -31.9320
   -17.2413 -17.1685 -17.0579 -16.9082 -16.6991 -16.5268 -16.3912 -16.3183
   -16.2430 -16.2425 -16.0031 -16.0021 -15.9250 -15.9172 -15.8623 -15.8457
   -15.7951 -15.7637 -15.3780 -15.3772  -4.7365  -4.7000  -4.6044  -4.4712
    -4.3153  -4.2862  -4.1569  -4.1481  -3.8562  -3.7867  -3.7153  -3.6515
    -3.5694  -3.4787  -3.4155  -3.3559  -3.3258  -3.2993  -3.2273  -3.1883
    -3.0593  -2.8488  -2.7016  -2.6751  -2.4483  -2.3312  -2.3094  -2.2364
    -2.1121  -2.0347  -1.9177  -1.8646  -1.8546  -1.7286  -1.6859  -1.6815
    -1.6761  -1.5352  -1.5195  -1.3020  -1.2910  -1.1687  -1.1570  -1.1060
    -1.0925  -1.0066  -0.9372  -0.9052  -0.7732  -0.5662  -0.4770  -0.4659
    -0.4347  -0.3984  -0.3424  -0.2406  -0.1042   0.0546   0.1987   0.3032
     2.7916   2.8081   2.9053   3.0135   3.0821   3.1124   3.1366   3.2208
     3.2376   3.2664   3.3141   3.3150   3.3676   3.4104   3.5230   3.6187
     3.6403   3.6687   3.6856   3.8246   3.9152   3.9381   4.0112   4.3356

          k = 0.1667 0.3555 0.0000 ( 97844 PWs)   bands (ev):

   -56.3141 -56.3137 -56.3051 -56.2997 -56.2847 -56.2833 -56.2623 -56.2623
   -55.8182 -55.8166 -32.6203 -32.6197 -32.6132 -32.5981 -32.5970 -32.5966
   -32.5807 -32.5799 -32.5745 -32.5726 -32.5601 -32.5571 -32.5383 -32.5382
   -32.5254 -32.5243 -32.4917 -32.4906 -32.4829 -32.4808 -32.4749 -32.4728
   -32.4648 -32.4645 -32.2156 -32.2142 -32.1027 -32.1013 -32.0380 -32.0366
   -16.9267 -16.8664 -16.7745 -16.6492 -16.4832 -16.3468 -16.2164 -16.1266
   -16.0963 -16.0946 -16.0499 -16.0357 -16.0164 -16.0099 -15.9779 -15.9583
   -15.9166 -15.8935 -15.4442 -15.4432  -4.3273  -4.3076  -4.2243  -4.1126
    -3.9732  -3.9713  -3.8330  -3.8315  -3.7716  -3.7646  -3.7243  -3.7136
    -3.6170  -3.5881  -3.5627  -3.5232  -3.4551  -3.4220  -3.1360  -3.0588
    -2.9702  -2.8578  -2.7766  -2.7070  -2.5987  -2.5120  -2.4959  -2.4078
    -2.3542  -2.2261  -2.2193  -2.1086  -2.0362  -1.9902  -1.9671  -1.8056
    -1.7330  -1.6564  -1.6000  -1.5003  -1.4667  -1.3403  -1.3280  -1.1673
    -1.1306  -1.0403  -0.9454  -0.8749  -0.8054  -0.7444  -0.7017  -0.6505
    -0.5741  -0.5167  -0.4910  -0.2613  -0.1570  -0.0375   0.0557   0.1204
     2.8041   2.8722   2.9795   3.0650   3.0932   3.1777   3.1878   3.2764
     3.2970   3.4255   3.4648   3.4966   3.5309   3.5606   3.6432   3.6896
     3.7692   3.7940   3.9143   3.9159   3.9493   4.0284   4.1396   4.1737

          k = 0.1667 0.5333 0.0000 ( 97870 PWs)   bands (ev):

   -56.3001 -56.2998 -56.2910 -56.2872 -56.2712 -56.2697 -56.2488 -56.2487
   -55.8038 -55.8022 -32.7629 -32.7625 -32.7526 -32.7440 -32.7385 -32.7384
   -32.7251 -32.7244 -32.5373 -32.5366 -32.5261 -32.5246 -32.5092 -32.5086
   -32.4942 -32.4939 -32.4799 -32.4796 -32.4745 -32.4721 -32.4689 -32.4682
   -32.4563 -32.4559 -32.2571 -32.2557 -32.1939 -32.1926 -32.0235 -32.0220
   -16.5457 -16.5168 -16.4730 -16.4169 -16.3807 -16.3319 -16.2407 -16.1672
   -16.1093 -16.1022 -16.0535 -16.0425 -15.9815 -15.9506 -15.9287 -15.9244
   -15.8536 -15.8533 -15.4455 -15.4443  -3.9737  -3.9116  -3.8971  -3.8950
    -3.8784  -3.8223  -3.8064  -3.7593  -3.7126  -3.7083  -3.6497  -3.6372
    -3.6093  -3.5885  -3.5556  -3.4907  -3.4803  -3.4338  -3.3578  -3.3439
    -3.0983  -3.0940  -2.9112  -2.8531  -2.7020  -2.6251  -2.5974  -2.5465
    -2.5367  -2.3759  -2.2143  -2.1256  -2.0793  -1.9985  -1.9621  -1.8915
    -1.7661  -1.6396  -1.5528  -1.5014  -1.4820  -1.4338  -1.4293  -1.1299
    -1.1171  -1.0526  -1.0137  -1.0057  -0.9657  -0.9398  -0.8754  -0.7714
    -0.6617  -0.5988  -0.5407  -0.3049  -0.2748  -0.2549  -0.1964  -0.1845
     2.7526   2.7632   2.8093   3.0049   3.0141   3.2662   3.4359   3.4534
     3.5209   3.5344   3.6145   3.6328   3.7025   3.7346   3.7770   3.7862
     3.8611   3.8724   3.9679   3.9805   4.0837   4.1019   4.2151   4.2520

          k = 0.1667 0.7110 0.0000 ( 97852 PWs)   bands (ev):

   -56.2910 -56.2907 -56.2814 -56.2793 -56.2623 -56.2608 -56.2399 -56.2399
   -55.7944 -55.7928 -32.8564 -32.8560 -32.8441 -32.8408 -32.8329 -32.8329
   -32.8201 -32.8193 -32.5040 -32.5032 -32.4988 -32.4984 -32.4908 -32.4905
   -32.4810 -32.4804 -32.4738 -32.4718 -32.4677 -32.4676 -32.4602 -32.4601
   -32.4535 -32.4526 -32.3484 -32.3472 -32.1918 -32.1904 -32.0050 -32.0035
   -16.4537 -16.4522 -16.3938 -16.3873 -16.3223 -16.3206 -16.2497 -16.2143
   -16.1045 -16.0741 -16.0339 -15.9649 -15.9063 -15.9052 -15.8335 -15.8298
   -15.7703 -15.7681 -15.3619 -15.3607  -4.2753  -4.2547  -4.1619  -4.1419
    -4.0211  -3.9868  -3.8407  -3.8172  -3.6526  -3.6299  -3.5317  -3.5245
    -3.5099  -3.4829  -3.4776  -3.4011  -3.3961  -3.3750  -3.2998  -3.2723
    -3.1507  -3.0654  -2.9396  -2.7152  -2.5426  -2.5319  -2.3591  -2.3292
    -2.2080  -2.1796  -2.1163  -2.1071  -2.1037  -1.9842  -1.9303  -1.9202
    -1.8772  -1.8734  -1.7513  -1.6419  -1.4708  -1.3291  -1.2436  -1.1948
    -1.1522  -1.0652  -1.0548  -1.0024  -0.9694  -0.9521  -0.8750  -0.8710
    -0.7952  -0.7816  -0.6795  -0.6353  -0.4881  -0.4783  -0.3415  -0.2903
     2.7055   2.7689   2.9276   2.9438   3.1310   3.1694   3.2943   3.4746
     3.5820   3.6279   3.7152   3.7379   3.7704   3.7993   3.8240   3.8585
     3.8681   3.8762   4.0876   4.0981   4.1318   4.1336   4.2875   4.2887

          k = 0.3333 0.0000 0.0000 ( 97837 PWs)   bands (ev):

   -56.3303 -56.3300 -56.3212 -56.3170 -56.3014 -56.2999 -56.2790 -56.2790
   -55.8357 -55.8342 -32.6316 -32.6310 -32.6126 -32.6120 -32.5868 -32.5854
   -32.5762 -32.5754 -32.5202 -32.5185 -32.5012 -32.4998 -32.4855 -32.4846
   -32.4760 -32.4754 -32.4217 -32.4212 -32.4098 -32.4020 -32.3962 -32.3959
   -32.3813 -32.3804 -32.2290 -32.2276 -32.0980 -32.0966 -31.8769 -31.8754
   -17.1335 -17.0967 -17.0365 -16.9505 -16.8192 -16.7032 -16.6069 -16.5368
   -16.3948 -16.3945 -15.9804 -15.9789 -15.8939 -15.8731 -15.8286 -15.8021
   -15.7670 -15.7613 -15.3557 -15.3546  -4.8071  -4.8049  -4.7055  -4.6581
    -4.5538  -4.4482  -4.3035  -4.2702  -3.7477  -3.7460  -3.4012  -3.2910
    -3.2170  -3.2165  -3.1610  -3.1569  -3.1215  -3.1171  -3.1086  -3.0824
    -3.0740  -2.8551  -2.7094  -2.7092  -2.6030  -2.4461  -2.4154  -2.3515
    -2.2923  -2.2605  -2.0806  -1.9164  -1.7252  -1.6547  -1.5750  -1.4306
    -1.3528  -1.3244  -1.2374  -1.2235  -1.1526  -1.1377  -1.1369  -1.0245
    -0.9284  -0.9055  -0.8826  -0.8483  -0.7689  -0.7093  -0.6861  -0.6511
    -0.6214  -0.6202  -0.5578  -0.4236  -0.3187  -0.1654  -0.0457   0.0629
     2.6682   2.6776   2.8394   2.8426   2.9641   3.0456   3.1289   3.1565
     3.1904   3.2157   3.3072   3.4233   3.4774   3.5030   3.5948   3.6309
     3.7213   3.7989   3.8942   4.0110   4.1422   4.1723   4.1737   4.2472

          k = 0.3333 0.1778 0.0000 ( 97799 PWs)   bands (ev):

   -56.3256 -56.3253 -56.3165 -56.3124 -56.2967 -56.2952 -56.2743 -56.2743
   -55.8308 -55.8292 -32.6188 -32.6180 -32.6008 -32.6000 -32.5758 -32.5747
   -32.5650 -32.5641 -32.5203 -32.5198 -32.5024 -32.5010 -32.4872 -32.4844
   -32.4734 -32.4729 -32.4673 -32.4669 -32.4572 -32.4516 -32.4493 -32.4491
   -32.4317 -32.4308 -32.2243 -32.2229 -32.0897 -32.0883 -31.9334 -31.9319
   -17.0248 -16.9895 -16.9313 -16.8477 -16.7215 -16.6109 -16.5178 -16.4495
   -16.3086 -16.3083 -16.0178 -16.0163 -15.9403 -15.9191 -15.8771 -15.8508
   -15.8172 -15.8111 -15.3865 -15.3854  -4.6620  -4.6596  -4.5581  -4.5134
    -4.4045  -4.3038  -4.1522  -4.1169  -3.6987  -3.6974  -3.5759  -3.5748
    -3.5404  -3.5051  -3.4585  -3.4123  -3.3658  -3.3298  -3.0038  -2.9400
    -2.7916  -2.6973  -2.6742  -2.5237  -2.3399  -2.3101  -2.2273  -2.1701
    -2.0710  -2.0167  -1.9896  -1.9051  -1.8181  -1.7312  -1.6570  -1.6442
    -1.5727  -1.4801  -1.4483  -1.3898  -1.2755  -1.2035  -1.1766  -1.1069
    -1.0876  -1.0756  -1.0341  -1.0045  -0.8942  -0.8598  -0.7642  -0.7637
    -0.6867  -0.5536  -0.4900  -0.3935  -0.3347  -0.1993  -0.0622   0.0631
     2.7875   2.7952   2.9360   2.9376   3.0275   3.1352   3.2002   3.2387
     3.2820   3.3242   3.3725   3.4018   3.4862   3.4981   3.6102   3.6126
     3.7855   3.7993   3.8714   3.9227   3.9616   4.0355   4.1397   4.3328

          k = 0.3333 0.3555 0.0000 ( 97773 PWs)   bands (ev):

   -56.3136 -56.3133 -56.3044 -56.3009 -56.2848 -56.2833 -56.2624 -56.2624
   -55.8182 -55.8166 -32.6207 -32.6178 -32.6103 -32.6020 -32.5970 -32.5968
   -32.5842 -32.5813 -32.5764 -32.5753 -32.5626 -32.5592 -32.5397 -32.5388
   -32.5259 -32.5255 -32.4924 -32.4893 -32.4809 -32.4795 -32.4724 -32.4717
   -32.4632 -32.4629 -32.2155 -32.2141 -32.1028 -32.1013 -32.0378 -32.0364
   -16.7498 -16.7176 -16.6641 -16.5878 -16.4841 -16.3983 -16.3190 -16.2566
   -16.1632 -16.1621 -16.0490 -16.0477 -16.0352 -16.0160 -15.9851 -15.9619
   -15.9349 -15.9274 -15.4497 -15.4485  -4.2964  -4.2915  -4.1911  -4.1656
    -4.0599  -3.9733  -3.8535  -3.8499  -3.8159  -3.7994  -3.7619  -3.7382
    -3.6879  -3.6756  -3.5831  -3.5762  -3.5569  -3.5036  -2.9165  -2.9098
    -2.7470  -2.6994  -2.5953  -2.5644  -2.4864  -2.4522  -2.4282  -2.4018
    -2.3061  -2.2073  -2.1128  -2.0548  -1.9349  -1.8789  -1.8317  -1.8105
    -1.7442  -1.6592  -1.6060  -1.4854  -1.4319  -1.3745  -1.3202  -1.1643
    -1.1382  -1.0320  -0.9944  -0.9473  -0.8995  -0.8671  -0.7776  -0.7240
    -0.5990  -0.5812  -0.4910  -0.4607  -0.3681  -0.2324  -0.1348  -0.0680
     2.9391   2.9558   2.9923   3.0558   3.0981   3.2800   3.2855   3.3083
     3.3504   3.3896   3.4485   3.4594   3.5162   3.5744   3.7065   3.7143
     3.8211   3.8224   3.9878   4.0152   4.0376   4.0407   4.1158   4.1357

          k = 0.3333 0.5333 0.0000 ( 97835 PWs)   bands (ev):

   -56.3000 -56.2996 -56.2905 -56.2879 -56.2712 -56.2697 -56.2488 -56.2488
   -55.8038 -55.8022 -32.7628 -32.7621 -32.7506 -32.7459 -32.7383 -32.7382
   -32.7255 -32.7247 -32.5399 -32.5394 -32.5284 -32.5264 -32.5104 -32.5091
   -32.4947 -32.4939 -32.4811 -32.4781 -32.4723 -32.4717 -32.4681 -32.4676
   -32.4555 -32.4550 -32.2571 -32.2558 -32.1938 -32.1924 -32.0236 -32.0221
   -16.4749 -16.4519 -16.4150 -16.3711 -16.3329 -16.2726 -16.2412 -16.2193
   -16.1527 -16.1460 -16.0781 -16.0615 -16.0216 -15.9954 -15.9550 -15.9340
   -15.8708 -15.8700 -15.4453 -15.4441  -4.0313  -4.0143  -3.9872  -3.9806
    -3.9487  -3.9104  -3.8672  -3.8552  -3.8258  -3.7615  -3.7547  -3.7280
    -3.6516  -3.6451  -3.6328  -3.5722  -3.4592  -3.4322  -3.3933  -3.3640
    -3.0679  -3.0433  -2.9309  -2.6755  -2.6125  -2.5930  -2.5432  -2.5197
    -2.2802  -2.2388  -2.0909  -2.0140  -1.9583  -1.9286  -1.8826  -1.7900
    -1.7607  -1.7270  -1.6094  -1.4917  -1.4208  -1.3732  -1.2680  -1.1894
    -1.1583  -1.0700  -0.9839  -0.9730  -0.8634  -0.8473  -0.7452  -0.6737
    -0.6098  -0.5477  -0.4689  -0.3275  -0.3128  -0.2886  -0.2398  -0.2339
     2.7479   2.8322   2.9591   3.0940   3.1244   3.3719   3.4447   3.4501
     3.5028   3.5050   3.5795   3.5990   3.6484   3.6810   3.7008   3.7221
     3.8126   3.8322   3.9033   3.9775   4.0528   4.0587   4.1393   4.1904

          k = 0.3333 0.7110 0.0000 ( 97930 PWs)   bands (ev):

   -56.2910 -56.2906 -56.2813 -56.2795 -56.2623 -56.2608 -56.2399 -56.2399
   -55.7944 -55.7928 -32.8564 -32.8560 -32.8435 -32.8412 -32.8329 -32.8328
   -32.8201 -32.8193 -32.5053 -32.5041 -32.5009 -32.4982 -32.4911 -32.4908
   -32.4808 -32.4801 -32.4735 -32.4717 -32.4675 -32.4675 -32.4608 -32.4606
   -32.4536 -32.4527 -32.3482 -32.3470 -32.1920 -32.1906 -32.0052 -32.0037
   -16.4562 -16.4555 -16.3946 -16.3817 -16.3285 -16.3127 -16.2516 -16.2424
   -16.0588 -16.0451 -15.9945 -15.9630 -15.9279 -15.9053 -15.8543 -15.8287
   -15.7803 -15.7785 -15.3559 -15.3548  -4.2836  -4.2816  -4.2189  -4.2043
    -4.1081  -4.0895  -3.9869  -3.9592  -3.8704  -3.8465  -3.6854  -3.6150
    -3.5746  -3.5174  -3.4764  -3.4731  -3.4183  -3.3593  -3.3047  -3.2989
    -3.1158  -3.0722  -2.9305  -2.7703  -2.6300  -2.5578  -2.3735  -2.3010
    -2.1859  -2.1717  -2.1299  -2.0850  -2.0710  -1.9959  -1.9817  -1.9423
    -1.8642  -1.7977  -1.4152  -1.4106  -1.2807  -1.2341  -1.1165  -1.0841
    -1.0033  -0.9771  -0.9184  -0.8965  -0.8669  -0.8131  -0.7756  -0.7110
    -0.6751  -0.6281  -0.5350  -0.5120  -0.3997  -0.3632  -0.3102  -0.2522
     2.7328   2.7682   2.8642   3.0034   3.1067   3.1382   3.3142   3.3373
     3.6031   3.6155   3.7667   3.7670   3.7811   3.7887   3.8158   3.8264
     3.8347   3.8683   3.9639   3.9861   4.0806   4.0891   4.1983   4.2081

          k =-0.5000 0.0000 0.0000 ( 97808 PWs)   bands (ev):

   -56.3300 -56.3296 -56.3202 -56.3185 -56.3014 -56.2999 -56.2791 -56.2791
   -55.8357 -55.8342 -32.6337 -32.6332 -32.6142 -32.6137 -32.5873 -32.5872
   -32.5763 -32.5760 -32.5191 -32.5189 -32.5001 -32.4996 -32.4841 -32.4838
   -32.4748 -32.4746 -32.4206 -32.4201 -32.4074 -32.4057 -32.3956 -32.3953
   -32.3823 -32.3813 -32.2288 -32.2274 -32.0979 -32.0965 -31.8769 -31.8755
   -16.9190 -16.9185 -16.8457 -16.8455 -16.8237 -16.8214 -16.7983 -16.7960
   -16.4539 -16.4534 -15.9718 -15.9704 -15.8620 -15.8608 -15.8310 -15.8296
   -15.7937 -15.7919 -15.3607 -15.3594  -4.7973  -4.7968  -4.6684  -4.6676
    -4.4959  -4.4941  -4.3256  -4.3243  -3.7445  -3.7442  -3.2249  -3.2244
    -3.1691  -3.1668  -3.1257  -3.1228  -3.0832  -3.0803  -2.7139  -2.7125
    -2.7120  -2.7117  -2.6478  -2.6463  -2.5643  -2.5634  -2.4406  -2.4399
    -2.3005  -2.2975  -2.2461  -2.2454  -1.9271  -1.9252  -1.6017  -1.5992
    -1.3464  -1.3454  -1.2650  -1.2642  -1.2004  -1.1982  -0.9796  -0.9761
    -0.9709  -0.9693  -0.8812  -0.8789  -0.7811  -0.7793  -0.6602  -0.6599
    -0.6120  -0.6089  -0.5068  -0.5064  -0.4286  -0.4269  -0.2702  -0.2683
     2.6633   2.6636   2.8477   2.8486   3.0115   3.0122   3.1025   3.1028
     3.2466   3.2466   3.3737   3.3750   3.5130   3.5142   3.6012   3.6016
     4.0945   4.0968   4.1022   4.1044   4.1870   4.1879   4.2445   4.2464

          k =-0.5000 0.1778 0.0000 ( 97758 PWs)   bands (ev):

   -56.3253 -56.3249 -56.3155 -56.3138 -56.2967 -56.2952 -56.2744 -56.2744
   -55.8308 -55.8292 -32.6207 -32.6203 -32.6022 -32.6018 -32.5764 -32.5763
   -32.5651 -32.5648 -32.5198 -32.5196 -32.5014 -32.5008 -32.4852 -32.4849
   -32.4728 -32.4726 -32.4660 -32.4654 -32.4556 -32.4543 -32.4486 -32.4484
   -32.4324 -32.4315 -32.2241 -32.2228 -32.0896 -32.0882 -31.9333 -31.9319
   -16.8210 -16.8203 -16.7465 -16.7464 -16.7259 -16.7234 -16.7024 -16.7003
   -16.3681 -16.3676 -16.0054 -16.0040 -15.9070 -15.9060 -15.8786 -15.8772
   -15.8425 -15.8406 -15.3910 -15.3898  -4.6534  -4.6528  -4.5242  -4.5235
    -4.3495  -4.3475  -4.1724  -4.1711  -3.6883  -3.6877  -3.5273  -3.5269
    -3.4846  -3.4822  -3.4293  -3.4279  -3.3703  -3.3685  -2.7080  -2.7079
    -2.6281  -2.6268  -2.4682  -2.4681  -2.3256  -2.3241  -2.1558  -2.1539
    -2.1197  -2.1186  -1.9249  -1.9230  -1.8472  -1.8437  -1.5887  -1.5869
    -1.4923  -1.4912  -1.3929  -1.3920  -1.3379  -1.3359  -1.2685  -1.2664
    -1.1963  -1.1956  -1.1003  -1.1000  -1.0351  -1.0343  -0.8391  -0.8363
    -0.6208  -0.6194  -0.4458  -0.4447  -0.3083  -0.3073  -0.1921  -0.1909
     2.7799   2.7802   2.9344   2.9353   3.0852   3.0863   3.1808   3.1808
     3.3409   3.3412   3.4404   3.4411   3.5179   3.5198   3.6343   3.6347
     3.8577   3.8577   4.1490   4.1499   4.1806   4.1820   4.2175   4.2179

          k =-0.5000 0.3555 0.0000 ( 97706 PWs)   bands (ev):

   -56.3134 -56.3130 -56.3036 -56.3019 -56.2848 -56.2833 -56.2625 -56.2624
   -55.8182 -55.8166 -32.6193 -32.6189 -32.6069 -32.6056 -32.5978 -32.5977
   -32.5829 -32.5827 -32.5767 -32.5765 -32.5621 -32.5617 -32.5410 -32.5408
   -32.5259 -32.5257 -32.4901 -32.4899 -32.4802 -32.4797 -32.4714 -32.4710
   -32.4624 -32.4621 -32.2155 -32.2141 -32.1028 -32.1014 -32.0377 -32.0363
   -16.5737 -16.5730 -16.5043 -16.5028 -16.4913 -16.4882 -16.4738 -16.4722
   -16.2232 -16.2222 -16.0328 -16.0321 -16.0020 -16.0015 -15.9872 -15.9852
   -15.9533 -15.9516 -15.4525 -15.4512  -4.2909  -4.2904  -4.1692  -4.1685
    -4.0027  -4.0004  -3.8644  -3.8638  -3.8273  -3.8265  -3.8000  -3.7993
    -3.7159  -3.7149  -3.6150  -3.6136  -3.5439  -3.5431  -2.9580  -2.9566
    -2.6926  -2.6917  -2.4835  -2.4832  -2.4201  -2.4185  -2.2132  -2.2123
    -2.0749  -2.0740  -2.0279  -2.0268  -1.9493  -1.9482  -1.7690  -1.7680
    -1.6044  -1.6029  -1.5277  -1.5256  -1.4396  -1.4388  -1.3397  -1.3392
    -1.2596  -1.2572  -1.0750  -1.0734  -0.8982  -0.8972  -0.7786  -0.7778
    -0.5932  -0.5910  -0.4619  -0.4615  -0.3613  -0.3603  -0.2607  -0.2603
     3.0125   3.0133   3.1384   3.1404   3.1909   3.1922   3.2271   3.2284
     3.2911   3.2922   3.5118   3.5132   3.6087   3.6119   3.7377   3.7391
     3.9122   3.9137   4.0189   4.0198   4.0567   4.0572   4.0967   4.0986

          k =-0.5000 0.5333 0.0000 ( 97802 PWs)   bands (ev):

   -56.2999 -56.2995 -56.2901 -56.2884 -56.2712 -56.2697 -56.2488 -56.2488
   -55.8038 -55.8022 -32.7626 -32.7622 -32.7491 -32.7475 -32.7382 -32.7381
   -32.7256 -32.7248 -32.5410 -32.5408 -32.5285 -32.5281 -32.5107 -32.5107
   -32.4942 -32.4939 -32.4793 -32.4790 -32.4722 -32.4717 -32.4677 -32.4672
   -32.4550 -32.4545 -32.2572 -32.2558 -32.1937 -32.1924 -32.0236 -32.0222
   -16.4053 -16.4050 -16.3542 -16.3525 -16.3110 -16.3100 -16.2558 -16.2553
   -16.1600 -16.1589 -16.0781 -16.0778 -16.0181 -16.0177 -15.9696 -15.9682
   -15.8817 -15.8807 -15.4452 -15.4439  -4.0413  -4.0400  -4.0179  -4.0166
    -3.9656  -3.9648  -3.8996  -3.8979  -3.8716  -3.8704  -3.7786  -3.7775
    -3.6844  -3.6838  -3.6155  -3.6147  -3.5222  -3.5207  -3.3525  -3.3514
    -2.8296  -2.8291  -2.7896  -2.7885  -2.7260  -2.7243  -2.5820  -2.5820
    -2.1306  -2.1297  -2.0324  -2.0315  -1.9105  -1.9097  -1.7852  -1.7841
    -1.7077  -1.7066  -1.5421  -1.5411  -1.3337  -1.3327  -1.2561  -1.2539
    -1.1145  -1.1129  -0.9605  -0.9599  -0.7427  -0.7412  -0.5300  -0.5295
    -0.4929  -0.4927  -0.4604  -0.4595  -0.4348  -0.4330  -0.3466  -0.3465
     2.9673   2.9679   3.0750   3.0755   3.2077   3.2084   3.3403   3.3414
     3.3833   3.3845   3.5955   3.5968   3.6910   3.6925   3.7882   3.7893
     3.8585   3.8595   3.9187   3.9203   3.9990   3.9995   4.1158   4.1177

          k =-0.5000 0.7110 0.0000 ( 97912 PWs)   bands (ev):

   -56.2910 -56.2906 -56.2812 -56.2795 -56.2623 -56.2608 -56.2399 -56.2399
   -55.7944 -55.7928 -32.8566 -32.8562 -32.8432 -32.8415 -32.8328 -32.8327
   -32.8200 -32.8192 -32.5055 -32.5053 -32.5002 -32.4998 -32.4912 -32.4911
   -32.4804 -32.4799 -32.4732 -32.4717 -32.4666 -32.4665 -32.4623 -32.4620
   -32.4534 -32.4525 -32.3481 -32.3469 -32.1921 -32.1907 -32.0053 -32.0038
   -16.4564 -16.4560 -16.3837 -16.3818 -16.3244 -16.3232 -16.2595 -16.2574
   -16.0360 -16.0352 -15.9643 -15.9628 -15.9138 -15.9131 -15.8502 -15.8494
   -15.7905 -15.7889 -15.3530 -15.3519  -4.2749  -4.2740  -4.2391  -4.2385
    -4.1774  -4.1767  -4.0773  -4.0760  -3.9418  -3.9417  -3.7356  -3.7354
    -3.5685  -3.5667  -3.4467  -3.4443  -3.3851  -3.3837  -3.3018  -3.2990
    -2.8812  -2.8811  -2.8128  -2.8121  -2.6953  -2.6948  -2.5850  -2.5843
    -2.1507  -2.1500  -2.0542  -2.0537  -2.0023  -2.0018  -1.9530  -1.9523
    -1.8643  -1.8639  -1.4022  -1.4009  -1.2280  -1.2263  -1.0720  -1.0710
    -0.9319  -0.9298  -0.7909  -0.7889  -0.7504  -0.7501  -0.6067  -0.6055
    -0.5295  -0.5279  -0.4227  -0.4217  -0.3582  -0.3579  -0.2723  -0.2718
     2.7234   2.7240   2.8836   2.8839   3.0799   3.0803   3.2892   3.2900
     3.6949   3.6952   3.7572   3.7579   3.8086   3.8090   3.8288   3.8308
     3.8540   3.8550   3.9477   3.9481   4.0558   4.0573   4.1620   4.1630

     the Fermi energy is     1.5225 ev

!    total energy              =   -1796.56625500 Ry
     estimated scf accuracy    <       0.00000003 Ry
     smearing contrib. (-TS)   =      -0.00000000 Ry
     internal energy E=F+TS    =   -1796.56625500 Ry

     The total energy is F=E-TS. E is the sum of the following terms:
     one-electron contribution =  -55138.57413740 Ry
     hartree contribution      =   27607.11891344 Ry
     xc contribution           =    -283.42780162 Ry
     ewald contribution        =   26018.31677058 Ry

     convergence has been achieved in  27 iterations

     Forces acting on atoms (cartesian axes, Ry/au):

     atom    1 type  1   force =     0.00043380    0.00000000   -0.00003903
     atom    2 type  1   force =    -0.00032193    0.00000000   -0.00051271
     atom    3 type  1   force =     0.00034935    0.00000000    0.00016985
     atom    4 type  1   force =     0.00049139    0.00000000   -0.00054929
     atom    5 type  1   force =    -0.00007039    0.00000000   -0.00026439
     atom    6 type  1   force =     0.00000169    0.00000000    0.00009279
     atom    7 type  1   force =     0.00058323    0.00000000    0.00039377
     atom    8 type  1   force =     0.00037314    0.00000000   -0.00002698
     atom    9 type  1   force =    -0.00033385    0.00000000    0.00056693
     atom   10 type  1   force =     0.00053418    0.00000000    0.00018086
     atom   11 type  2   force =     0.00014246    0.00000000    0.00032410
     atom   12 type  2   force =     0.00016086    0.00000000   -0.00029278
     atom   13 type  2   force =    -0.00037037    0.00000000   -0.00024085
     atom   14 type  2   force =     0.00040389    0.00000000    0.00021174
     atom   15 type  2   force =     0.00002147    0.00000000   -0.00011559
     atom   16 type  2   force =    -0.00040650    0.00000000   -0.00038159
     atom   17 type  2   force =    -0.00056132    0.00000000   -0.00039977
     atom   18 type  2   force =     0.00047157    0.00000000    0.00029866
     atom   19 type  2   force =    -0.00060331    0.00000000   -0.00009078
     atom   20 type  2   force =    -0.00017268    0.00000000    0.00033637
     atom   21 type  2   force =     0.00064471    0.00000000   -0.00042998
     atom   22 type  2   force =    -0.00042503    0.00000000    0.00030619
     atom   23 type  2   force =    -0.00012653    0.00000000   -0.00046963
     atom   24 type  2   force =    -0.00051422    0.00000000   -0.00009144
     atom   25 type  2   force =    -0.00013712    0.00000000    0.00045545
     atom   26 type  2   force =    -0.00071786    0.00000000    0.00001276
     atom   27 type  2   force =    -0.00039705    0.00000000    0.00038638
     atom   28 type  2   force =     0.00039450    0.00000000   -0.00011226
     atom   29 type  2   force =     0.00000339    0.00000000    0.00003397
     atom   30 type  2   force =     0.00014854    0.00000000    0.00024726

     Total force =     0.002770     Total SCF correction =     0.000707
     SCF correction compared to forces is large: reduce conv_thr to get better values


     Computing stress (Cartesian axis) and pressure

          total   stress  (Ry/bohr**3)                   (kbar)     P=        0.44
  -0.00000033   0.00000000   0.00000060           -0.05        0.00        0.09
   0.00000000  -0.00000002   0.00000000            0.00       -0.00        0.00
   0.00000060   0.00000000   0.00000932            0.09        0.00        1.37


     Writing all to output data dir ./Out/pwscf.save/
 
     init_run     :     18.41s CPU     20.74s WALL (       2 calls)
     electrons    :    379.92s CPU    381.46s WALL (       2 calls)
     forces       :      4.28s CPU      4.11s WALL (       2 calls)
     stress       :     16.05s CPU     16.13s WALL (       2 calls)

     Called by init_run:
     wfcinit      :     13.27s CPU     15.26s WALL (       2 calls)
     potinit      :      0.13s CPU      0.10s WALL (       2 calls)
     hinit0       :      4.19s CPU      4.09s WALL (       2 calls)

     Called by electrons:
     c_bands      :    306.75s CPU    308.03s WALL (      44 calls)
     sum_band     :     66.31s CPU     66.51s WALL (      44 calls)
     v_of_rho     :      1.20s CPU      0.91s WALL (      46 calls)
     mix_rho      :      4.98s CPU      5.27s WALL (      44 calls)

     Called by c_bands:
     init_us_2    :      3.08s CPU      3.09s WALL (    1880 calls)
     init_us_2:gp :      3.01s CPU      3.03s WALL (    1880 calls)
     cegterg      :    228.81s CPU    229.56s WALL (     926 calls)

     Called by *egterg:
     cdiaghg      :     30.49s CPU     31.56s WALL (    7930 calls)
                                       31.51s GPU  (    7930 calls)
     h_psi        :    154.28s CPU    155.04s WALL (    8010 calls)
                                      154.72s GPU  (    8010 calls)
     g_psi        :      0.03s CPU      2.51s WALL (    7044 calls)
                                        2.46s GPU  (    7044 calls)

     Called by h_psi:
     h_psi:calbec :      0.36s CPU      9.45s WALL (    8010 calls)
                                        9.40s GPU  (    8010 calls)
     vloc_psi     :    129.04s CPU    129.61s WALL (    8010 calls)
                                      129.55s GPU  (    8010 calls)
     add_vuspsi   :      6.12s CPU     14.61s WALL (    8010 calls)
                                       14.55s GPU  (    8010 calls)

     General routines
     calbec       :      0.28s CPU      0.34s WALL (    8210 calls)
     fft          :      0.03s CPU      0.16s WALL (     474 calls)
                                        0.16s GPU  (     474 calls)
     ffts         :      0.00s CPU      0.01s WALL (      44 calls)
                                        0.01s GPU  (      44 calls)
     fftw         :      0.59s CPU    111.12s WALL (   65974 calls)
                                      110.65s GPU  (   65974 calls)
 
 
     PWSCF        :   7m 0.08s CPU   7m 6.01s WALL

 
   This run was terminated on:  15: 0:54  26Jul2026            

=------------------------------------------------------------------------------=
   JOB DONE.
=------------------------------------------------------------------------------=
