../../../03-100-interface/01-converge-slab-layers/5_layer/output final
1.0
   4.732199496   0.000000000   0.000000000
   0.000000000   2.957907197   0.000000000
   0.000000000   0.000000000  46.665416718
   Ti    O
   10   20
Cartesian
              0.1626246691        0.0000000000       14.6071520272
              2.4873903138        1.4789535108       16.8388827495
              0.0998267484        0.0000000000       19.2037208081
              2.4574386012        1.4789535108       21.4653196590
              0.0870352791        0.0000000000       23.8008600396
              2.4519220448        1.4789535108       26.0604870700
              0.0895469231        0.0000000000       28.3952842108
              2.4646483006        1.4789535108       30.6558762029
              0.1201775754        0.0000000000       33.0175386761
              2.5272767751        1.4789535108       35.2499071329
              0.6177217028        1.4789535988       13.6023432084
              1.4255885857        0.0000000000       15.9438872396
              3.2530714170        0.0000000000       17.7692797787
              0.8706787677        1.4789535988       18.2642825503
              3.6928775186        1.4789535988       15.4270796325
              1.4613631581        0.0000000000       20.5595649095
              3.2530834562        0.0000000000       22.3996743608
              0.8841338898        1.4789535988       22.8664337216
              3.8205352248        1.4789535988       20.1057972904
              1.4644328498        0.0000000000       25.1515267858
              3.2446278618        0.0000000000       26.9988296026
              0.8802325807        1.4789535988       27.4564838000
              3.8294242641        1.4789535988       24.7085276096
              1.4549037311        0.0000000000       29.7529217274
              3.2363386494        0.0000000000       31.5948147928
              0.8854905076        1.4789535988       32.0861268820
              3.8287860106        1.4789535988       29.3036118437
              1.3279113587        0.0000000000       34.4267485825
              2.9794289560        0.0000000000       36.2559964617
              3.7939717516        1.4789535988       33.9167303343
