Ti O  Ti O  Ti O  Ti O 
1.0
        5.4640631676         0.0000000000         0.0000000000
        0.0000000000         4.5936999321         0.0000000000
        0.0000000000         0.0000000000        29.1915378571
   Ti    O
    6   12
Cartesian
     3.861975659         0.000000000        12.487411717
     1.129944238         2.296849829        12.487411717
     2.259888476         0.000000000        14.974824267
     4.991919734         2.296849829        14.974824267
     0.657801333         0.000000000        17.462237687
     3.389832550         2.296849829        17.462237687
     2.684922762         3.193631764        11.729299301
     5.416954346         3.696917313        11.729299301
     5.039028881         1.400067895        13.245527614
     1.082835742         3.193632037        14.216712720
     2.306997135         0.896782003        13.245525874
     3.814866837         3.696917313        14.216710980
     3.436941372         1.400067758        15.732936684
     4.944811563         3.193632037        16.704127010
     0.704910114         0.896782071        15.732938424
     2.212779816         3.696917313        16.704123530
     1.834854189         1.400067758        18.220350103
     4.566886424         0.896782071        18.220351843
