Ti O  Ti O  Ti O  Ti O  Ti O 
1.0
        5.4640631676         0.0000000000         0.0000000000
        0.0000000000         4.5936999321         0.0000000000
        0.0000000000         0.0000000000        31.6789493561
   Ti    O
    8   16
Cartesian
     3.861975659         0.000000000        12.487411235
     1.129944238         2.296849829        12.487411235
     2.259888476         0.000000000        14.974824399
     4.991919734         2.296849829        14.974824399
     0.657801333         0.000000000        17.462236620
     3.389832550         2.296849829        17.462236620
     4.519776951         0.000000000        19.949648841
     1.787745530         2.296849829        19.949648841
     2.684922762         3.193631764        11.729298627
     5.416954346         3.696917313        11.729298627
     5.039028881         1.400067895        13.245526674
     1.082835742         3.193632037        14.216712736
     2.306997135         0.896782003        13.245524786
     3.814866837         3.696917313        14.216710848
     3.436941372         1.400067758        15.732937007
     4.944811563         3.193632037        16.704124957
     0.704910114         0.896782071        15.732937951
     2.212779816         3.696917313        16.704123068
     1.834854189         1.400067758        18.220350172
     3.342724054         3.193631764        19.191535289
     4.566885773         0.896782003        18.220350172
     0.610692511         3.696917313        19.191535289
     0.232767291         1.400067895        20.707766169
     2.964798264         0.896782003        20.707762392
