Ti O  Ti O  Ti O  Ti O  Ti O  Ti O  Ti O 
1.0
        5.4640631676         0.0000000000         0.0000000000
        0.0000000000         4.5936999321         0.0000000000
        0.0000000000         0.0000000000        36.6537742615
   Ti    O
   12   24
Cartesian
     3.861975659         0.000000000        12.487411112
     1.129944238         2.296849829        12.487411112
     2.259888476         0.000000000        14.974823890
     4.991919734         2.296849829        14.974823890
     0.657801333         0.000000000        17.462237760
     3.389832550         2.296849829        17.462237760
     4.519776951         0.000000000        19.949649445
     1.787745530         2.296849829        19.949649445
     2.917689768         0.000000000        22.437060039
     0.185658449         2.296849829        22.437060039
     1.315602666         0.000000000        24.924472816
     4.047633843         2.296849829        24.924472816
     2.684922762         3.193631764        11.729298168
     5.416954346         3.696917313        11.729298168
     5.039028881         1.400067895        13.245527333
     1.082835742         3.193632037        14.216712038
     2.306997135         0.896782003        13.245525148
     3.814866837         3.696917313        14.216709854
     3.436941372         1.400067758        15.732936833
     4.944811563         3.193632037        16.704124816
     0.704910114         0.896782071        15.732937926
     2.212779816         3.696917313        16.704123724
     1.834854189         1.400067758        18.220350704
     3.342724054         3.193631764        19.191535409
     4.566885773         0.896782003        18.220350704
     0.610692511         3.696917313        19.191535409
     0.232767291         1.400067895        20.707765666
     1.740636871         3.193631764        21.678946002
     2.964798264         0.896782003        20.707763482
     4.472668781         3.696917587        21.678948187
     4.094743316         1.400067895        23.195176259
     0.138549759         3.193632037        24.166360965
     1.362711325         0.896782003        23.195174075
     2.870580946         3.696917313        24.166358780
     2.492655644         1.400067758        25.682586853
     5.224687065         0.896782071        25.682589037
