Ti O  Ti O  Ti O  Ti O  Ti O  Ti O  Ti O  Ti O  Ti O 
1.0
        5.4640631676         0.0000000000         0.0000000000
        0.0000000000         4.5936999321         0.0000000000
        0.0000000000         0.0000000000        41.6286010742
   Ti    O
   16   32
Cartesian
     3.861975659         0.000000000        12.487410905
     1.129944238         2.296849829        12.487410905
     2.259888476         0.000000000        14.974824886
     4.991919734         2.296849829        14.974824886
     0.657801333         0.000000000        17.462237626
     3.389832550         2.296849829        17.462237626
     4.519776951         0.000000000        19.949650366
     1.787745530         2.296849829        19.949650366
     2.917689768         0.000000000        22.437060625
     0.185658449         2.296849829        22.437060625
     1.315602666         0.000000000        24.924474605
     4.047633843         2.296849829        24.924474605
     5.177578243         0.000000000        27.411888586
     2.445546985         2.296849829        27.411888586
     3.575491060         0.000000000        29.899300085
     0.843459802         2.296849829        29.899300085
     2.684922762         3.193631764        11.729298508
     5.416954346         3.696917313        11.729298508
     5.039028881         1.400067895        13.245525784
     1.082835742         3.193632037        14.216712489
     2.306997135         0.896782003        13.245524543
     3.814866837         3.696917313        14.216711248
     3.436941372         1.400067758        15.732937283
     4.944811563         3.193632037        16.704123988
     0.704910114         0.896782071        15.732939765
     2.212779816         3.696917313        16.704122747
     1.834854189         1.400067758        18.220351264
     3.342724054         3.193631764        19.191536728
     4.566885773         0.896782003        18.220351264
     0.610692511         3.696917313        19.191536728
     0.232767291         1.400067895        20.707765245
     1.740636871         3.193631764        21.678946986
     2.964798264         0.896782003        20.707764004
     4.472668781         3.696917587        21.678949468
     4.094743316         1.400067895        23.195176744
     0.138549759         3.193632037        24.166365930
     1.362711325         0.896782003        23.195174263
     2.870580946         3.696917313        24.166360967
     2.492655644         1.400067758        25.682588243
     4.000525021         3.193631764        26.653772466
     5.224686740         0.896782003        25.682588243
     1.268494170         3.696917313        26.653772466
     0.890568624         1.400067895        28.170004705
     2.398438326         3.193631764        29.141183966
     3.622599882         0.896782003        28.169999742
     5.130470073         3.696917587        29.141188928
     4.752544608         1.400067895        30.657418686
     2.020512699         0.896782003        30.657413723
