Ti O  Ti O  Ti O  Ti O  Ti O  Ti O  Ti O  Ti O  Ti O 
 1.0000000000000000
     5.4640630834572175    0.0000000000000000    0.0000000000000000
     0.0000000000000000    4.5937000000000001    0.0000000000000000
     0.0000000000000000    0.0000000000000000   41.6286011070203443
 Ti  O   Ti  O   Ti  O   Ti  O   Ti  O   Ti  O   Ti  O   Ti  O   Ti  O  
   2   4   2   4   2   4   2   4   2   4   2   4   2   4   2   4   2   4
Cartesian
  0.0000000000000000  0.0000000000000000  9.9999999999999982
  2.7320315417286083  2.2968499999999983  9.9999999999999982
  1.1770530006122975  1.4000678859999995 10.7581136584695560
  2.6849228528305047  3.1936321139999984 11.7292990932515409
  3.9090845423409064  0.8967821139999996 10.7581136584695560
  5.4169543945591139  3.6969178859999987 11.7292990932515426
  3.8619758534428028  0.0000000000000000 12.4874127517210987
  1.1299443117141936  2.2968499999999983 12.4874127517210987
  5.0390288540551005  1.4000678859999995 13.2455264101906565
  1.0828356228160911  3.1936321139999984 14.2167118449726431
  2.3069973123264909  0.8967821139999996 13.2455264101906565
  3.8148671645446997  3.6969178859999987 14.2167118449726431
  2.2598886234283881  0.0000000000000000 14.9748255034422009
  4.9919201651569960  2.2968499999999983 14.9748255034421991
  3.4369416240406854  1.4000678859999995 15.7329391619117587
  4.9448114762588933  3.1936321139999984 16.7041245966937417
  0.7049100823120780  0.8967821139999996 15.7329391619117587
  2.2127799345302837  3.6969178859999987 16.7041245966937417
  0.6578013934139719  0.0000000000000000 17.4622382551632995
  3.3898329351425831  2.2968499999999983 17.4622382551632995
  1.8348543940262718  1.4000678859999995 18.2203519136328573
  3.3427242462444768  3.1936321139999984 19.1915373484148404
  4.5668859357548799  0.8967821139999996 18.2203519136328573
  0.6106927045158682  3.6969178859999987 19.1915373484148475
  4.5197772468567763  0.0000000000000000 19.9496510068844017
  1.7877457051281658  2.2968499999999983 19.9496510068844017
  0.2327671640118563  1.4000678859999995 20.7077646653539560
  1.7406370162300617  3.1936321139999984 21.6789501001359461
  2.9647987057404652  0.8967821139999996 20.7077646653539595
  4.4726685579586682  3.6969178859999987 21.6789501001359461
  2.9176900168423590  0.0000000000000000 22.4370637586055075
  0.1856584751137478  2.2968499999999983 22.4370637586055075
  4.0947430174546557  1.4000678859999995 23.1951774170750582
  0.1385497862156515  3.1936321139999984 24.1663628518570448
  1.3627114757260501  0.8967821139999996 23.1951774170750582
  2.8705813279442554  3.6969178859999987 24.1663628518570448
  1.3156027868279438  0.0000000000000000 24.9244765103266062
  4.0476343285565521  2.2968499999999983 24.9244765103266062
  2.4926557874402411  1.4000678859999995 25.6825901687961604
  4.0005256396584512  3.1936321139999984 26.6537756035781470
  5.2246873291688543  0.8967821139999996 25.6825901687961604
  1.2684940979298427  3.6969178859999987 26.6537756035781470
  5.1775786402707489  0.0000000000000000 27.4118892620477013
  2.4455470985421397  2.2968499999999983 27.4118892620477013
  0.8905685574258331  1.4000678859999995 28.1700029205172662
  2.3984384096440339  3.1936321139999984 29.1411883552992421
  3.6226000991544369  0.8967821139999996 28.1700029205172662
  5.1304699513726471  3.6969178859999987 29.1411883552992492
  3.5754914102563355  0.0000000000000000 29.8993020137688035
  0.8434598685277270  2.2968499999999983 29.8993020137688035
  4.7525444108686328  1.4000678859999995 30.6574156722383648
  0.7963511796296211  3.1936321139999984 31.6286011070203443
  2.0205128691400240  0.8967821139999996 30.6574156722383542
  3.5283827213582395  3.6969178859999987 31.6286011070203443
