Ti O  Ti O  Ti O  Ti O 
 1.0000000000000000
     5.4640630834572175    0.0000000000000000    0.0000000000000000
     0.0000000000000000    4.5937000000000001    0.0000000000000000
     0.0000000000000000    0.0000000000000000   29.1915373484148404
 Ti  O   Ti  O   Ti  O   Ti  O  
   2   4   2   4   2   4   2   4
Cartesian
  0.0000000000000000  0.0000000000000000 10.0000000000000000
  2.7320315417286083  2.2968499999999983 10.0000000000000000
  1.1770530006122975  1.4000678859999995 10.7581136584695560
  2.6849228528305047  3.1936321139999984 11.7292990932515426
  3.9090845423409064  0.8967821139999996 10.7581136584695560
  5.4169543945591139  3.6969178859999987 11.7292990932515426
  3.8619758534428028  0.0000000000000000 12.4874127517210987
  1.1299443117141936  2.2968499999999983 12.4874127517210987
  5.0390288540551005  1.4000678859999995 13.2455264101906565
  1.0828356228160911  3.1936321139999984 14.2167118449726431
  2.3069973123264909  0.8967821139999996 13.2455264101906565
  3.8148671645446997  3.6969178859999987 14.2167118449726431
  2.2598886234283881  0.0000000000000000 14.9748255034421991
  4.9919201651569960  2.2968499999999983 14.9748255034421955
  3.4369416240406854  1.4000678859999995 15.7329391619117533
  4.9448114762588933  3.1936321139999984 16.7041245966937417
  0.7049100823120780  0.8967821139999996 15.7329391619117533
  2.2127799345302837  3.6969178859999987 16.7041245966937382
  0.6578013934139719  0.0000000000000000 17.4622382551632995
  3.3898329351425831  2.2968499999999983 17.4622382551632995
  1.8348543940262718  1.4000678859999995 18.2203519136328538
  3.3427242462444768  3.1936321139999984 19.1915373484148404
  4.5668859357548799  0.8967821139999996 18.2203519136328538
  0.6106927045158682  3.6969178859999987 19.1915373484148404
