Ti O  Ti O  Ti O  Ti O  Ti O  Ti O 
 1.0000000000000000
     5.4640630834572175    0.0000000000000000    0.0000000000000000
     0.0000000000000000    4.5937000000000001    0.0000000000000000
     0.0000000000000000    0.0000000000000000   34.1663628518570448
 Ti  O   Ti  O   Ti  O   Ti  O   Ti  O   Ti  O  
   2   4   2   4   2   4   2   4   2   4   2   4
Cartesian
  0.0000000000000000  0.0000000000000000 10.0000000000000000
  2.7320315417286083  2.2968499999999983 10.0000000000000000
  1.1770530006122975  1.4000678859999995 10.7581136584695560
  2.6849228528305047  3.1936321139999984 11.7292990932515409
  3.9090845423409060  0.8967821139999996 10.7581136584695560
  5.4169543945591139  3.6969178859999987 11.7292990932515426
  3.8619758534428024  0.0000000000000000 12.4874127517211004
  1.1299443117141936  2.2968499999999983 12.4874127517211004
  5.0390288540551005  1.4000678859999995 13.2455264101906547
  1.0828356228160898  3.1936321139999984 14.2167118449726431
  2.3069973123264909  0.8967821139999996 13.2455264101906547
  3.8148671645446997  3.6969178859999987 14.2167118449726448
  2.2598886234283873  0.0000000000000000 14.9748255034421991
  4.9919201651569942  2.2968499999999983 14.9748255034421991
  3.4369416240406854  1.4000678859999995 15.7329391619117587
  4.9448114762588924  3.1936321139999984 16.7041245966937453
  0.7049100823120755  0.8967821139999996 15.7329391619117587
  2.2127799345302837  3.6969178859999987 16.7041245966937453
  0.6578013934139719  0.0000000000000000 17.4622382551633031
  3.3898329351425804  2.2968499999999983 17.4622382551633031
  1.8348543940262692  1.4000678859999995 18.2203519136328609
  3.3427242462444746  3.1936321139999984 19.1915373484148439
  4.5668859357548781  0.8967821139999996 18.2203519136328609
  0.6106927045158682  3.6969178859999987 19.1915373484148475
  4.5197772468567745  0.0000000000000000 19.9496510068844017
  1.7877457051281633  2.2968499999999983 19.9496510068844017
  0.2327671640118539  1.4000678859999995 20.7077646653539560
  1.7406370162300617  3.1936321139999984 21.6789501001359426
  2.9647987057404626  0.8967821139999996 20.7077646653539595
  4.4726685579586682  3.6969178859999987 21.6789501001359426
  2.9176900168423567  0.0000000000000000 22.4370637586055004
  0.1856584751137430  2.2968499999999983 22.4370637586055004
  4.0947430174546540  1.4000678859999995 23.1951774170750582
  0.1385497862156466  3.1936321139999984 24.1663628518570412
  1.3627114757260450  0.8967821139999996 23.1951774170750618
  2.8705813279442505  3.6969178859999987 24.1663628518570412
