../04-vc-relax-with-consistent-param/output final structure
1.0
   4.528297631   0.000000000   0.000000000
   0.000000000   4.528297631   0.000000000
   0.000000000   0.000000000   3.117599810
Ru O
2  4
Cartesian
               0.0000000000        0.0000000000        0.0000000000
               2.2641488158        2.2641488158        1.5587999047
               1.3839783504        1.3839783504        0.0000000000
               3.1443192813        3.1443192813        0.0000000000
               3.6481271662        0.8801704654        1.5587999047
               0.8801704654        3.6481271662        1.5587999047
