../../../04-101-interface/01-converge-slab-layers/3_layer/output final
1.0
   5.503173500   0.000000000   0.000000000
   0.000000000   4.605219257   0.000000000
   0.000000000   0.000000000  29.191537857
   Ti    O
    6   12
Cartesian
               4.0119903059       -0.1692227767       12.5476462645
               1.2604037200        2.4718322679       12.5476462645
               2.2756490947       -0.0001938598       14.9744722023
               5.0272355164        2.3028033510       14.9744722023
               0.5392551462        0.1696194426       17.4016670122
               3.2908415266        2.1329900487       17.4016670122
               2.6323971209        3.3183373826       11.7671054772
               5.3839838709        3.5894906801       11.7671054772
               5.0213102218        1.3901501382       13.2403917709
               1.1012477182        3.2100574754       14.2436962361
               2.2697233087        0.9124594223       13.2403900309
               3.8528339757        3.6977708609       14.2436944961
               3.4512502361        1.3944984936       15.7064498372
               5.0354208925        3.2138937909       16.7080330278
               0.6996638145        0.9081109976       15.7064515772
               2.2838339783        3.6939345455       16.7080295478
               1.9192307809        1.2877427409       18.1839652748
               4.6708181866        1.0148667504       18.1839670148
