../7_layer/output final
1.0
        4.7124180794         0.0000000000         0.0000000000
        0.0000000000         2.9626882076         0.0000000000
        0.0000000000         0.0000000000        55.8528175354
   Ti    O   Ru
   12   28    2
Selective dynamics
Cartesian
     2.471433580         1.481344016        16.841037272 T T T
     0.090149905         0.000000000        19.202894911 T T T
     2.436495510         1.481344016        21.466614385 T T T
     0.073355619         0.000000000        23.799282587 T T T
     2.422916550         1.481344016        26.064375309 T T T
     0.063951154         0.000000000        28.389757803 F F F
     2.421045314         1.481344016        30.655471400 F F F
     0.067564249         0.000000000        32.981411516 T T T
     2.429734118         1.481344016        35.246662370 T T T
     0.080960007         0.000000000        37.579720075 T T T
     2.447264526         1.481344016        39.844448262 T T T
     0.116723563         0.000000000        42.206405775 T T T
     0.616691119         1.481344016        13.601317608 T T T
     1.411156533         0.000000000        15.948315866 T T T
     3.244705112         0.000000000        17.762245677 T T T
     0.872348727         1.481344016        18.273841511 T T T
     3.668546227         1.481344016        15.423992932 T T T
     1.441523810         0.000000000        20.567852351 T T T
     3.244427881         0.000000000        22.391742791 T T T
     0.888145602         1.481344016        22.875296058 T T T
     3.791175379         1.481344016        20.097424011 T T T
     1.443855552         0.000000000        25.162179321 T T T
     3.229715563         0.000000000        26.996126934 T T T
     0.873154788         1.481344016        27.457921286 T T T
     3.800145626         1.481344016        24.701558473 T T T
     1.444991158         0.000000000        29.749759896 T T T
     3.234428763         0.000000000        31.583620953 T T T
     0.877434096         1.481344016        32.052319832 T T T
     3.801306793         1.481344016        29.295825520 T T T
     1.443467935         0.000000000        34.345604930 T T T
     3.244201771         0.000000000        36.171010105 T T T
     0.887641418         1.481344016        36.653647873 T T T
     3.799303542         1.481344016        33.881966264 T T T
     1.436410213         0.000000000        38.948294568 T T T
     3.228099929         0.000000000        40.775087973 T T T
     0.889619109         1.481344016        41.285307229 T T T
     3.799085016         1.481344016        38.479695562 T T T
     1.316261531         0.000000000        43.621587490 T T T
     2.974933113         0.000000000        45.446709693 T T T
     3.769399159         1.481344016        43.099333583 T T T
     0.157589306         0.000000000        14.603784042 T T T
     2.515952254         1.481344016        44.443945305 T T T
