
     Program PWSCF v.7.1 starts on 13Jul2026 at 14: 5:38 

     This program is part of the open-source Quantum ESPRESSO suite
     for quantum simulation of materials; please cite
         "P. Giannozzi et al., J. Phys.:Condens. Matter 21 395502 (2009);
         "P. Giannozzi et al., J. Phys.:Condens. Matter 29 465901 (2017);
         "P. Giannozzi et al., J. Chem. Phys. 152 154105 (2020);
          URL http://www.quantum-espresso.org", 
     in publications or presentations arising from this work. More details at
     http://www.quantum-espresso.org/quote

     Parallel version (MPI), running on    36 processors

     MPI processes distributed on     1 nodes
     162257 MiB available memory on the printing compute node when the environment starts
 
     Waiting for input...
     Reading input from standard input

     Current dimensions of program PWSCF are:
     Max number of different atomic species (ntypx) = 10
     Max number of k-points (npk) =  40000
     Max angular momentum in pseudopotentials (lmaxx) =  4
     Message from routine setup:
     using ibrav=0 with symmetry is DISCOURAGED, use correct ibrav instead
 
     K-points division:     npool     =       3
     R & G space division:  proc/nbgrp/npool/nimage =      12
     Subspace diagonalization in iterative solution of the eigenvalue problem:
     a serial algorithm will be used

 
     Parallelization info
     --------------------
     sticks:   dense  smooth     PW     G-vecs:    dense   smooth      PW
     Min         114     114     35                 2214     2214     362
     Max         115     115     36                 2217     2217     363
     Sum        1369    1369    421                26589    26589    4355
 
     Using Slab Decomposition
 


     bravais-lattice index     =            0
     lattice parameter (alat)  =       8.4977  a.u.
     unit-cell volume          =     423.6931 (a.u.)^3
     number of atoms/cell      =            6
     number of atomic types    =            2
     number of electrons       =        56.00
     number of Kohn-Sham states=           28
     kinetic-energy cutoff     =      60.0000  Ry
     charge density cutoff     =     240.0000  Ry
     scf convergence threshold =      1.0E-06
     mixing beta               =       0.7000
     number of iterations used =            8  plain     mixing
     Exchange-correlation= PBE
                           (   1   4   3   4   0   0   0)

     celldm(1)=   8.497720  celldm(2)=   0.000000  celldm(3)=   0.000000
     celldm(4)=   0.000000  celldm(5)=   0.000000  celldm(6)=   0.000000

     crystal axes: (cart. coord. in units of alat)
               a(1) = (   1.000000   0.000000   0.000000 )  
               a(2) = (   0.000000   1.000000   0.000000 )  
               a(3) = (   0.000000   0.000000   0.690469 )  

     reciprocal axes: (cart. coord. in units 2 pi/alat)
               b(1) = (  1.000000  0.000000  0.000000 )  
               b(2) = (  0.000000  1.000000  0.000000 )  
               b(3) = (  0.000000  0.000000  1.448291 )  


     PseudoPot. # 1 for Ru read from file:
     ./Ru_ONCV_PBE-1.2.upf
     MD5 check sum: 197966c748556f6a714a34a8c7eb0781
     Pseudo is Norm-conserving, Zval = 16.0
     Generated using ONCVPSP code by D. R. Hamann
     Using radial grid of  602 points,  6 beta functions with: 
                l(1) =   0
                l(2) =   0
                l(3) =   1
                l(4) =   1
                l(5) =   2
                l(6) =   2

     PseudoPot. # 2 for O  read from file:
     ./O_ONCV_PBE-1.2.upf
     MD5 check sum: e36c48deb68f4e355fffe4602be2c42c
     Pseudo is Norm-conserving, Zval =  6.0
     Generated using ONCVPSP code by D. R. Hamann
     Using radial grid of  602 points,  4 beta functions with: 
                l(1) =   0
                l(2) =   0
                l(3) =   1
                l(4) =   1

     atomic species   valence    mass     pseudopotential
        Ru            16.00   101.07000     Ru( 1.00)
        O              6.00    15.99900     O ( 1.00)

     16 Sym. Ops., with inversion, found ( 8 have fractional translation)



   Cartesian axes

     site n.     atom                  positions (alat units)
         1           Ru  tau(   1) = (   0.0000000   0.0000000   0.0000000  )
         2           Ru  tau(   2) = (   0.5000000   0.5000000   0.3452344  )
         3           O   tau(   3) = (   0.3053000   0.3053000   0.0000000  )
         4           O   tau(   4) = (   0.6947000   0.6947000   0.0000000  )
         5           O   tau(   5) = (   0.8053000   0.1947000   0.3452344  )
         6           O   tau(   6) = (   0.1947000   0.8053000   0.3452344  )

     number of k points=    50
                       cart. coord. in units 2pi/alat
        k(    1) = (   0.0000000   0.0000000   0.0000000), wk =   0.0069444
        k(    2) = (   0.0000000   0.0000000   0.1810364), wk =   0.0138889
        k(    3) = (   0.0000000   0.0000000   0.3620729), wk =   0.0138889
        k(    4) = (   0.0000000   0.0000000   0.5431093), wk =   0.0138889
        k(    5) = (   0.0000000   0.0000000  -0.7241457), wk =   0.0069444
        k(    6) = (   0.0000000   0.1666667   0.0000000), wk =   0.0277778
        k(    7) = (   0.0000000   0.1666667   0.1810364), wk =   0.0555556
        k(    8) = (   0.0000000   0.1666667   0.3620729), wk =   0.0555556
        k(    9) = (   0.0000000   0.1666667   0.5431093), wk =   0.0555556
        k(   10) = (   0.0000000   0.1666667  -0.7241457), wk =   0.0277778
        k(   11) = (   0.0000000   0.3333333   0.0000000), wk =   0.0277778
        k(   12) = (   0.0000000   0.3333333   0.1810364), wk =   0.0555556
        k(   13) = (   0.0000000   0.3333333   0.3620729), wk =   0.0555556
        k(   14) = (   0.0000000   0.3333333   0.5431093), wk =   0.0555556
        k(   15) = (   0.0000000   0.3333333  -0.7241457), wk =   0.0277778
        k(   16) = (   0.0000000  -0.5000000   0.0000000), wk =   0.0138889
        k(   17) = (   0.0000000  -0.5000000   0.1810364), wk =   0.0277778
        k(   18) = (   0.0000000  -0.5000000   0.3620729), wk =   0.0277778
        k(   19) = (   0.0000000  -0.5000000   0.5431093), wk =   0.0277778
        k(   20) = (   0.0000000  -0.5000000  -0.7241457), wk =   0.0138889
        k(   21) = (   0.1666667   0.1666667   0.0000000), wk =   0.0277778
        k(   22) = (   0.1666667   0.1666667   0.1810364), wk =   0.0555556
        k(   23) = (   0.1666667   0.1666667   0.3620729), wk =   0.0555556
        k(   24) = (   0.1666667   0.1666667   0.5431093), wk =   0.0555556
        k(   25) = (   0.1666667   0.1666667  -0.7241457), wk =   0.0277778
        k(   26) = (   0.1666667   0.3333333   0.0000000), wk =   0.0555556
        k(   27) = (   0.1666667   0.3333333   0.1810364), wk =   0.1111111
        k(   28) = (   0.1666667   0.3333333   0.3620729), wk =   0.1111111
        k(   29) = (   0.1666667   0.3333333   0.5431093), wk =   0.1111111
        k(   30) = (   0.1666667   0.3333333  -0.7241457), wk =   0.0555556
        k(   31) = (   0.1666667  -0.5000000   0.0000000), wk =   0.0277778
        k(   32) = (   0.1666667  -0.5000000   0.1810364), wk =   0.0555556
        k(   33) = (   0.1666667  -0.5000000   0.3620729), wk =   0.0555556
        k(   34) = (   0.1666667  -0.5000000   0.5431093), wk =   0.0555556
        k(   35) = (   0.1666667  -0.5000000  -0.7241457), wk =   0.0277778
        k(   36) = (   0.3333333   0.3333333   0.0000000), wk =   0.0277778
        k(   37) = (   0.3333333   0.3333333   0.1810364), wk =   0.0555556
        k(   38) = (   0.3333333   0.3333333   0.3620729), wk =   0.0555556
        k(   39) = (   0.3333333   0.3333333   0.5431093), wk =   0.0555556
        k(   40) = (   0.3333333   0.3333333  -0.7241457), wk =   0.0277778
        k(   41) = (   0.3333333  -0.5000000   0.0000000), wk =   0.0277778
        k(   42) = (   0.3333333  -0.5000000   0.1810364), wk =   0.0555556
        k(   43) = (   0.3333333  -0.5000000   0.3620729), wk =   0.0555556
        k(   44) = (   0.3333333  -0.5000000   0.5431093), wk =   0.0555556
        k(   45) = (   0.3333333  -0.5000000  -0.7241457), wk =   0.0277778
        k(   46) = (  -0.5000000  -0.5000000   0.0000000), wk =   0.0069444
        k(   47) = (  -0.5000000  -0.5000000   0.1810364), wk =   0.0138889
        k(   48) = (  -0.5000000  -0.5000000   0.3620729), wk =   0.0138889
        k(   49) = (  -0.5000000  -0.5000000   0.5431093), wk =   0.0138889
        k(   50) = (  -0.5000000  -0.5000000  -0.7241457), wk =   0.0069444

     Dense  grid:    26589 G-vectors     FFT dimensions: (  48,  48,  30)

     Estimated max dynamical RAM per process >       7.02 MB

     Estimated total dynamical RAM >     239.57 MB

     Initial potential from superposition of free atoms

     starting charge      55.8739, renormalised to      56.0000
     Starting wfcs are random

     total cpu time spent up to now is        0.2 secs

     per-process dynamical memory:   112.8 Mb

     Self-consistent Calculation

     iteration #  1     ecut=    60.00 Ry     beta= 0.70
     Davidson diagonalization with overlap
     ethr =  1.00E-02,  avg # of iterations = 10.3

     total cpu time spent up to now is        0.7 secs

     total energy              =    -504.26889061 Ry
     estimated scf accuracy    <       0.91398666 Ry

     iteration #  2     ecut=    60.00 Ry     beta= 0.70
     Davidson diagonalization with overlap
     ethr =  1.63E-03,  avg # of iterations =  6.6

     total cpu time spent up to now is        1.0 secs

     total energy              =    -504.23600496 Ry
     estimated scf accuracy    <       3.81662355 Ry

     iteration #  3     ecut=    60.00 Ry     beta= 0.70
     Davidson diagonalization with overlap
     ethr =  1.63E-03,  avg # of iterations =  5.8

     total cpu time spent up to now is        1.3 secs

     total energy              =    -504.88443604 Ry
     estimated scf accuracy    <       0.02487135 Ry

     iteration #  4     ecut=    60.00 Ry     beta= 0.70
     Davidson diagonalization with overlap
     ethr =  4.44E-05,  avg # of iterations =  4.9

     total cpu time spent up to now is        1.6 secs

     total energy              =    -504.89114364 Ry
     estimated scf accuracy    <       0.01362624 Ry

     iteration #  5     ecut=    60.00 Ry     beta= 0.70
     Davidson diagonalization with overlap
     ethr =  2.43E-05,  avg # of iterations =  5.0

     total cpu time spent up to now is        1.8 secs

     total energy              =    -504.89560975 Ry
     estimated scf accuracy    <       0.00101923 Ry

     iteration #  6     ecut=    60.00 Ry     beta= 0.70
     Davidson diagonalization with overlap
     ethr =  1.82E-06,  avg # of iterations =  4.9

     total cpu time spent up to now is        2.0 secs

     total energy              =    -504.89647670 Ry
     estimated scf accuracy    <       0.00048980 Ry

     iteration #  7     ecut=    60.00 Ry     beta= 0.70
     Davidson diagonalization with overlap
     ethr =  8.75E-07,  avg # of iterations =  2.4

     total cpu time spent up to now is        2.2 secs

     total energy              =    -504.89642140 Ry
     estimated scf accuracy    <       0.00024417 Ry

     iteration #  8     ecut=    60.00 Ry     beta= 0.70
     Davidson diagonalization with overlap
     ethr =  4.36E-07,  avg # of iterations =  4.4

     total cpu time spent up to now is        2.4 secs

     total energy              =    -504.89645774 Ry
     estimated scf accuracy    <       0.00001195 Ry

     iteration #  9     ecut=    60.00 Ry     beta= 0.70
     Davidson diagonalization with overlap
     c_bands:  1 eigenvalues not converged
     ethr =  2.13E-08,  avg # of iterations =  7.4

     total cpu time spent up to now is        2.8 secs

     total energy              =    -504.89647277 Ry
     estimated scf accuracy    <       0.00001745 Ry

     iteration # 10     ecut=    60.00 Ry     beta= 0.70
     Davidson diagonalization with overlap
     c_bands:  1 eigenvalues not converged
     ethr =  2.13E-08,  avg # of iterations =  1.4

     total cpu time spent up to now is        3.0 secs

     total energy              =    -504.89647692 Ry
     estimated scf accuracy    <       0.00001976 Ry

     iteration # 11     ecut=    60.00 Ry     beta= 0.70
     Davidson diagonalization with overlap
     ethr =  2.13E-08,  avg # of iterations =  1.1

     total cpu time spent up to now is        3.1 secs

     total energy              =    -504.89647255 Ry
     estimated scf accuracy    <       0.00001664 Ry

     iteration # 12     ecut=    60.00 Ry     beta= 0.70
     Davidson diagonalization with overlap
     ethr =  2.13E-08,  avg # of iterations =  3.9

     total cpu time spent up to now is        3.3 secs

     total energy              =    -504.89647423 Ry
     estimated scf accuracy    <       0.00000341 Ry

     iteration # 13     ecut=    60.00 Ry     beta= 0.70
     Davidson diagonalization with overlap
     ethr =  6.09E-09,  avg # of iterations =  3.2

     total cpu time spent up to now is        3.5 secs

     total energy              =    -504.89647461 Ry
     estimated scf accuracy    <       0.00000271 Ry

     iteration # 14     ecut=    60.00 Ry     beta= 0.70
     Davidson diagonalization with overlap
     ethr =  4.83E-09,  avg # of iterations =  1.5

     total cpu time spent up to now is        3.7 secs

     total energy              =    -504.89647490 Ry
     estimated scf accuracy    <       0.00000313 Ry

     iteration # 15     ecut=    60.00 Ry     beta= 0.70
     Davidson diagonalization with overlap
     ethr =  4.83E-09,  avg # of iterations =  1.1

     total cpu time spent up to now is        3.8 secs

     total energy              =    -504.89647506 Ry
     estimated scf accuracy    <       0.00000343 Ry

     iteration # 16     ecut=    60.00 Ry     beta= 0.70
     Davidson diagonalization with overlap
     ethr =  4.83E-09,  avg # of iterations =  1.0

     total cpu time spent up to now is        3.9 secs

     total energy              =    -504.89647521 Ry
     estimated scf accuracy    <       0.00000386 Ry

     iteration # 17     ecut=    60.00 Ry     beta= 0.70
     Davidson diagonalization with overlap
     ethr =  4.83E-09,  avg # of iterations =  1.0

     total cpu time spent up to now is        4.1 secs

     total energy              =    -504.89647501 Ry
     estimated scf accuracy    <       0.00000432 Ry

     iteration # 18     ecut=    60.00 Ry     beta= 0.70
     Davidson diagonalization with overlap
     ethr =  4.83E-09,  avg # of iterations =  1.1

     total cpu time spent up to now is        4.2 secs

     total energy              =    -504.89647332 Ry
     estimated scf accuracy    <       0.00000379 Ry

     iteration # 19     ecut=    60.00 Ry     beta= 0.70
     Davidson diagonalization with overlap
     ethr =  4.83E-09,  avg # of iterations =  6.1

     total cpu time spent up to now is        4.5 secs

     total energy              =    -504.89647534 Ry
     estimated scf accuracy    <       0.00001316 Ry

     iteration # 20     ecut=    60.00 Ry     beta= 0.70
     Davidson diagonalization with overlap
     ethr =  4.83E-09,  avg # of iterations =  1.3

     total cpu time spent up to now is        4.7 secs

     total energy              =    -504.89647192 Ry
     estimated scf accuracy    <       0.00000921 Ry

     iteration # 21     ecut=    60.00 Ry     beta= 0.70
     Davidson diagonalization with overlap
     ethr =  4.83E-09,  avg # of iterations =  4.9

     total cpu time spent up to now is        4.9 secs

     End of self-consistent calculation

          k = 0.0000 0.0000 0.0000 (  3363 PWs)   bands (ev):

   -60.3178 -60.3110 -30.5987 -30.5987 -30.1649 -30.1560 -30.1560 -30.1406
    -7.0455  -6.0121  -5.0456  -5.0456   4.7035   4.8457   5.9651   6.3760
     6.3760   8.9416   8.9588   8.9588  10.4145  10.8465  10.8465  11.3803
    11.6488  11.7595  11.8393  11.8393

          k = 0.0000 0.0000 0.1810 (  3359 PWs)   bands (ev):

   -60.3160 -60.3097 -30.5965 -30.5965 -30.1910 -30.1687 -30.1518 -30.1518
    -6.9105  -5.9383  -5.1262  -5.1262   4.8591   5.0564   6.1292   6.4253
     6.4253   8.4837   9.1286   9.1286   9.6882  10.2417  10.2417  11.1874
    11.7821  12.1382  12.3352  12.4256

          k = 0.0000 0.0000 0.3621 (  3318 PWs)   bands (ev):

   -60.3115 -60.3067 -30.5911 -30.5911 -30.2531 -30.2363 -30.1417 -30.1417
    -6.5544  -5.7776  -5.3155  -5.3155   5.2501   5.5924   6.6013   6.6013
     6.6090   7.6186   8.6268   9.2800   9.2800   9.6091   9.6091  10.4651
    12.0655  12.3563  12.6652  13.2217

          k = 0.0000 0.0000 0.5431 (  3318 PWs)   bands (ev):

   -60.3067 -60.3041 -30.5857 -30.5857 -30.3134 -30.3045 -30.1316 -30.1316
    -6.1221  -5.6823  -5.4983  -5.4983   5.6586   6.0242   6.8908   6.8908
     7.1404   7.3728   7.8319   8.6245   8.6245   9.4389   9.8366   9.8366
    12.3795  12.5590  12.8222  13.8226

          k = 0.0000 0.0000-0.7241 (  3326 PWs)   bands (ev):

   -60.3039 -60.3039 -30.5835 -30.5835 -30.3354 -30.3354 -30.1274 -30.1274
    -5.7904  -5.7904  -5.5728  -5.5728   5.9119   5.9119   7.0866   7.0866
     7.3872   7.3872   8.2936   8.2936   8.3525   8.3525   9.9257   9.9257
    12.5921  12.5921  13.1775  13.1775

          k = 0.0000 0.1667 0.0000 (  3327 PWs)   bands (ev):

   -60.3173 -60.3114 -30.5981 -30.5980 -30.1632 -30.1570 -30.1569 -30.1422
    -6.9416  -5.9855  -5.1748  -5.1070   4.9093   5.0826   6.1585   6.4001
     6.4129   8.5887   8.7062   8.8562  10.0137  10.1747  10.5263  11.2721
    11.9387  12.0654  12.1719  12.2283

          k = 0.0000 0.1667 0.1810 (  3335 PWs)   bands (ev):

   -60.3156 -60.3101 -30.5961 -30.5960 -30.1895 -30.1707 -30.1525 -30.1521
    -6.8126  -5.9076  -5.2489  -5.1823   5.0582   5.2650   6.2162   6.4353
     6.5838   8.3222   8.6866   8.9269   9.3673  10.0848  10.1681  11.1391
    11.8274  12.3638  12.4050  12.6755

          k = 0.0000 0.1667 0.3621 (  3330 PWs)   bands (ev):

   -60.3112 -60.3070 -30.5912 -30.5911 -30.2518 -30.2375 -30.1421 -30.1419
    -6.4791  -5.7522  -5.4064  -5.3528   5.4193   5.7057   6.4310   6.5913
     7.0524   7.4937   8.1092   9.2208   9.3317   9.5052   9.5279  10.6529
    11.8395  12.6117  12.8101  13.0623

          k = 0.0000 0.1667 0.5431 (  3327 PWs)   bands (ev):

   -60.3065 -60.3043 -30.5864 -30.5864 -30.3122 -30.3046 -30.1316 -30.1315
    -6.1014  -5.7469  -5.4901  -5.4620   5.7466   6.0605   6.4277   6.7821
     7.4034   7.5593   7.8366   8.6532   8.8429   9.5795   9.6733   9.7968
    12.2770  12.5129  12.8548  13.2752

          k = 0.0000 0.1667-0.7241 (  3330 PWs)   bands (ev):

   -60.3038 -60.3038 -30.5845 -30.5845 -30.3346 -30.3346 -30.1272 -30.1272
    -5.8704  -5.8704  -5.4865  -5.4865   5.9092   5.9092   6.6332   6.6332
     7.7211   7.7211   8.3433   8.3433   8.7385   8.7385   9.7634   9.7634
    12.6081  12.6081  12.8365  12.8365

          k = 0.0000 0.3333 0.0000 (  3319 PWs)   bands (ev):

   -60.3161 -60.3127 -30.5969 -30.5968 -30.1590 -30.1589 -30.1588 -30.1466
    -6.6544  -5.9842  -5.4287  -5.2658   5.4462   5.6304   6.4563   6.4820
     6.7505   7.8720   7.9693   8.7708   8.9808   9.3810  10.3883  10.9645
    12.3768  12.5424  12.7473  12.7965

          k = 0.0000 0.3333 0.1810 (  3316 PWs)   bands (ev):

   -60.3144 -60.3113 -30.5952 -30.5951 -30.1857 -30.1753 -30.1537 -30.1531
    -6.5390  -5.8854  -5.5017  -5.3268   5.5917   5.7707   6.3856   6.4359
     7.0301   7.9851   8.1757   8.2162   8.6056   9.4007  10.3760  10.9049
    12.2796  12.5222  12.7486  13.0360

          k = 0.0000 0.3333 0.3621 (  3323 PWs)   bands (ev):

   -60.3103 -60.3079 -30.5914 -30.5913 -30.2484 -30.2404 -30.1427 -30.1425
    -6.2658  -5.6868  -5.6401  -5.4485   5.8631   5.9950   6.4773   6.5797
     7.2568   7.3991   7.7344   8.5937   8.7428   9.4045   9.9989  10.6692
    11.8710  12.7185  13.0368  13.0498

          k = 0.0000 0.3333 0.5431 (  3342 PWs)   bands (ev):

   -60.3060 -60.3047 -30.5879 -30.5878 -30.3095 -30.3053 -30.1316 -30.1315
    -6.0455  -5.8592  -5.4652  -5.4294   5.9039   6.0431   6.2121   6.5468
     7.3683   7.7496   8.1178   8.9016   8.9941   9.1590   9.6393  10.3330
    11.7294  12.5286  12.7602  12.9097

          k = 0.0000 0.3333-0.7241 (  3328 PWs)   bands (ev):

   -60.3038 -60.3038 -30.5865 -30.5865 -30.3331 -30.3331 -30.1269 -30.1269
    -5.9674  -5.9674  -5.3758  -5.3758   5.7877   5.7877   6.4013   6.4013
     7.9027   7.9027   8.5020   8.5020   9.2477   9.2477   9.7291   9.7291
    12.0831  12.0831  12.6401  12.6401

          k = 0.0000-0.5000 0.0000 (  3312 PWs)   bands (ev):

   -60.3144 -60.3144 -30.5962 -30.5962 -30.1599 -30.1599 -30.1527 -30.1527
    -6.2617  -6.2617  -5.4349  -5.4349   5.9386   5.9386   6.5039   6.5039
     7.4320   7.4320   7.7478   7.7478   8.9257   8.9257  10.6047  10.6047
    12.6972  12.6972  12.8748  12.8748

          k = 0.0000-0.5000 0.1810 (  3330 PWs)   bands (ev):

   -60.3128 -60.3128 -30.5947 -30.5947 -30.1806 -30.1806 -30.1540 -30.1540
    -6.1609  -6.1609  -5.4918  -5.4918   6.1525   6.1525   6.3379   6.3379
     7.4969   7.4969   7.9225   7.9225   8.5715   8.5715  10.6569  10.6569
    12.5286  12.5286  13.1298  13.1298

          k = 0.0000-0.5000 0.3621 (  3324 PWs)   bands (ev):

   -60.3091 -60.3091 -30.5914 -30.5914 -30.2442 -30.2442 -30.1429 -30.1429
    -5.9652  -5.9652  -5.5683  -5.5683   6.2083   6.2083   6.6172   6.6172
     6.9909   6.9909   8.2332   8.2332   8.7839   8.7839  10.3961  10.3961
    12.3164  12.3164  13.1891  13.1891

          k = 0.0000-0.5000 0.5431 (  3330 PWs)   bands (ev):

   -60.3054 -60.3054 -30.5885 -30.5885 -30.3069 -30.3069 -30.1315 -30.1315
    -5.9620  -5.9620  -5.4361  -5.4361   5.9495   5.9495   6.3570   6.3570
     7.5814   7.5814   8.4855   8.4855   9.0864   9.0864  10.2139  10.2139
    11.8205  11.8205  12.8976  12.8976

          k = 0.0000-0.5000-0.7241 (  3332 PWs)   bands (ev):

   -60.3038 -60.3038 -30.5876 -30.5876 -30.3324 -30.3324 -30.1268 -30.1268
    -6.0043  -6.0043  -5.3322  -5.3322   5.6826   5.6826   6.3935   6.3935
     7.9725   7.9725   8.7638   8.7638   8.8908   8.8908  10.3399  10.3399
    11.4905  11.4905  12.6506  12.6506

          k = 0.1667 0.1667 0.0000 (  3329 PWs)   bands (ev):

   -60.3169 -60.3118 -30.5992 -30.5966 -30.1618 -30.1589 -30.1560 -30.1436
    -6.8585  -5.9676  -5.3368  -5.0826   4.7685   5.5752   6.3340   6.3534
     6.4831   7.9508   8.7912   8.8743   9.9494   9.9656  10.3555  11.1498
    11.8077  11.8484  12.5198  12.6620

          k = 0.1667 0.1667 0.1810 (  3323 PWs)   bands (ev):

   -60.3152 -60.3105 -30.5969 -30.5949 -30.1883 -30.1720 -30.1533 -30.1519
    -6.7332  -5.8828  -5.4024  -5.1614   4.9458   5.7064   6.2145   6.5283
     6.6762   8.0539   8.3157   9.0246   9.1981  10.0776  10.2046  10.9689
    11.8399  12.0608  12.6561  12.8411

          k = 0.1667 0.1667 0.3621 (  3328 PWs)   bands (ev):

   -60.3109 -60.3073 -30.5915 -30.5911 -30.2508 -30.2383 -30.1425 -30.1418
    -6.4145  -5.7262  -5.5161  -5.3475   5.3972   5.9454   6.2892   6.7690
     7.2107   7.2585   8.1878   8.6824   9.1514   9.5655   9.8868  10.7482
    11.7235  12.4582  12.9389  13.1863

          k = 0.1667 0.1667 0.5431 (  3327 PWs)   bands (ev):

   -60.3064 -60.3044 -30.5877 -30.5860 -30.3118 -30.3046 -30.1318 -30.1314
    -6.0799  -5.7628  -5.5277  -5.4280   5.8068   6.1200   6.3390   6.5073
     7.3453   7.8454   7.9383   8.5966   8.8845   9.4834   9.7022  10.0113
    12.0831  12.5498  12.8854  13.3676

          k = 0.1667 0.1667-0.7241 (  3320 PWs)   bands (ev):

   -60.3038 -60.3038 -30.5864 -30.5837 -30.3360 -30.3325 -30.1276 -30.1268
    -5.9750  -5.7575  -5.6005  -5.3700   5.7773   6.0900   6.4387   6.6524
     7.0758   8.2928   8.4362   8.6294   8.6687   9.1855   9.3557   9.8916
    12.4107  12.6126  12.6299  13.0554

          k = 0.1667 0.3333 0.0000 (  3320 PWs)   bands (ev):

   -60.3158 -60.3129 -30.5989 -30.5962 -30.1599 -30.1580 -30.1570 -30.1474
    -6.6283  -6.0283  -5.4739  -5.1865   4.9859   5.9840   6.3695   6.5036
     6.8791   7.4807   8.4422   8.8108   9.3703   9.5744  10.0465  10.7940
    12.1348  12.1399  12.7801  12.8915

          k = 0.1667 0.3333 0.1810 (  3327 PWs)   bands (ev):

   -60.3142 -60.3115 -30.5968 -30.5947 -30.1850 -30.1756 -30.1540 -30.1524
    -6.5137  -5.9279  -5.5406  -5.2581   5.1536   6.1944   6.2751   6.3451
     7.1421   7.8060   8.0635   8.5499   9.0800   9.5608  10.1300  10.6542
    12.1684  12.2881  12.7440  13.1615

          k = 0.1667 0.3333 0.3621 (  3323 PWs)   bands (ev):

   -60.3101 -60.3081 -30.5917 -30.5914 -30.2481 -30.2407 -30.1429 -30.1422
    -6.2370  -5.7351  -5.6436  -5.4166   5.5684   6.1959   6.2846   6.6801
     7.0293   7.6910   7.9272   8.4466   9.1472   9.2973   9.9655  10.5950
    11.9100  12.5699  12.8667  13.2623

          k = 0.1667 0.3333 0.5431 (  3332 PWs)   bands (ev):

   -60.3059 -60.3048 -30.5885 -30.5869 -30.3100 -30.3052 -30.1318 -30.1315
    -6.0190  -5.8309  -5.5187  -5.4262   5.8991   6.0346   6.2861   6.4105
     7.1643   7.8692   8.2665   8.7456   8.8190   9.4134   9.7799  10.4348
    11.7460  12.6277  12.7458  12.9280

          k = 0.1667 0.3333-0.7241 (  3320 PWs)   bands (ev):

   -60.3038 -60.3038 -30.5875 -30.5849 -30.3352 -30.3317 -30.1275 -30.1268
    -6.0074  -5.8472  -5.5015  -5.3283   5.6984   6.0376   6.3482   6.3988
     7.2141   8.1972   8.4807   8.6954   8.8615   9.5675   9.7215  10.0697
    11.8911  12.4709  12.6389  12.6501

          k = 0.1667-0.5000 0.0000 (  3326 PWs)   bands (ev):

   -60.3144 -60.3144 -30.5974 -30.5974 -30.1589 -30.1589 -30.1527 -30.1527
    -6.3094  -6.3094  -5.3677  -5.3677   5.5283   5.5283   6.4422   6.4422
     7.5708   7.5708   8.3181   8.3181   9.1001   9.1001  10.3328  10.3328
    12.5543  12.5543  12.6444  12.6444

          k = 0.1667-0.5000 0.1810 (  3324 PWs)   bands (ev):

   -60.3128 -60.3128 -30.5957 -30.5957 -30.1804 -30.1804 -30.1535 -30.1535
    -6.2073  -6.2073  -5.4276  -5.4276   5.6840   5.6840   6.3637   6.3637
     7.6969   7.6969   8.3915   8.3915   8.7242   8.7242  10.3797  10.3797
    12.4408  12.4408  12.9614  12.9614

          k = 0.1667-0.5000 0.3621 (  3320 PWs)   bands (ev):

   -60.3091 -60.3091 -30.5917 -30.5917 -30.2443 -30.2443 -30.1427 -30.1427
    -5.9904  -5.9904  -5.5327  -5.5327   5.9430   5.9430   6.4341   6.4341
     7.3001   7.3001   8.4940   8.4940   8.9029   8.9029  10.2195  10.2195
    12.3874  12.3874  13.0470  13.0470

          k = 0.1667-0.5000 0.5431 (  3328 PWs)   bands (ev):

   -60.3054 -60.3054 -30.5881 -30.5881 -30.3073 -30.3073 -30.1317 -30.1317
    -5.9293  -5.9293  -5.4667  -5.4667   5.9284   5.9284   6.3631   6.3631
     7.4145   7.4145   8.6093   8.6093   9.0979   9.0979  10.2798  10.2798
    11.9928  11.9928  12.8340  12.8340

          k = 0.1667-0.5000-0.7241 (  3336 PWs)   bands (ev):

   -60.3038 -60.3038 -30.5868 -30.5868 -30.3331 -30.3331 -30.1271 -30.1271
    -5.9602  -5.9602  -5.3782  -5.3782   5.7644   5.7644   6.3683   6.3683
     7.7217   7.7217   8.5025   8.5025   9.2377   9.2377  10.3942  10.3942
    11.7353  11.7353  12.6553  12.6553

          k = 0.3333 0.3333 0.0000 (  3331 PWs)   bands (ev):

   -60.3152 -60.3135 -30.6003 -30.5976 -30.1589 -30.1560 -30.1557 -30.1496
    -6.5426  -6.1912  -5.3975  -5.1555   4.7805   5.5387   6.3093   6.4290
     7.3215   8.0497   8.7111   9.0697   9.3954   9.7078   9.7502  10.5454
    11.8015  11.8677  12.5703  12.6542

          k = 0.3333 0.3333 0.1810 (  3327 PWs)   bands (ev):

   -60.3136 -60.3120 -30.5979 -30.5959 -30.1829 -30.1772 -30.1535 -30.1519
    -6.4301  -6.0923  -5.4585  -5.2318   4.9600   5.6961   6.2131   6.3549
     7.5835   8.2704   8.3669   8.8278   9.1261   9.7704   9.8617  10.1162
    12.0030  12.1594  12.6202  12.9392

          k = 0.3333 0.3333 0.3621 (  3319 PWs)   bands (ev):

   -60.3097 -60.3085 -30.5923 -30.5919 -30.2468 -30.2421 -30.1427 -30.1421
    -6.1554  -5.8833  -5.5645  -5.4106   5.4308   5.9484   6.1507   6.4254
     7.3610   8.1110   8.1160   8.8438   9.0400   9.4242   9.7568  10.3230
    12.2131  12.3987  12.8596  13.1121

          k = 0.3333 0.3333 0.5431 (  3314 PWs)   bands (ev):

   -60.3057 -60.3050 -30.5883 -30.5866 -30.3099 -30.3062 -30.1321 -30.1318
    -5.9452  -5.7883  -5.5843  -5.4677   5.9028   6.0105   6.2154   6.3713
     7.0534   7.6683   8.4533   8.6679   8.9356   9.5168  10.0178  10.5674
    11.9505  12.6178  12.8242  13.0595

          k = 0.3333 0.3333-0.7241 (  3328 PWs)   bands (ev):

   -60.3038 -60.3038 -30.5869 -30.5843 -30.3359 -30.3323 -30.1280 -30.1273
    -5.9606  -5.6931  -5.6552  -5.3745   5.7601   6.2754   6.3038   6.3604
     6.7740   7.9256   8.3139   8.4425   9.2064   9.6343  10.1586  10.4901
    11.8976  12.6497  12.6620  12.8165

          k = 0.3333-0.5000 0.0000 (  3340 PWs)   bands (ev):

   -60.3144 -60.3144 -30.5997 -30.5997 -30.1569 -30.1569 -30.1527 -30.1527
    -6.3893  -6.3893  -5.2472  -5.2472   4.9914   4.9914   6.3340   6.3340
     7.9949   7.9949   9.0305   9.0305   9.4889   9.4889   9.9619   9.9619
    12.1340  12.1340  12.1568  12.1568

          k = 0.3333-0.5000 0.1810 (  3316 PWs)   bands (ev):

   -60.3128 -60.3128 -30.5975 -30.5975 -30.1799 -30.1799 -30.1525 -30.1525
    -6.2829  -6.2829  -5.3160  -5.3160   5.1626   5.1626   6.2562   6.2562
     8.1779   8.1779   8.9060   8.9060   9.2572   9.2572   9.8272   9.8272
    12.2315  12.2315  12.5023  12.5023

          k = 0.3333-0.5000 0.3621 (  3308 PWs)   bands (ev):

   -60.3091 -60.3091 -30.5923 -30.5923 -30.2445 -30.2445 -30.1423 -30.1423
    -6.0322  -6.0322  -5.4697  -5.4697   5.5816   5.5816   6.2028   6.2028
     7.8258   7.8258   8.7419   8.7419   9.2202   9.2202   9.8943   9.8943
    12.5498  12.5498  12.7513  12.7513

          k = 0.3333-0.5000 0.5431 (  3310 PWs)   bands (ev):

   -60.3054 -60.3054 -30.5873 -30.5873 -30.3083 -30.3083 -30.1321 -30.1321
    -5.8450  -5.8450  -5.5458  -5.5458   5.9337   5.9337   6.2658   6.2658
     7.2942   7.2942   8.5784   8.5784   9.2713   9.2713  10.3904  10.3904
    12.4577  12.4577  12.7110  12.7110

          k = 0.3333-0.5000-0.7241 (  3328 PWs)   bands (ev):

   -60.3038 -60.3038 -30.5853 -30.5853 -30.3344 -30.3344 -30.1279 -30.1279
    -5.8388  -5.8388  -5.5024  -5.5024   5.9818   5.9818   6.3181   6.3181
     7.2300   7.2300   8.3686   8.3686   9.4644   9.4644  10.5676  10.5676
    12.2834  12.2834  12.6628  12.6628

          k =-0.5000-0.5000 0.0000 (  3308 PWs)   bands (ev):

   -60.3144 -60.3144 -30.6009 -30.6009 -30.1560 -30.1560 -30.1526 -30.1526
    -6.4228  -6.4228  -5.1906  -5.1906   4.7857   4.7857   6.2856   6.2856
     8.5958   8.5958   8.6358   8.6358   9.7217   9.7217  10.2601  10.2601
    11.7685  11.7685  11.8779  11.8779

          k =-0.5000-0.5000 0.1810 (  3288 PWs)   bands (ev):

   -60.3128 -60.3128 -30.5985 -30.5985 -30.1797 -30.1797 -30.1519 -30.1519
    -6.3144  -6.3144  -5.2648  -5.2648   4.9647   4.9647   6.2039   6.2039
     8.7397   8.7397   8.8866   8.8866   9.1482   9.1482   9.9364   9.9364
    12.0860  12.0860  12.2231  12.2231

          k =-0.5000-0.5000 0.3621 (  3300 PWs)   bands (ev):

   -60.3091 -60.3091 -30.5927 -30.5927 -30.2446 -30.2446 -30.1422 -30.1422
    -6.0499  -6.0499  -5.4412  -5.4412   5.4350   5.4350   6.1199   6.1199
     8.1297   8.1297   8.9734   8.9734   9.0151   9.0151   9.9105   9.9105
    12.4735  12.4735  12.7940  12.7940

          k =-0.5000-0.5000 0.5431 (  3312 PWs)   bands (ev):

   -60.3054 -60.3054 -30.5869 -30.5869 -30.3087 -30.3087 -30.1323 -30.1323
    -5.7767  -5.7767  -5.6121  -5.6121   5.9876   5.9876   6.1378   6.1378
     7.2958   7.2958   8.5270   8.5270   9.3545   9.3545  10.4511  10.4511
    12.6401  12.6401  12.9308  12.9308

          k =-0.5000-0.5000-0.7241 (  3304 PWs)   bands (ev):

   -60.3038 -60.3038 -30.5845 -30.5845 -30.3351 -30.3351 -30.1282 -30.1282
    -5.6811  -5.6811  -5.6601  -5.6601   6.1735   6.1735   6.2747   6.2747
     6.9492   6.9492   8.3281   8.3281   9.5238   9.5238  10.6766  10.6766
    12.6655  12.6655  12.7006  12.7006

     highest occupied level (ev):    13.8226

!    total energy              =    -504.89647392 Ry
     estimated scf accuracy    <       0.00000006 Ry

     The total energy is the sum of the following terms:
     one-electron contribution =    -163.53124477 Ry
     hartree contribution      =     112.46525114 Ry
     xc contribution           =     -67.47395108 Ry
     ewald contribution        =    -386.35652921 Ry

     convergence has been achieved in  21 iterations

     Forces acting on atoms (cartesian axes, Ry/au):

     atom    1 type  1   force =     0.00000000    0.00000000    0.00000000
     atom    2 type  1   force =     0.00000000    0.00000000   -0.00000000
     atom    3 type  2   force =     0.00306674    0.00306674    0.00000000
     atom    4 type  2   force =    -0.00306674   -0.00306674    0.00000000
     atom    5 type  2   force =     0.00306674   -0.00306674   -0.00000000
     atom    6 type  2   force =    -0.00306674    0.00306674   -0.00000000

     Total force =     0.008674     Total SCF correction =     0.000034
 
     init_run     :      0.06s CPU      0.07s WALL (       1 calls)
     electrons    :      4.57s CPU      4.79s WALL (       1 calls)
     forces       :      0.02s CPU      0.02s WALL (       1 calls)

     Called by init_run:
     wfcinit      :      0.04s CPU      0.04s WALL (       1 calls)
     potinit      :      0.01s CPU      0.01s WALL (       1 calls)
     hinit0       :      0.01s CPU      0.01s WALL (       1 calls)

     Called by electrons:
     c_bands      :      4.14s CPU      4.32s WALL (      21 calls)
     sum_band     :      0.38s CPU      0.39s WALL (      21 calls)
     v_of_rho     :      0.04s CPU      0.04s WALL (      22 calls)
     mix_rho      :      0.01s CPU      0.01s WALL (      21 calls)

     Called by c_bands:
     init_us_2    :      0.05s CPU      0.05s WALL (     748 calls)
     init_us_2:cp :      0.05s CPU      0.05s WALL (     748 calls)
     cegterg      :      3.36s CPU      3.44s WALL (     357 calls)

     Called by *egterg:
     cdiaghg      :      0.98s CPU      1.00s WALL (    1742 calls)
     h_psi        :      2.00s CPU      2.06s WALL (    1759 calls)
     g_psi        :      0.01s CPU      0.01s WALL (    1385 calls)

     Called by h_psi:
     h_psi:calbec :      0.12s CPU      0.12s WALL (    1759 calls)
     vloc_psi     :      1.80s CPU      1.85s WALL (    1759 calls)
     add_vuspsi   :      0.08s CPU      0.08s WALL (    1759 calls)

     General routines
     calbec       :      0.12s CPU      0.13s WALL (    1827 calls)
     fft          :      0.01s CPU      0.02s WALL (     221 calls)
     ffts         :      0.00s CPU      0.00s WALL (      21 calls)
     fftw         :      1.82s CPU      1.87s WALL (   68806 calls)
 
     Parallel routines
 
     PWSCF        :      4.67s CPU      4.99s WALL

 
   This run was terminated on:  14: 5:43  13Jul2026            

=------------------------------------------------------------------------------=
   JOB DONE.
=------------------------------------------------------------------------------=
