
     Program PWSCF v.7.1 starts on 13Jul2026 at 14: 5:40 

     This program is part of the open-source Quantum ESPRESSO suite
     for quantum simulation of materials; please cite
         "P. Giannozzi et al., J. Phys.:Condens. Matter 21 395502 (2009);
         "P. Giannozzi et al., J. Phys.:Condens. Matter 29 465901 (2017);
         "P. Giannozzi et al., J. Chem. Phys. 152 154105 (2020);
          URL http://www.quantum-espresso.org", 
     in publications or presentations arising from this work. More details at
     http://www.quantum-espresso.org/quote

     Parallel version (MPI), running on    36 processors

     MPI processes distributed on     1 nodes
     169469 MiB available memory on the printing compute node when the environment starts
 
     Waiting for input...
     Reading input from standard input

     Current dimensions of program PWSCF are:
     Max number of different atomic species (ntypx) = 10
     Max number of k-points (npk) =  40000
     Max angular momentum in pseudopotentials (lmaxx) =  4
     Message from routine setup:
     using ibrav=0 with symmetry is DISCOURAGED, use correct ibrav instead
 
     K-points division:     npool     =       2
     R & G space division:  proc/nbgrp/npool/nimage =      18
     Subspace diagonalization in iterative solution of the eigenvalue problem:
     a serial algorithm will be used

 
     Parallelization info
     --------------------
     sticks:   dense  smooth     PW     G-vecs:    dense   smooth      PW
     Min         127     127     36                 3181     3181     490
     Max         129     129     37                 3182     3182     493
     Sum        2305    2305    665                57269    57269    8853
 
     Using Slab Decomposition
 


     bravais-lattice index     =            0
     lattice parameter (alat)  =       8.4977  a.u.
     unit-cell volume          =     423.6931 (a.u.)^3
     number of atoms/cell      =            6
     number of atomic types    =            2
     number of electrons       =        56.00
     number of Kohn-Sham states=           28
     kinetic-energy cutoff     =     100.0000  Ry
     charge density cutoff     =     400.0000  Ry
     scf convergence threshold =      1.0E-06
     mixing beta               =       0.7000
     number of iterations used =            8  plain     mixing
     Exchange-correlation= PBE
                           (   1   4   3   4   0   0   0)

     celldm(1)=   8.497720  celldm(2)=   0.000000  celldm(3)=   0.000000
     celldm(4)=   0.000000  celldm(5)=   0.000000  celldm(6)=   0.000000

     crystal axes: (cart. coord. in units of alat)
               a(1) = (   1.000000   0.000000   0.000000 )  
               a(2) = (   0.000000   1.000000   0.000000 )  
               a(3) = (   0.000000   0.000000   0.690469 )  

     reciprocal axes: (cart. coord. in units 2 pi/alat)
               b(1) = (  1.000000  0.000000  0.000000 )  
               b(2) = (  0.000000  1.000000  0.000000 )  
               b(3) = (  0.000000  0.000000  1.448291 )  


     PseudoPot. # 1 for Ru read from file:
     ./Ru_ONCV_PBE-1.2.upf
     MD5 check sum: 197966c748556f6a714a34a8c7eb0781
     Pseudo is Norm-conserving, Zval = 16.0
     Generated using ONCVPSP code by D. R. Hamann
     Using radial grid of  602 points,  6 beta functions with: 
                l(1) =   0
                l(2) =   0
                l(3) =   1
                l(4) =   1
                l(5) =   2
                l(6) =   2

     PseudoPot. # 2 for O  read from file:
     ./O_ONCV_PBE-1.2.upf
     MD5 check sum: e36c48deb68f4e355fffe4602be2c42c
     Pseudo is Norm-conserving, Zval =  6.0
     Generated using ONCVPSP code by D. R. Hamann
     Using radial grid of  602 points,  4 beta functions with: 
                l(1) =   0
                l(2) =   0
                l(3) =   1
                l(4) =   1

     atomic species   valence    mass     pseudopotential
        Ru            16.00   101.07000     Ru( 1.00)
        O              6.00    15.99900     O ( 1.00)

     16 Sym. Ops., with inversion, found ( 8 have fractional translation)



   Cartesian axes

     site n.     atom                  positions (alat units)
         1           Ru  tau(   1) = (   0.0000000   0.0000000   0.0000000  )
         2           Ru  tau(   2) = (   0.5000000   0.5000000   0.3452344  )
         3           O   tau(   3) = (   0.3053000   0.3053000   0.0000000  )
         4           O   tau(   4) = (   0.6947000   0.6947000   0.0000000  )
         5           O   tau(   5) = (   0.8053000   0.1947000   0.3452344  )
         6           O   tau(   6) = (   0.1947000   0.8053000   0.3452344  )

     number of k points=    50
                       cart. coord. in units 2pi/alat
        k(    1) = (   0.0000000   0.0000000   0.0000000), wk =   0.0069444
        k(    2) = (   0.0000000   0.0000000   0.1810364), wk =   0.0138889
        k(    3) = (   0.0000000   0.0000000   0.3620729), wk =   0.0138889
        k(    4) = (   0.0000000   0.0000000   0.5431093), wk =   0.0138889
        k(    5) = (   0.0000000   0.0000000  -0.7241457), wk =   0.0069444
        k(    6) = (   0.0000000   0.1666667   0.0000000), wk =   0.0277778
        k(    7) = (   0.0000000   0.1666667   0.1810364), wk =   0.0555556
        k(    8) = (   0.0000000   0.1666667   0.3620729), wk =   0.0555556
        k(    9) = (   0.0000000   0.1666667   0.5431093), wk =   0.0555556
        k(   10) = (   0.0000000   0.1666667  -0.7241457), wk =   0.0277778
        k(   11) = (   0.0000000   0.3333333   0.0000000), wk =   0.0277778
        k(   12) = (   0.0000000   0.3333333   0.1810364), wk =   0.0555556
        k(   13) = (   0.0000000   0.3333333   0.3620729), wk =   0.0555556
        k(   14) = (   0.0000000   0.3333333   0.5431093), wk =   0.0555556
        k(   15) = (   0.0000000   0.3333333  -0.7241457), wk =   0.0277778
        k(   16) = (   0.0000000  -0.5000000   0.0000000), wk =   0.0138889
        k(   17) = (   0.0000000  -0.5000000   0.1810364), wk =   0.0277778
        k(   18) = (   0.0000000  -0.5000000   0.3620729), wk =   0.0277778
        k(   19) = (   0.0000000  -0.5000000   0.5431093), wk =   0.0277778
        k(   20) = (   0.0000000  -0.5000000  -0.7241457), wk =   0.0138889
        k(   21) = (   0.1666667   0.1666667   0.0000000), wk =   0.0277778
        k(   22) = (   0.1666667   0.1666667   0.1810364), wk =   0.0555556
        k(   23) = (   0.1666667   0.1666667   0.3620729), wk =   0.0555556
        k(   24) = (   0.1666667   0.1666667   0.5431093), wk =   0.0555556
        k(   25) = (   0.1666667   0.1666667  -0.7241457), wk =   0.0277778
        k(   26) = (   0.1666667   0.3333333   0.0000000), wk =   0.0555556
        k(   27) = (   0.1666667   0.3333333   0.1810364), wk =   0.1111111
        k(   28) = (   0.1666667   0.3333333   0.3620729), wk =   0.1111111
        k(   29) = (   0.1666667   0.3333333   0.5431093), wk =   0.1111111
        k(   30) = (   0.1666667   0.3333333  -0.7241457), wk =   0.0555556
        k(   31) = (   0.1666667  -0.5000000   0.0000000), wk =   0.0277778
        k(   32) = (   0.1666667  -0.5000000   0.1810364), wk =   0.0555556
        k(   33) = (   0.1666667  -0.5000000   0.3620729), wk =   0.0555556
        k(   34) = (   0.1666667  -0.5000000   0.5431093), wk =   0.0555556
        k(   35) = (   0.1666667  -0.5000000  -0.7241457), wk =   0.0277778
        k(   36) = (   0.3333333   0.3333333   0.0000000), wk =   0.0277778
        k(   37) = (   0.3333333   0.3333333   0.1810364), wk =   0.0555556
        k(   38) = (   0.3333333   0.3333333   0.3620729), wk =   0.0555556
        k(   39) = (   0.3333333   0.3333333   0.5431093), wk =   0.0555556
        k(   40) = (   0.3333333   0.3333333  -0.7241457), wk =   0.0277778
        k(   41) = (   0.3333333  -0.5000000   0.0000000), wk =   0.0277778
        k(   42) = (   0.3333333  -0.5000000   0.1810364), wk =   0.0555556
        k(   43) = (   0.3333333  -0.5000000   0.3620729), wk =   0.0555556
        k(   44) = (   0.3333333  -0.5000000   0.5431093), wk =   0.0555556
        k(   45) = (   0.3333333  -0.5000000  -0.7241457), wk =   0.0277778
        k(   46) = (  -0.5000000  -0.5000000   0.0000000), wk =   0.0069444
        k(   47) = (  -0.5000000  -0.5000000   0.1810364), wk =   0.0138889
        k(   48) = (  -0.5000000  -0.5000000   0.3620729), wk =   0.0138889
        k(   49) = (  -0.5000000  -0.5000000   0.5431093), wk =   0.0138889
        k(   50) = (  -0.5000000  -0.5000000  -0.7241457), wk =   0.0069444

     Dense  grid:    57269 G-vectors     FFT dimensions: (  60,  60,  40)

     Estimated max dynamical RAM per process >      11.05 MB

     Estimated total dynamical RAM >     383.66 MB

     Initial potential from superposition of free atoms

     starting charge      55.8739, renormalised to      56.0000
     Starting wfcs are random

     total cpu time spent up to now is        0.2 secs

     per-process dynamical memory:   121.7 Mb

     Self-consistent Calculation

     iteration #  1     ecut=   100.00 Ry     beta= 0.70
     Davidson diagonalization with overlap
     ethr =  1.00E-02,  avg # of iterations = 10.1

     total cpu time spent up to now is        1.2 secs

     total energy              =    -504.26127451 Ry
     estimated scf accuracy    <       0.99224883 Ry

     iteration #  2     ecut=   100.00 Ry     beta= 0.70
     Davidson diagonalization with overlap
     ethr =  1.77E-03,  avg # of iterations =  6.6

     total cpu time spent up to now is        1.9 secs

     total energy              =    -504.22833906 Ry
     estimated scf accuracy    <       4.37893867 Ry

     iteration #  3     ecut=   100.00 Ry     beta= 0.70
     Davidson diagonalization with overlap
     ethr =  1.77E-03,  avg # of iterations =  6.1

     total cpu time spent up to now is        2.4 secs

     total energy              =    -504.96248288 Ry
     estimated scf accuracy    <       0.03168286 Ry

     iteration #  4     ecut=   100.00 Ry     beta= 0.70
     Davidson diagonalization with overlap
     ethr =  5.66E-05,  avg # of iterations =  4.8

     total cpu time spent up to now is        2.9 secs

     total energy              =    -504.96867011 Ry
     estimated scf accuracy    <       0.01564522 Ry

     iteration #  5     ecut=   100.00 Ry     beta= 0.70
     Davidson diagonalization with overlap
     ethr =  2.79E-05,  avg # of iterations =  5.2

     total cpu time spent up to now is        3.4 secs

     total energy              =    -504.97383998 Ry
     estimated scf accuracy    <       0.00196458 Ry

     iteration #  6     ecut=   100.00 Ry     beta= 0.70
     Davidson diagonalization with overlap
     ethr =  3.51E-06,  avg # of iterations =  3.8

     total cpu time spent up to now is        3.8 secs

     total energy              =    -504.97375029 Ry
     estimated scf accuracy    <       0.00066330 Ry

     iteration #  7     ecut=   100.00 Ry     beta= 0.70
     Davidson diagonalization with overlap
     ethr =  1.18E-06,  avg # of iterations =  5.9

     total cpu time spent up to now is        4.4 secs

     total energy              =    -504.97448673 Ry
     estimated scf accuracy    <       0.00027122 Ry

     iteration #  8     ecut=   100.00 Ry     beta= 0.70
     Davidson diagonalization with overlap
     ethr =  4.84E-07,  avg # of iterations =  2.8

     total cpu time spent up to now is        4.7 secs

     total energy              =    -504.97446779 Ry
     estimated scf accuracy    <       0.00006885 Ry

     iteration #  9     ecut=   100.00 Ry     beta= 0.70
     Davidson diagonalization with overlap
     ethr =  1.23E-07,  avg # of iterations =  6.3

     total cpu time spent up to now is        5.3 secs

     total energy              =    -504.97450414 Ry
     estimated scf accuracy    <       0.00007677 Ry

     iteration # 10     ecut=   100.00 Ry     beta= 0.70
     Davidson diagonalization with overlap
     ethr =  1.23E-07,  avg # of iterations =  2.4

     total cpu time spent up to now is        5.7 secs

     total energy              =    -504.97450368 Ry
     estimated scf accuracy    <       0.00001766 Ry

     iteration # 11     ecut=   100.00 Ry     beta= 0.70
     Davidson diagonalization with overlap
     c_bands:  1 eigenvalues not converged
     ethr =  3.15E-08,  avg # of iterations =  5.3

     total cpu time spent up to now is        6.2 secs

     total energy              =    -504.97451153 Ry
     estimated scf accuracy    <       0.00000162 Ry

     iteration # 12     ecut=   100.00 Ry     beta= 0.70
     Davidson diagonalization with overlap
     ethr =  2.89E-09,  avg # of iterations =  4.0

     total cpu time spent up to now is        6.6 secs

     total energy              =    -504.97451160 Ry
     estimated scf accuracy    <       0.00000157 Ry

     iteration # 13     ecut=   100.00 Ry     beta= 0.70
     Davidson diagonalization with overlap
     ethr =  2.80E-09,  avg # of iterations =  2.1

     total cpu time spent up to now is        6.9 secs

     End of self-consistent calculation

          k = 0.0000 0.0000 0.0000 (  7219 PWs)   bands (ev):

   -60.3193 -60.3126 -30.6008 -30.6008 -30.1677 -30.1574 -30.1574 -30.1435
    -7.0115  -5.9752  -5.0069  -5.0069   4.7138   4.8533   5.9675   6.3793
     6.3793   8.9477   8.9657   8.9657  10.4173  10.8562  10.8562  11.3845
    11.6458  11.7562  11.8354  11.8354

          k = 0.0000 0.0000 0.1810 (  7195 PWs)   bands (ev):

   -60.3175 -60.3113 -30.5985 -30.5985 -30.1938 -30.1715 -30.1532 -30.1532
    -6.8757  -5.9018  -5.0879  -5.0879   4.8684   5.0629   6.1309   6.4297
     6.4297   8.4859   9.1345   9.1345   9.6965  10.2477  10.2477  11.1886
    11.7795  12.1366  12.3323  12.4245

          k = 0.0000 0.0000 0.3621 (  7163 PWs)   bands (ev):

   -60.3131 -60.3083 -30.5931 -30.5931 -30.2559 -30.2391 -30.1432 -30.1432
    -6.5205  -5.7425  -5.2783  -5.2783   5.2578   5.5971   6.6052   6.6052
     6.6107   7.6176   8.6302   9.2808   9.2808   9.6096   9.6096  10.4661
    12.0628  12.3530  12.6613  13.2157

          k = 0.0000 0.0000 0.5431 (  7138 PWs)   bands (ev):

   -60.3083 -60.3057 -30.5878 -30.5878 -30.3162 -30.3072 -30.1330 -30.1330
    -6.0873  -5.6464  -5.4617  -5.4617   5.6657   6.0273   6.8941   6.8941
     7.1435   7.3731   7.8356   8.6278   8.6278   9.4404   9.8369   9.8369
    12.3760  12.5557  12.8181  13.8162

          k = 0.0000 0.0000-0.7241 (  7122 PWs)   bands (ev):

   -60.3054 -60.3054 -30.5855 -30.5855 -30.3381 -30.3381 -30.1288 -30.1288
    -5.7547  -5.7547  -5.5358  -5.5358   5.9184   5.9184   7.0891   7.0891
     7.3924   7.3924   8.2965   8.2965   8.3529   8.3529   9.9298   9.9298
    12.5884  12.5884  13.1720  13.1720

          k = 0.0000 0.1667 0.0000 (  7171 PWs)   bands (ev):

   -60.3189 -60.3130 -30.6002 -30.6001 -30.1661 -30.1584 -30.1583 -30.1451
    -6.9084  -5.9491  -5.1378  -5.0702   4.9165   5.0868   6.1586   6.4028
     6.4159   8.5939   8.7116   8.8623  10.0117  10.1799  10.5315  11.2695
    11.9357  12.0617  12.1696  12.2234

          k = 0.0000 0.1667 0.1810 (  7175 PWs)   bands (ev):

   -60.3171 -60.3117 -30.5981 -30.5981 -30.1923 -30.1735 -30.1539 -30.1536
    -6.7781  -5.8721  -5.2117  -5.1451   5.0657   5.2700   6.2173   6.4388
     6.5873   8.3251   8.6906   8.9298   9.3718  10.0899  10.1732  11.1386
    11.8241  12.3617  12.4025  12.6714

          k = 0.0000 0.1667 0.3621 (  7162 PWs)   bands (ev):

   -60.3128 -60.3086 -30.5932 -30.5932 -30.2546 -30.2402 -30.1435 -30.1434
    -6.4440  -5.7170  -5.3693  -5.3155   5.4273   5.7110   6.4333   6.5948
     7.0559   7.4950   8.1131   9.2230   9.3327   9.5111   9.5296  10.6539
    11.8365  12.6081  12.8073  13.0582

          k = 0.0000 0.1667 0.5431 (  7150 PWs)   bands (ev):

   -60.3081 -60.3058 -30.5885 -30.5884 -30.3150 -30.3074 -30.1330 -30.1330
    -6.0663  -5.7112  -5.4530  -5.4250   5.7542   6.0656   6.4309   6.7850
     7.4062   7.5637   7.8392   8.6549   8.8466   9.5814   9.6759   9.7983
    12.2739  12.5092  12.8509  13.2700

          k = 0.0000 0.1667-0.7241 (  7158 PWs)   bands (ev):

   -60.3054 -60.3054 -30.5866 -30.5866 -30.3373 -30.3373 -30.1287 -30.1287
    -5.8348  -5.8348  -5.4491  -5.4491   5.9155   5.9155   6.6371   6.6371
     7.7254   7.7254   8.3461   8.3461   8.7405   8.7405   9.7658   9.7658
    12.6043  12.6043  12.8326  12.8326

          k = 0.0000 0.3333 0.0000 (  7151 PWs)   bands (ev):

   -60.3176 -60.3142 -30.5989 -30.5988 -30.1616 -30.1604 -30.1603 -30.1495
    -6.6210  -5.9488  -5.3928  -5.2292   5.4517   5.6334   6.4602   6.4858
     6.7516   7.8771   7.9739   8.7736   8.9839   9.3814  10.3901  10.9628
    12.3734  12.5381  12.7418  12.7912

          k = 0.0000 0.3333 0.1810 (  7166 PWs)   bands (ev):

   -60.3160 -60.3128 -30.5973 -30.5972 -30.1885 -30.1780 -30.1552 -30.1546
    -6.5053  -5.8501  -5.4657  -5.2906   5.5977   5.7744   6.3881   6.4391
     7.0322   7.9879   8.1790   8.2191   8.6082   9.4019  10.3766  10.9037
    12.2756  12.5182  12.7443  13.0303

          k = 0.0000 0.3333 0.3621 (  7162 PWs)   bands (ev):

   -60.3119 -60.3095 -30.5934 -30.5933 -30.2512 -30.2431 -30.1441 -30.1439
    -6.2309  -5.6508  -5.6041  -5.4120   5.8707   5.9998   6.4788   6.5829
     7.2603   7.4021   7.7362   8.5980   8.7448   9.4088   9.9992  10.6703
    11.8676  12.7147  13.0320  13.0464

          k = 0.0000 0.3333 0.5431 (  7144 PWs)   bands (ev):

   -60.3076 -60.3063 -30.5899 -30.5898 -30.3122 -30.3080 -30.1330 -30.1329
    -6.0093  -5.8227  -5.4281  -5.3921   5.9104   6.0467   6.2180   6.5508
     7.3734   7.7529   8.1218   8.9067   8.9996   9.1637   9.6429  10.3357
    11.7264  12.5254  12.7563  12.9063

          k = 0.0000 0.3333-0.7241 (  7164 PWs)   bands (ev):

   -60.3054 -60.3054 -30.5886 -30.5886 -30.3358 -30.3358 -30.1284 -30.1284
    -5.9318  -5.9318  -5.3384  -5.3384   5.7923   5.7923   6.4063   6.4063
     7.9055   7.9055   8.5059   8.5059   9.2511   9.2511   9.7308   9.7308
    12.0801  12.0801  12.6362  12.6362

          k = 0.0000-0.5000 0.0000 (  7160 PWs)   bands (ev):

   -60.3159 -60.3159 -30.5983 -30.5983 -30.1613 -30.1613 -30.1556 -30.1556
    -6.2275  -6.2275  -5.3990  -5.3990   5.9414   5.9414   6.5065   6.5065
     7.4377   7.4377   7.7491   7.7491   8.9262   8.9262  10.6062  10.6062
    12.6925  12.6925  12.8693  12.8693

          k = 0.0000-0.5000 0.1810 (  7170 PWs)   bands (ev):

   -60.3144 -60.3144 -30.5968 -30.5968 -30.1834 -30.1834 -30.1555 -30.1555
    -6.1259  -6.1259  -5.4555  -5.4555   6.1564   6.1564   6.3423   6.3423
     7.5006   7.5006   7.9284   7.9284   8.5735   8.5735  10.6584  10.6584
    12.5249  12.5249  13.1249  13.1249

          k = 0.0000-0.5000 0.3621 (  7174 PWs)   bands (ev):

   -60.3107 -60.3107 -30.5935 -30.5935 -30.2470 -30.2470 -30.1443 -30.1443
    -5.9294  -5.9294  -5.5324  -5.5324   6.2140   6.2140   6.6187   6.6187
     6.9956   6.9956   8.2354   8.2354   8.7883   8.7883  10.3976  10.3976
    12.3125  12.3125  13.1843  13.1843

          k = 0.0000-0.5000 0.5431 (  7142 PWs)   bands (ev):

   -60.3069 -60.3069 -30.5906 -30.5906 -30.3096 -30.3096 -30.1330 -30.1330
    -5.9263  -5.9263  -5.3991  -5.3991   5.9536   5.9536   6.3618   6.3618
     7.5856   7.5856   8.4882   8.4882   9.0924   9.0924  10.2149  10.2149
    11.8169  11.8169  12.8936  12.8936

          k = 0.0000-0.5000-0.7241 (  7160 PWs)   bands (ev):

   -60.3054 -60.3054 -30.5896 -30.5896 -30.3351 -30.3351 -30.1283 -30.1283
    -5.9688  -5.9688  -5.2945  -5.2945   5.6871   5.6871   6.3996   6.3996
     7.9748   7.9748   8.7678   8.7678   8.8943   8.8943  10.3416  10.3416
    11.4872  11.4872  12.6469  12.6469

          k = 0.1667 0.1667 0.0000 (  7165 PWs)   bands (ev):

   -60.3185 -60.3134 -30.6013 -30.5986 -30.1647 -30.1603 -30.1574 -30.1465
    -6.8253  -5.9320  -5.2999  -5.0449   4.7764   5.5797   6.3356   6.3568
     6.4869   7.9547   8.7947   8.8788   9.9486   9.9664  10.3617  11.1493
    11.8048  11.8445  12.5189  12.6569

          k = 0.1667 0.1667 0.1810 (  7162 PWs)   bands (ev):

   -60.3168 -60.3120 -30.5990 -30.5970 -30.1911 -30.1748 -30.1548 -30.1533
    -6.6990  -5.8480  -5.3659  -5.1242   4.9529   5.7117   6.2165   6.5313
     6.6782   8.0570   8.3170   9.0274   9.1994  10.0826  10.2066  10.9685
    11.8364  12.0580  12.6519  12.8392

          k = 0.1667 0.1667 0.3621 (  7172 PWs)   bands (ev):

   -60.3125 -60.3089 -30.5935 -30.5932 -30.2536 -30.2411 -30.1439 -30.1433
    -6.3794  -5.6903  -5.4796  -5.3107   5.4035   5.9510   6.2917   6.7724
     7.2132   7.2613   8.1913   8.6875   9.1542   9.5660   9.8912  10.7485
    11.7201  12.4553  12.9352  13.1820

          k = 0.1667 0.1667 0.5431 (  7153 PWs)   bands (ev):

   -60.3079 -60.3060 -30.5897 -30.5881 -30.3145 -30.3073 -30.1332 -30.1329
    -6.0443  -5.7270  -5.4909  -5.3911   5.8135   6.1257   6.3420   6.5095
     7.3497   7.8496   7.9410   8.5989   8.8881   9.4882   9.7025  10.0117
    12.0800  12.5461  12.8816  13.3624

          k = 0.1667 0.1667-0.7241 (  7152 PWs)   bands (ev):

   -60.3054 -60.3054 -30.5885 -30.5858 -30.3387 -30.3352 -30.1290 -30.1283
    -5.9394  -5.7219  -5.5638  -5.3331   5.7826   6.0960   6.4428   6.6536
     7.0797   8.2947   8.4396   8.6306   8.6714   9.1869   9.3588   9.8941
    12.4073  12.6087  12.6261  13.0503

          k = 0.1667 0.3333 0.0000 (  7166 PWs)   bands (ev):

   -60.3174 -60.3145 -30.6009 -30.5983 -30.1613 -30.1608 -30.1584 -30.1503
    -6.5948  -5.9936  -5.4376  -5.1494   4.9918   5.9877   6.3732   6.5076
     6.8803   7.4862   8.4445   8.8128   9.3731   9.5745  10.0476  10.7935
    12.1312  12.1357  12.7756  12.8862

          k = 0.1667 0.3333 0.1810 (  7162 PWs)   bands (ev):

   -60.3158 -60.3130 -30.5988 -30.5968 -30.1878 -30.1784 -30.1555 -30.1538
    -6.4794  -5.8930  -5.5042  -5.2208   5.1600   6.1988   6.2786   6.3495
     7.1443   7.8115   8.0661   8.5517   9.0824   9.5645  10.1306  10.6545
    12.1647  12.2846  12.7400  13.1578

          k = 0.1667 0.3333 0.3621 (  7151 PWs)   bands (ev):

   -60.3117 -60.3096 -30.5938 -30.5935 -30.2509 -30.2435 -30.1443 -30.1436
    -6.2019  -5.6992  -5.6078  -5.3798   5.5745   6.2007   6.2873   6.6824
     7.0335   7.6938   7.9293   8.4517   9.1492   9.3004   9.9678  10.5954
    11.9066  12.5665  12.8626  13.2572

          k = 0.1667 0.3333 0.5431 (  7148 PWs)   bands (ev):

   -60.3075 -60.3064 -30.5906 -30.5889 -30.3127 -30.3079 -30.1333 -30.1330
    -5.9830  -5.7950  -5.4817  -5.3891   5.9050   6.0392   6.2921   6.4130
     7.1683   7.8733   8.2700   8.7498   8.8223   9.4159   9.7839  10.4358
    11.7428  12.6238  12.7418  12.9241

          k = 0.1667 0.3333-0.7241 (  7146 PWs)   bands (ev):

   -60.3054 -60.3054 -30.5896 -30.5870 -30.3379 -30.3344 -30.1290 -30.1283
    -5.9721  -5.8118  -5.4644  -5.2910   5.7028   6.0419   6.3527   6.4041
     7.2170   8.1990   8.4828   8.6987   8.8636   9.5699   9.7230  10.0700
    11.8885  12.4659  12.6351  12.6463

          k = 0.1667-0.5000 0.0000 (  7144 PWs)   bands (ev):

   -60.3159 -60.3159 -30.5994 -30.5994 -30.1603 -30.1603 -30.1556 -30.1556
    -6.2752  -6.2752  -5.3308  -5.3308   5.5336   5.5336   6.4459   6.4459
     7.5732   7.5732   8.3222   8.3222   9.1020   9.1020  10.3349  10.3349
    12.5502  12.5502  12.6398  12.6398

          k = 0.1667-0.5000 0.1810 (  7152 PWs)   bands (ev):

   -60.3144 -60.3144 -30.5977 -30.5977 -30.1832 -30.1832 -30.1550 -30.1550
    -6.1728  -6.1728  -5.3911  -5.3911   5.6892   5.6892   6.3678   6.3678
     7.6993   7.6993   8.3958   8.3958   8.7262   8.7262  10.3803  10.3803
    12.4369  12.4369  12.9562  12.9562

          k = 0.1667-0.5000 0.3621 (  7146 PWs)   bands (ev):

   -60.3107 -60.3107 -30.5938 -30.5938 -30.2471 -30.2471 -30.1441 -30.1441
    -5.9552  -5.9552  -5.4964  -5.4964   5.9489   5.9489   6.4365   6.4365
     7.3036   7.3036   8.4959   8.4959   8.9063   8.9063  10.2205  10.2205
    12.3834  12.3834  13.0422  13.0422

          k = 0.1667-0.5000 0.5431 (  7148 PWs)   bands (ev):

   -60.3069 -60.3069 -30.5902 -30.5902 -30.3101 -30.3101 -30.1332 -30.1332
    -5.8935  -5.8935  -5.4297  -5.4297   5.9327   5.9327   6.3681   6.3681
     7.4184   7.4184   8.6127   8.6127   9.1014   9.1014  10.2818  10.2818
    11.9892  11.9892  12.8300  12.8300

          k = 0.1667-0.5000-0.7241 (  7164 PWs)   bands (ev):

   -60.3054 -60.3054 -30.5889 -30.5889 -30.3358 -30.3358 -30.1286 -30.1286
    -5.9243  -5.9243  -5.3406  -5.3406   5.7684   5.7684   6.3749   6.3749
     7.7254   7.7254   8.5060   8.5060   9.2407   9.2407  10.3978  10.3978
    11.7318  11.7318  12.6515  12.6515

          k = 0.3333 0.3333 0.0000 (  7167 PWs)   bands (ev):

   -60.3168 -60.3151 -30.6024 -30.5997 -30.1603 -30.1586 -30.1574 -30.1525
    -6.5082  -6.1565  -5.3607  -5.1184   4.7865   5.5448   6.3121   6.4329
     7.3223   8.0551   8.7132   9.0705   9.3995   9.7123   9.7518  10.5480
    11.7986  11.8638  12.5661  12.6491

          k = 0.3333 0.3333 0.1810 (  7143 PWs)   bands (ev):

   -60.3152 -60.3136 -30.6000 -30.5980 -30.1857 -30.1800 -30.1550 -30.1533
    -6.3956  -6.0575  -5.4221  -5.1945   4.9657   5.7013   6.2169   6.3584
     7.5853   8.2721   8.3735   8.8299   9.1266   9.7732   9.8656  10.1170
    11.9999  12.1553  12.6159  12.9342

          k = 0.3333 0.3333 0.3621 (  7146 PWs)   bands (ev):

   -60.3113 -60.3101 -30.5943 -30.5940 -30.2496 -30.2449 -30.1442 -30.1435
    -6.1203  -5.8482  -5.5283  -5.3740   5.4364   5.9540   6.1532   6.4272
     7.3648   8.1130   8.1191   8.8470   9.0427   9.4248   9.7592  10.3245
    12.2091  12.3953  12.8551  13.1063

          k = 0.3333 0.3333 0.5431 (  7152 PWs)   bands (ev):

   -60.3073 -60.3066 -30.5903 -30.5887 -30.3126 -30.3089 -30.1336 -30.1333
    -5.9091  -5.7532  -5.5479  -5.4313   5.9070   6.0149   6.2170   6.3761
     7.0567   7.6739   8.4556   8.6701   8.9369   9.5168  10.0198  10.5693
    11.9466  12.6140  12.8201  13.0546

          k = 0.3333 0.3333-0.7241 (  7166 PWs)   bands (ev):

   -60.3054 -60.3054 -30.5890 -30.5863 -30.3386 -30.3350 -30.1295 -30.1287
    -5.9245  -5.6566  -5.6185  -5.3374   5.7638   6.2764   6.3091   6.3673
     6.7796   7.9297   8.3174   8.4459   9.2076   9.6364  10.1639  10.4941
    11.8948  12.6459  12.6581  12.8121

          k = 0.3333-0.5000 0.0000 (  7148 PWs)   bands (ev):

   -60.3159 -60.3159 -30.6018 -30.6018 -30.1583 -30.1583 -30.1555 -30.1555
    -6.3547  -6.3547  -5.2096  -5.2096   4.9979   4.9979   6.3383   6.3383
     7.9974   7.9974   9.0341   9.0341   9.4921   9.4921   9.9647   9.9647
    12.1307  12.1307  12.1530  12.1530

          k = 0.3333-0.5000 0.1810 (  7150 PWs)   bands (ev):

   -60.3144 -60.3144 -30.5996 -30.5996 -30.1828 -30.1828 -30.1539 -30.1539
    -6.2489  -6.2489  -5.2792  -5.2792   5.1678   5.1678   6.2599   6.2599
     8.1796   8.1796   8.9067   8.9067   9.2592   9.2592   9.8284   9.8284
    12.2275  12.2275  12.4977  12.4977

          k = 0.3333-0.5000 0.3621 (  7138 PWs)   bands (ev):

   -60.3107 -60.3107 -30.5944 -30.5944 -30.2473 -30.2473 -30.1438 -30.1438
    -5.9976  -5.9976  -5.4334  -5.4334   5.5869   5.5869   6.2051   6.2051
     7.8285   7.8285   8.7431   8.7431   9.2211   9.2211   9.8955   9.8955
    12.5453  12.5453  12.7466  12.7466

          k = 0.3333-0.5000 0.5431 (  7138 PWs)   bands (ev):

   -60.3069 -60.3069 -30.5894 -30.5894 -30.3110 -30.3110 -30.1336 -30.1336
    -5.8093  -5.8093  -5.5097  -5.5097   5.9379   5.9379   6.2679   6.2679
     7.2993   7.2993   8.5808   8.5808   9.2720   9.2720  10.3916  10.3916
    12.4531  12.4531  12.7070  12.7070

          k = 0.3333-0.5000-0.7241 (  7160 PWs)   bands (ev):

   -60.3054 -60.3054 -30.5874 -30.5874 -30.3371 -30.3371 -30.1293 -30.1293
    -5.8025  -5.8025  -5.4654  -5.4654   5.9845   5.9845   6.3239   6.3239
     7.2354   7.2354   8.3723   8.3723   9.4660   9.4660  10.5721  10.5721
    12.2794  12.2794  12.6590  12.6590

          k =-0.5000-0.5000 0.0000 (  7152 PWs)   bands (ev):

   -60.3159 -60.3159 -30.6029 -30.6029 -30.1574 -30.1574 -30.1555 -30.1555
    -6.3891  -6.3891  -5.1540  -5.1540   4.7892   4.7892   6.2899   6.2899
     8.5947   8.5947   8.6367   8.6367   9.7269   9.7269  10.2577  10.2577
    11.7655  11.7655  11.8740  11.8740

          k =-0.5000-0.5000 0.1810 (  7112 PWs)   bands (ev):

   -60.3144 -60.3144 -30.6005 -30.6005 -30.1826 -30.1826 -30.1533 -30.1533
    -6.2813  -6.2813  -5.2286  -5.2286   4.9683   4.9683   6.2073   6.2073
     8.7395   8.7395   8.8845   8.8845   9.1485   9.1485   9.9335   9.9335
    12.0823  12.0823  12.2181  12.2181

          k =-0.5000-0.5000 0.3621 (  7144 PWs)   bands (ev):

   -60.3107 -60.3107 -30.5947 -30.5947 -30.2473 -30.2473 -30.1436 -30.1436
    -6.0157  -6.0157  -5.4048  -5.4048   5.4396   5.4396   6.1215   6.1215
     8.1310   8.1310   8.9751   8.9751   9.0168   9.0168   9.9110   9.9110
    12.4696  12.4696  12.7883  12.7883

          k =-0.5000-0.5000 0.5431 (  7144 PWs)   bands (ev):

   -60.3069 -60.3069 -30.5890 -30.5890 -30.3114 -30.3114 -30.1338 -30.1338
    -5.7410  -5.7410  -5.5758  -5.5758   5.9922   5.9922   6.1397   6.1397
     7.3016   7.3016   8.5293   8.5293   9.3549   9.3549  10.4537  10.4537
    12.6363  12.6363  12.9258  12.9258

          k =-0.5000-0.5000-0.7241 (  7136 PWs)   bands (ev):

   -60.3054 -60.3054 -30.5866 -30.5866 -30.3378 -30.3378 -30.1297 -30.1297
    -5.6452  -5.6452  -5.6242  -5.6242   6.1734   6.1734   6.2771   6.2771
     6.9570   6.9570   8.3308   8.3308   9.5235   9.5235  10.6805  10.6805
    12.6615  12.6615  12.6957  12.6957

     highest occupied level (ev):    13.8162

!    total energy              =    -504.97451104 Ry
     estimated scf accuracy    <       0.00000094 Ry

     The total energy is the sum of the following terms:
     one-electron contribution =    -163.69797069 Ry
     hartree contribution      =     112.56852340 Ry
     xc contribution           =     -67.48853456 Ry
     ewald contribution        =    -386.35652920 Ry

     convergence has been achieved in  13 iterations

     Forces acting on atoms (cartesian axes, Ry/au):

     atom    1 type  1   force =     0.00000000    0.00000000   -0.00000000
     atom    2 type  1   force =     0.00000000    0.00000000    0.00000000
     atom    3 type  2   force =     0.00407638    0.00407638    0.00000000
     atom    4 type  2   force =    -0.00407638   -0.00407638    0.00000000
     atom    5 type  2   force =     0.00407638   -0.00407638    0.00000000
     atom    6 type  2   force =    -0.00407638    0.00407638    0.00000000

     Total force =     0.011530     Total SCF correction =     0.000271
 
     init_run     :      0.12s CPU      0.13s WALL (       1 calls)
     electrons    :      6.42s CPU      6.71s WALL (       1 calls)
     forces       :      0.03s CPU      0.03s WALL (       1 calls)

     Called by init_run:
     wfcinit      :      0.09s CPU      0.09s WALL (       1 calls)
     potinit      :      0.01s CPU      0.01s WALL (       1 calls)
     hinit0       :      0.01s CPU      0.01s WALL (       1 calls)

     Called by electrons:
     c_bands      :      5.91s CPU      6.15s WALL (      13 calls)
     sum_band     :      0.46s CPU      0.49s WALL (      13 calls)
     v_of_rho     :      0.04s CPU      0.04s WALL (      14 calls)
     mix_rho      :      0.01s CPU      0.01s WALL (      13 calls)

     Called by c_bands:
     init_us_2    :      0.06s CPU      0.07s WALL (     700 calls)
     init_us_2:cp :      0.06s CPU      0.07s WALL (     700 calls)
     cegterg      :      5.18s CPU      5.30s WALL (     325 calls)

     Called by *egterg:
     cdiaghg      :      1.21s CPU      1.22s WALL (    2020 calls)
     h_psi        :      3.42s CPU      3.52s WALL (    2045 calls)
     g_psi        :      0.02s CPU      0.02s WALL (    1695 calls)

     Called by h_psi:
     h_psi:calbec :      0.18s CPU      0.18s WALL (    2045 calls)
     vloc_psi     :      3.11s CPU      3.19s WALL (    2045 calls)
     add_vuspsi   :      0.11s CPU      0.12s WALL (    2045 calls)

     General routines
     calbec       :      0.19s CPU      0.19s WALL (    2145 calls)
     fft          :      0.02s CPU      0.02s WALL (     141 calls)
     ffts         :      0.00s CPU      0.00s WALL (      13 calls)
     fftw         :      3.10s CPU      3.19s WALL (   69984 calls)
 
     Parallel routines
 
     PWSCF        :      6.60s CPU      6.96s WALL

 
   This run was terminated on:  14: 5:47  13Jul2026            

=------------------------------------------------------------------------------=
   JOB DONE.
=------------------------------------------------------------------------------=
