../relax_1L_RuO2_both_side_on-6-layer-R-TiO2_101.vasp/output final
1.0
        5.4640631676         0.0000000000         0.0000000000
        0.0000000000         4.5936999321         0.0000000000
        0.0000000000         0.0000000000        41.6286010742
   Ti    O   Ru
   12   32    4
Cartesian
Ti               2.2678950189        0.1030956437       14.8656831475
Ti               4.9999259509        2.1937540483       14.8656831475
Ti               0.7345565258       -0.0491033181       17.4438317713
Ti               3.4665877428        2.3459530101       17.4438317713
Ti               4.4949972208        0.0421423089       19.9157116669
Ti               1.7629657998        2.2547073831       19.9157116669
Ti               2.9421435436       -0.0416379633       22.4708753092
Ti               0.2101122246        2.3384876553       22.4708753092
Ti               1.2387266004        0.0481083553       24.9427186836
Ti               3.9707574514        2.2487413367       24.9427186836
Ti               5.1727879595       -0.1021385026       27.5198764079
Ti               2.4407565385        2.3989881946       27.5198764079
O                2.6305820068        3.2430523071       11.6617216248
O                5.3626139158        3.6474967699       11.6617216248
O                4.9592167484        1.3602004628       13.1340548469
O                1.0499883109        3.2465656170       14.1659402733
O                2.2271853274        0.9366494352       13.1340536059
O                3.7820193249        3.6439837330       14.1659390323
O                3.4398055834        1.3965351452       15.6751832848
O                4.9464287811        3.1983209692       16.6378794082
O                0.7077743254        0.9003146838       15.6751857668
O                2.2143973601        3.6922283808       16.6378781672
O                1.8342913864        1.3927370543       18.1920706240
O                3.3430230619        3.2011950377       19.1630408903
O                4.5663232964        0.9041127067       18.1920706240
O                0.6109915189        3.6893540393       19.1630408903
O                0.2320901495        1.3965182178       20.7066051195
O                1.7400416004        3.1971944738       21.6801805467
O                2.9641211225        0.9003316802       20.7066038785
O                4.4720735104        3.6933548772       21.6801830287
O                4.0936541367        1.3910428337       23.2254640764
O                0.1374772184        3.2020386841       24.1930965810
O                1.3616221457        0.9058070643       23.2254615954
O                2.8695084054        3.6885106659       24.1930916180
O                2.4925612689        1.3944588012       25.7496754379
O                3.9994658552        3.1974898521       26.7100634475
O                5.2245922019        0.9023909598       25.7496754379
O                1.2674349222        3.6930592249       26.7100634475
O                0.9257388085        1.3474807003       28.2214099383
O                2.4762787754        3.2345660183       29.2497465447
O                3.6577700665        0.9493691977       28.2214049753
O                5.2083110114        3.6559833327       29.2497515067
O                4.8060779888        1.3492033045       30.7280347394
O                2.0740462418        0.9476465935       30.7280297764
Ru               3.8470392185       -0.1616854182       12.4058170616
Ru               1.1150077975        2.4585351102       12.4058170616
Ru               3.5884838418        0.1620729054       29.9818765085
Ru               0.8564525838        2.1347767866       29.9818765085
