Ti O  Ti O  Ti O  Ti O 
 1.0000000000000000
     6.4964728414732864    0.0000000000000000    0.0000000000000000
     0.0000000000000000    2.9586999999999999    0.0000000000000000
     0.0000000000000000    0.0000000000000000   31.7247042548341653
 Ti  O   Ti  O   Ti  O   Ti  O  
   2   4   2   4   2   4   2   4
Cartesian
  0.0000000000000000  0.0000000000000000 10.0000000000000000
  3.2482364207366423  1.4793499999999997 10.0000000000000000
 -0.0000000000000025  0.0000000000000000 11.9799949926242277
  3.2482364207366428  0.0000000000000000 11.2682414281124146
  5.2282314133608709  1.4793499999999997 10.0000000000000000
  1.2682414281124144  1.4793499999999997 10.0000000000000000
  3.2482364207366428  0.0000000000000000 13.2482364207366423
 -0.0000000000000025  1.4793499999999997 13.2482364207366423
  3.2482364207366414  0.0000000000000000 15.2282314133608736
  0.0000000000000000  0.0000000000000000 14.5164778488490569
  1.9799949926242271  1.4793499999999997 13.2482364207366441
  4.5164778488490578  1.4793499999999997 13.2482364207366423
  0.0000000000000000  0.0000000000000000 16.4964728414732882
  3.2482364207366414  1.4793499999999997 16.4964728414732882
  0.0000000000000000  0.0000000000000000 18.4764678340975195
  3.2482364207366414  0.0000000000000000 17.7647142695857028
  5.2282314133608692  1.4793499999999997 16.4964728414732917
  1.2682414281124144  1.4793499999999997 16.4964728414732917
  3.2482364207366414  0.0000000000000000 19.7447092622099269
  0.0000000000000000  1.4793499999999997 19.7447092622099341
  3.2482364207366428  0.0000000000000000 21.7247042548341653
 -0.0000000000000025  0.0000000000000000 21.0129506903223486
  1.9799949926242286  1.4793499999999997 19.7447092622099341
  4.5164778488490560  1.4793499999999997 19.7447092622099269
