Ti O  Ti O  Ti O  Ti O  Ti O  Ti O  Ti O 
1.0
        6.4964728355         0.0000000000         0.0000000000
        0.0000000000         2.9586999416         0.0000000000
        0.0000000000         0.0000000000        41.4694137573
   Ti    O
   12   24
Cartesian
     3.248236224         0.000000000        13.248235602
     0.000000000         1.479349883        13.248235602
     0.000000000         0.000000000        16.496472173
     3.248236224         1.479349883        16.496472173
     3.248236224         0.000000000        19.744707509
     0.000000000         1.479349883        19.744707509
     0.000000000         0.000000000        22.992945316
     3.248236224         1.479349883        22.992945316
     3.248236224         0.000000000        26.241179416
     0.000000000         1.479349883        26.241179416
     0.000000000         0.000000000        29.489415987
     3.248236224         1.479349883        29.489415987
     0.000000000         0.000000000        11.979994063
     3.248236224         0.000000000        15.228230634
     0.000000000         0.000000000        14.516475905
     1.979994839         1.479349883        13.248235602
     4.516477803         1.479349883        13.248235602
     0.000000000         0.000000000        18.476465970
     3.248236224         0.000000000        17.764713712
     5.228231450         1.479349971        16.496474645
     1.268241385         1.479349971        16.496474645
     3.248236224         0.000000000        21.724702541
     0.000000000         0.000000000        21.012949048
     1.979994839         1.479349883        19.744707509
     4.516477803         1.479349883        19.744707509
     0.000000000         0.000000000        24.972939113
     3.248236224         0.000000000        24.261183147
     5.228231450         1.479349971        22.992947788
     1.268241385         1.479349971        22.992947788
     3.248236224         0.000000000        28.221173212
     0.000000000         0.000000000        27.509422190
     1.979994839         1.479349883        26.241179416
     4.516477803         1.479349883        26.241179416
     3.248236224         0.000000000        30.757658762
     5.228231450         1.479349971        29.489418459
     1.268241385         1.479349971        29.489418459
