Ti O  Ti O  Ti O  Ti O  Ti O 
1.0
        6.4964728355         0.0000000000         0.0000000000
        0.0000000000         2.9586999416         0.0000000000
        0.0000000000         0.0000000000        34.9729423523
   Ti    O
    8   16
Cartesian
     3.248236224         0.000000000        13.248236428
     0.000000000         1.479349883        13.248236428
     0.000000000         0.000000000        16.496472613
     3.248236224         1.479349883        16.496472613
     3.248236224         0.000000000        19.744707756
     0.000000000         1.479349883        19.744707756
     0.000000000         0.000000000        22.992944984
     3.248236224         1.479349883        22.992944984
     0.000000000         0.000000000        11.979994242
     3.248236224         0.000000000        15.228231469
     0.000000000         0.000000000        14.516477572
     1.979994839         1.479349883        13.248236428
     4.516477803         1.479349883        13.248236428
     0.000000000         0.000000000        18.476465570
     3.248236224         0.000000000        17.764714800
     5.228231450         1.479349971        16.496474698
     1.268241385         1.479349971        16.496474698
     3.248236224         0.000000000        21.724702797
     0.000000000         0.000000000        21.012949942
     1.979994839         1.479349883        19.744707756
     4.516477803         1.479349883        19.744707756
     3.248236224         0.000000000        24.261185085
     5.228231450         1.479349971        22.992949153
     1.268241385         1.479349971        22.992949153
