Ti O  Ti O  Ti O  Ti O  Ti O  Ti O  Ti O  Ti O  Ti O 
1.0
        6.4964728355         0.0000000000         0.0000000000
        0.0000000000         2.9586999416         0.0000000000
        0.0000000000         0.0000000000        47.9658851624
   Ti    O
   16   32
Cartesian
     3.248236224         0.000000000        13.248234492
     0.000000000         1.479349883        13.248234492
     0.000000000         0.000000000        16.496471177
     3.248236224         1.479349883        16.496471177
     3.248236224         0.000000000        19.744705003
     0.000000000         1.479349883        19.744705003
     0.000000000         0.000000000        22.992944546
     3.248236224         1.479349883        22.992944546
     3.248236224         0.000000000        26.241178372
     0.000000000         1.479349883        26.241178372
     0.000000000         0.000000000        29.489413627
     3.248236224         1.479349883        29.489413627
     3.248236224         0.000000000        32.737651742
     0.000000000         1.479349883        32.737651742
     0.000000000         0.000000000        35.985889856
     3.248236224         1.479349883        35.985889856
     0.000000000         0.000000000        11.979993877
     3.248236224         0.000000000        15.228229132
     0.000000000         0.000000000        14.516475108
     1.979994839         1.479349883        13.248234492
     4.516477803         1.479349883        13.248234492
     0.000000000         0.000000000        18.476465817
     3.248236224         0.000000000        17.764713222
     5.228231450         1.479349971        16.496472607
     1.268241385         1.479349971        16.496472607
     3.248236224         0.000000000        21.724703931
     0.000000000         0.000000000        21.012947048
     1.979994839         1.479349883        19.744705003
     4.516477803         1.479349883        19.744705003
     0.000000000         0.000000000        24.972936327
     3.248236224         0.000000000        24.261182303
     5.228231450         1.479349971        22.992945976
     1.268241385         1.479349971        22.992945976
     3.248236224         0.000000000        28.221171583
     0.000000000         0.000000000        27.509420417
     1.979994839         1.479349883        26.241178372
     4.516477803         1.479349883        26.241178372
     0.000000000         0.000000000        31.469409697
     3.248236224         0.000000000        30.757655672
     5.228231450         1.479349971        29.489416486
     1.268241385         1.479349971        29.489416486
     3.248236224         0.000000000        34.717647811
     0.000000000         0.000000000        34.005893786
     1.979994839         1.479349883        32.737651742
     4.516477803         1.479349883        32.737651742
     3.248236224         0.000000000        37.254123324
     5.228231450         1.479349971        35.985892715
     1.268241385         1.479349971        35.985892715
