Ti O  Ti O  Ti O  Ti O  Ti O  Ti O 
 1.0000000000000000
     6.4964728414732864    0.0000000000000000    0.0000000000000000
     0.0000000000000000    2.9586999999999999    0.0000000000000000
     0.0000000000000000    0.0000000000000000   38.2211770963074429
 Ti  O   Ti  O   Ti  O   Ti  O   Ti  O   Ti  O  
   2   4   2   4   2   4   2   4   2   4   2   4
Cartesian
  0.0000000000000000  0.0000000000000000  9.9999999999999982
  3.2482364207366423  1.4793499999999997  9.9999999999999982
 -0.0000000000000025  0.0000000000000000 11.9799949926242277
  3.2482364207366428  0.0000000000000000 11.2682414281124128
  5.2282314133608709  1.4793499999999997  9.9999999999999982
  1.2682414281124144  1.4793499999999997  9.9999999999999982
  3.2482364207366428  0.0000000000000000 13.2482364207366423
 -0.0000000000000025  1.4793499999999997 13.2482364207366423
  3.2482364207366414  0.0000000000000000 15.2282314133608683
  0.0000000000000000  0.0000000000000000 14.5164778488490569
  1.9799949926242271  1.4793499999999997 13.2482364207366423
  4.5164778488490578  1.4793499999999997 13.2482364207366423
  0.0000000000000000  0.0000000000000000 16.4964728414732846
  3.2482364207366414  1.4793499999999997 16.4964728414732846
  0.0000000000000000  0.0000000000000000 18.4764678340975159
  3.2482364207366414  0.0000000000000000 17.7647142695856992
  5.2282314133608692  1.4793499999999997 16.4964728414732846
  1.2682414281124144  1.4793499999999997 16.4964728414732846
  3.2482364207366414  0.0000000000000000 19.7447092622099269
  0.0000000000000000  1.4793499999999997 19.7447092622099269
  3.2482364207366428  0.0000000000000000 21.7247042548341582
 -0.0000000000000025  0.0000000000000000 21.0129506903223380
  1.9799949926242286  1.4793499999999997 19.7447092622099269
  4.5164778488490560  1.4793499999999997 19.7447092622099269
  0.0000000000000000  0.0000000000000000 22.9929456829465764
  3.2482364207366428  1.4793499999999997 22.9929456829465764
 -0.0000000000000025  0.0000000000000000 24.9729406755708041
  3.2482364207366428  0.0000000000000000 24.2611871110589874
  5.2282314133608718  1.4793499999999997 22.9929456829465764
  1.2682414281124144  1.4793499999999997 22.9929456829465764
  3.2482364207366428  0.0000000000000000 26.2411821036832151
 -0.0000000000000025  1.4793499999999997 26.2411821036832151
  3.2482364207366401  0.0000000000000000 28.2211770963074393
 -0.0000000000000025  0.0000000000000000 27.5094235317956333
  1.9799949926242286  1.4793499999999997 26.2411821036832151
  4.5164778488490525  1.4793499999999997 26.2411821036832151
