Ti O  Ti O  Ti O  Ti O  Ti O  Ti O  Ti O  Ti O  Ti O 
 1.0000000000000000
     6.4964728414732864    0.0000000000000000    0.0000000000000000
     0.0000000000000000    2.9586999999999999    0.0000000000000000
     0.0000000000000000    0.0000000000000000   47.9658863585173805
 Ti  O   Ti  O   Ti  O   Ti  O   Ti  O   Ti  O   Ti  O   Ti  O   Ti  O  
   2   4   2   4   2   4   2   4   2   4   2   4   2   4   2   4   2   4
Cartesian
  0.0000000000000000  0.0000000000000000 10.0000000000000000
  3.2482364207366423  1.4793499999999997 10.0000000000000000
 -0.0000000000000025  0.0000000000000000 11.9799949926242277
  3.2482364207366428  0.0000000000000000 11.2682414281124128
  5.2282314133608709  1.4793499999999997 10.0000000000000000
  1.2682414281124144  1.4793499999999997 10.0000000000000000
  3.2482364207366428  0.0000000000000000 13.2482364207366441
 -0.0000000000000025  1.4793499999999997 13.2482364207366441
  3.2482364207366414  0.0000000000000000 15.2282314133608718
  0.0000000000000000  0.0000000000000000 14.5164778488490587
  1.9799949926242271  1.4793499999999997 13.2482364207366441
  4.5164778488490578  1.4793499999999997 13.2482364207366441
  0.0000000000000000  0.0000000000000000 16.4964728414732846
  3.2482364207366414  1.4793499999999997 16.4964728414732882
  0.0000000000000000  0.0000000000000000 18.4764678340975159
  3.2482364207366414  0.0000000000000000 17.7647142695857028
  5.2282314133608692  1.4793499999999997 16.4964728414732846
  1.2682414281124144  1.4793499999999997 16.4964728414732882
  3.2482364207366414  0.0000000000000000 19.7447092622099305
  0.0000000000000000  1.4793499999999997 19.7447092622099305
  3.2482364207366428  0.0000000000000000 21.7247042548341582
 -0.0000000000000025  0.0000000000000000 21.0129506903223451
  1.9799949926242286  1.4793499999999997 19.7447092622099305
  4.5164778488490560  1.4793499999999997 19.7447092622099305
  0.0000000000000000  0.0000000000000000 22.9929456829465799
  3.2482364207366428  1.4793499999999997 22.9929456829465799
 -0.0000000000000025  0.0000000000000000 24.9729406755708041
  3.2482364207366428  0.0000000000000000 24.2611871110589874
  5.2282314133608718  1.4793499999999997 22.9929456829465799
  1.2682414281124144  1.4793499999999997 22.9929456829465799
  3.2482364207366428  0.0000000000000000 26.2411821036832151
 -0.0000000000000025  1.4793499999999997 26.2411821036832151
  3.2482364207366401  0.0000000000000000 28.2211770963074429
 -0.0000000000000025  0.0000000000000000 27.5094235317956333
  1.9799949926242286  1.4793499999999997 26.2411821036832151
  4.5164778488490525  1.4793499999999997 26.2411821036832151
 -0.0000000000000025  0.0000000000000000 29.4894185244198610
  3.2482364207366428  1.4793499999999997 29.4894185244198610
 -0.0000000000000053  0.0000000000000000 31.4694135170440887
  3.2482364207366428  0.0000000000000000 30.7576599525322756
  5.2282314133608718  1.4793499999999997 29.4894185244198610
  1.2682414281124115  1.4793499999999997 29.4894185244198610
  3.2482364207366428  0.0000000000000000 32.7376549451565069
  0.0000000000000000  1.4793499999999997 32.7376549451565069
  3.2482364207366428  0.0000000000000000 34.7176499377807417
 -0.0000000000000053  0.0000000000000000 34.0058963732689179
  1.9799949926242286  1.4793499999999997 32.7376549451565069
  4.5164778488490551  1.4793499999999997 32.7376549451564998
  0.0000000000000000  0.0000000000000000 35.9858913658931598
  3.2482364207366428  1.4793499999999997 35.9858913658931598
  0.0000000000000000  0.0000000000000000 37.9658863585173876
  3.2482364207366370  0.0000000000000000 37.2541327940055638
  5.2282314133608718  1.4793499999999997 35.9858913658931598
  1.2682414281124086  1.4793499999999997 35.9858913658931456
