../../../04-101-interface/01-converge-slab-layers/4_layer/output final
1.0
   5.507299420   0.000000000   0.000000000
   0.000000000   4.640494439   0.000000000
   0.000000000   0.000000000  31.678949356
   Ti    O
    8   16
Cartesian
               3.9550375322       -0.2597943606       12.5495136340
               1.2013879861        2.5800414414       12.5495136340
               2.2196699054        0.1746801657       14.9038461824
               4.9733192872        2.1455669151       14.9038461824
               0.7233204504       -0.1745221836       17.5328643396
               3.4769697909        2.4947692644       17.5328643396
               4.4934956188        0.2601510858       19.8879877339
               1.7398460727        2.0600959950       19.8879877339
               2.6687494992        3.3042671198       11.7355451561
               5.4223992096        3.6564737085       11.7355451561
               5.0649170445        1.4018978824       13.1982515631
               1.0828336959        3.2535848301       14.2327161823
               2.3112671709        0.9183492681       13.1982496751
               3.8364829134        3.7071562740       14.2327142943
               3.4479679355        1.4235102732       15.7335646651
               5.0012085468        3.2169770695       16.7024872372
               0.6943185537        0.8967368076       15.7335656091
               2.2475586722        3.7437640346       16.7024853482
               1.8560539758        1.3875235340       18.2049571396
               3.3835784917        3.2376347774       19.2386554262
               4.6097036861        0.9327234782       18.2049571396
               0.6299288226        3.7231060509       19.2386554262
               0.2697275947        1.3381213690       20.7019834664
               3.0233766892        0.9821257816       20.7019796894
