../../../04-101-interface/04-strained-RuO2-film/relax_1_layer_R-RuO2_only.vasp/output final
1.0
        5.4640631676         0.0000000000         0.0000000000
        0.0000000000         4.5936999321         0.0000000000
        0.0000000000         0.0000000000        41.6286010742
    O   Ru
    4    2
Cartesian
               2.4656044731        3.4209026941       10.2631908006
               5.1976363821        3.4696463829       10.2631908006
               5.1602637031        1.1702963489       11.2148801692
               2.4282322821        1.1265535491       11.2148789282
               3.8113104897        0.0006942663       10.7373389821
               1.0792790687        2.2961554257       10.7373389821
