../relax_1_layer_R-RuO2_only.vasp/output final
1.0
  6.52527379990000 0.00000000000000 0.00000000000000
  0.00000000000000 2.96722197530000 0.00000000000000
  0.00000000000000 0.00000000000000 22.58571589000001
    O   Ru
    4    2
Cartesian
               3.2626365110        0.0000000000       10.1204217715
               3.2626365110        0.0000000000       12.5267136948
               5.2772669434        1.4836109880       11.3226827731
               1.2480071476        1.4836109880       11.3226827731
               0.0000000000        0.0000000000       11.3203998517
               3.2626365110        1.4836108110       11.3235511938
