../relax_1L_RuO2_both_side_on-5-layer-R-TiO2_100.vasp/output final
1.0
4.71241807940000 0.00000000000000 0.00000000000000
0.00000000000000 2.96268820760000 0.00000000000000
0.00000000000000 0.00000000000000 55.85281753540000
   Ti    O   Ru
   12   28   2
Selective dynamics
Cartesian
               2.4161090720        1.4813440160       16.8669294702    T   T   T
               0.0606020925        0.0000000000       19.1904224838    T   T   T
               2.4134752913        1.4813440160       21.4649252817    T   T   T
               0.0595941760        0.0000000000       23.7914150041    T   T   T
               2.4157850960        1.4813440160       26.0629084436    T   T   T
               0.0639511540        0.0000000000       28.3897578030    F   F   F
               2.4210453140        1.4813440160       30.6554714000    F   F   F
               0.0603918543        0.0000000000       32.9825318058    T   T   T
               2.4165811782        1.4813440160       35.2539697053    T   T   T
               0.0586236281        0.0000000000       37.5818501901    T   T   T
               2.4176978959        1.4813440160       39.8570016833    T   T   T
               0.0609444113        0.0000000000       42.1810426708    T   T   T
               0.6494036490        1.4813440160       13.5880732479    T   T   T
               1.4418881951        0.0000000000       15.9597047901    T   T   T
               3.2750943713        0.0000000000       17.7508019217    T   T   T
               0.9019859111        1.4813440160       18.2777009318    T   T   T
               3.7173275103        1.4813440160       15.4018472003    T   T   T
               1.4420971167        0.0000000000       20.5660132429    T   T   T
               3.2468593560        0.0000000000       22.3864249725    T   T   T
               0.8898635533        1.4813440160       22.8690175671    T   T   T
               3.7952131672        1.4813440160       20.0858640554    T   T   T
               1.4469830495        0.0000000000       25.1569418144    T   T   T
               3.2352318053        0.0000000000       26.9932218647    T   T   T
               0.8779211751        1.4813440160       27.4570637617    T   T   T
               3.8037072480        1.4813440160       24.6970624296    T   T   T
               1.4491756962        0.0000000000       29.7493498590    T   T   T
               3.2379043617        0.0000000000       31.5848522879    T   T   T
               0.8827369699        1.4813440160       32.0548760331    T   T   T
               3.8056585611        1.4813440160       29.2961267162    T   T   T
               1.4461300467        0.0000000000       34.3505912393    T   T   T
               3.2491124050        0.0000000000       36.1741312619    T   T   T
               0.8931734113        1.4813440160       36.6616581353    T   T   T
               3.8015571831        1.4813440160       33.8854720109    T   T   T
               1.4396950664        0.0000000000       38.9614399125    T   T   T
               3.2583372093        0.0000000000       40.7705037919    T   T   T
               0.9191299642        1.4813440160       41.2964810051    T   T   T
               3.7989777115        1.4813440160       38.4804860368    T   T   T
               1.3630749578        0.0000000000       43.6445274571    T   T   T
               3.0047100875        0.0000000000       45.4612729640    T   T   T
               3.7997466389        1.4813440160       43.0891397070    T   T   T
               0.0924742186        0.0000000000       14.5770456748    T   T   T
               2.4495918929        1.4813440160       44.4713603531    T   T   T
