../6_layer/output final structure
1.0
   6.516889485   0.000000000   0.000000000
   0.000000000   2.965677286   0.000000000
   0.000000000   0.000000000  41.469413757
   Ti    O
   12   24
Cartesian
               3.2584445483        0.0000000000       13.2699644555
               0.0000000000        1.4828385552       12.7664183351
               0.0000000000        0.0000000000       16.1054405088
               3.2584445483        1.4828385552       16.5136887429
               3.2584445483        0.0000000000       19.9029073980
               0.0000000000        1.4828385552       19.5613645726
               0.0000000000        0.0000000000       22.8349849739
               3.2584445483        1.4828385552       23.1762609384
               3.2584445483        0.0000000000       26.6302529023
               0.0000000000        1.4828385552       26.2250877850
               0.0000000000        0.0000000000       29.4710553104
               3.2584445483        1.4828385552       29.9695822492
               0.0000000000        0.0000000000       11.6998470830
               3.2584445483        0.0000000000       15.0678293618
               0.0000000000        0.0000000000       14.2849204939
               2.0289981535        1.4828385552       12.9047836092
               4.4878911377        1.4828385552       12.9047836092
               0.0000000000        0.0000000000       18.4011444674
               3.2584445483        0.0000000000       17.6569695576
               5.2332100287        1.4828386434       16.3245467882
               1.2836794560        1.4828386434       16.3245467882
               3.2584445483        0.0000000000       21.7546095508
               0.0000000000        0.0000000000       20.9836248783
               1.9903366109        1.4828385552       19.7077583436
               4.5265526802        1.4828385552       19.7077583436
               0.0000000000        0.0000000000       25.0830553901
               3.2584445483        0.0000000000       24.3354672652
               5.2489685874        1.4828386434       23.0293666718
               1.2679208973        1.4828386434       23.0293666718
               3.2584445483        0.0000000000       28.4518586606
               0.0000000000        0.0000000000       27.6727761163
               1.9755573951        1.4828385552       26.4071977636
               4.5413318961        1.4828385552       26.4071977636
               3.2584445483        0.0000000000       31.0349538920
               5.2880812432        1.4828386434       29.8381879495
               1.2288082416        1.4828386434       29.8381879495
