
     Program PWSCF v.7.2 starts on 23Jul2026 at 13:43: 0 
        Git branch: krg.prod
        Last git commit: daa121e36ad33d2e2c57a5cfc9f193e3f68d7ebf
        Last git commit date: Wed Feb 25 11:53:28 2026 -0600
        Last git commit subject: use krg software repo instead

     This program is part of the open-source Quantum ESPRESSO suite
     for quantum simulation of materials; please cite
         "P. Giannozzi et al., J. Phys.:Condens. Matter 21 395502 (2009);
         "P. Giannozzi et al., J. Phys.:Condens. Matter 29 465901 (2017);
         "P. Giannozzi et al., J. Chem. Phys. 152 154105 (2020);
          URL http://www.quantum-espresso.org", 
     in publications or presentations arising from this work. More details at
     http://www.quantum-espresso.org/quote

     Serial multi-threaded version, running on    8 processor cores
     179756 MiB available memory on the printing compute node when the environment starts
 
     Waiting for input...
     Reading input from standard input
Warning: card &FCP ignored
Warning: card / ignored
Warning: card &RISM ignored
Warning: card / ignored

     Current dimensions of program PWSCF are:
     Max number of different atomic species (ntypx) = 10
     Max number of k-points (npk) =  40000
     Max angular momentum in pseudopotentials (lmaxx) =  4
     Message from routine setup:
     using ibrav=0 with symmetry is DISCOURAGED, use correct ibrav instead
 
 
     G-vector sticks info
     --------------------
     sticks:   dense  smooth     PW     G-vecs:    dense   smooth      PW
     Sum        2639    2639    733               960753   960753  139571
 
     Using Slab Decomposition
 


     bravais-lattice index     =            0
     lattice parameter (alat)  =      12.3151  a.u.
     unit-cell volume          =    5408.6483 (a.u.)^3
     number of atoms/cell      =           36
     number of atomic types    =            2
     number of electrons       =       288.00
     number of Kohn-Sham states=          173
     kinetic-energy cutoff     =     120.0000  Ry
     charge density cutoff     =     480.0000  Ry
     scf convergence threshold =      1.0E-06
     mixing beta               =       0.4000
     number of iterations used =           20  plain     mixing
     energy convergence thresh.=      1.0E-04
     force convergence thresh. =      1.0E-03
     press convergence thresh. =      5.0E-01
     Exchange-correlation= PBE
                           (   1   4   3   4   0   0   0)
     nstep                     =          500


     GPU acceleration is ACTIVE.


     celldm(1)=  12.315136  celldm(2)=   0.000000  celldm(3)=   0.000000
     celldm(4)=   0.000000  celldm(5)=   0.000000  celldm(6)=   0.000000

     crystal axes: (cart. coord. in units of alat)
               a(1) = (   1.000000   0.000000   0.000000 )  
               a(2) = (   0.000000   0.455076   0.000000 )  
               a(3) = (   0.000000   0.000000   6.363375 )  

     reciprocal axes: (cart. coord. in units 2 pi/alat)
               b(1) = (  1.000000  0.000000  0.000000 )  
               b(2) = (  0.000000  2.197437  0.000000 )  
               b(3) = (  0.000000  0.000000  0.157149 )  


     PseudoPot. # 1 for Ti read from file:
     /cm/shared/apps/KO/pseudo/sg15/Ti_ONCV_PBE-1.2.upf
     MD5 check sum: 1aea57736bd12dcfee93c97d0b9b5968
     Pseudo is Norm-conserving, Zval = 12.0
     Generated using ONCVPSP code by D. R. Hamann
     Using radial grid of  602 points,  6 beta functions with: 
                l(1) =   0
                l(2) =   0
                l(3) =   1
                l(4) =   1
                l(5) =   2
                l(6) =   2

     PseudoPot. # 2 for O  read from file:
     /cm/shared/apps/KO/pseudo/sg15/O_ONCV_PBE-1.2.upf
     MD5 check sum: e36c48deb68f4e355fffe4602be2c42c
     Pseudo is Norm-conserving, Zval =  6.0
     Generated using ONCVPSP code by D. R. Hamann
     Using radial grid of  602 points,  4 beta functions with: 
                l(1) =   0
                l(2) =   0
                l(3) =   1
                l(4) =   1

     atomic species   valence    mass     pseudopotential
     Ti               12.00    47.86700     Ti( 1.00)
     O                 6.00    15.99900     O ( 1.00)

      4 Sym. Ops. (no inversion) found



   Cartesian axes

     site n.     atom                  positions (alat units)
         1        Ti     tau(   1) = (   0.5000000   0.0000000   2.0362421  )
         2        Ti     tau(   2) = (   0.0000000   0.2275378   1.9589742  )
         3        Ti     tau(   3) = (   0.0000000   0.0000000   2.4713386  )
         4        Ti     tau(   4) = (   0.5000000   0.2275378   2.5339832  )
         5        Ti     tau(   5) = (   0.5000000   0.0000000   3.0540502  )
         6        Ti     tau(   6) = (   0.0000000   0.2275378   3.0016413  )
         7        Ti     tau(   7) = (   0.0000000   0.0000000   3.5039700  )
         8        Ti     tau(   8) = (   0.5000000   0.2275378   3.5563379  )
         9        Ti     tau(   9) = (   0.5000000   0.0000000   4.0863441  )
        10        Ti     tau(  10) = (   0.0000000   0.2275378   4.0241726  )
        11        Ti     tau(  11) = (   0.0000000   0.0000000   4.5222580  )
        12        Ti     tau(  12) = (   0.5000000   0.2275378   4.5987556  )
        13        O      tau(  13) = (   0.0000000   0.0000000   1.7953116  )
        14        O      tau(  14) = (   0.5000000   0.0000000   2.3121198  )
        15        O      tau(  15) = (   0.0000000   0.0000000   2.1919845  )
        16        O      tau(  16) = (   0.3113446   0.2275378   1.9802060  )
        17        O      tau(  17) = (   0.6886554   0.2275378   1.9802060  )
        18        O      tau(  18) = (   0.0000000   0.0000000   2.8236085  )
        19        O      tau(  19) = (   0.5000000   0.0000000   2.7094168  )
        20        O      tau(  20) = (   0.8030227   0.2275378   2.5049599  )
        21        O      tau(  21) = (   0.1969773   0.2275378   2.5049599  )
        22        O      tau(  22) = (   0.5000000   0.0000000   3.3381891  )
        23        O      tau(  23) = (   0.0000000   0.0000000   3.2198835  )
        24        O      tau(  24) = (   0.3054121   0.2275378   3.0241050  )
        25        O      tau(  25) = (   0.6945879   0.2275378   3.0241050  )
        26        O      tau(  26) = (   0.0000000   0.0000000   3.8489306  )
        27        O      tau(  27) = (   0.5000000   0.0000000   3.7342151  )
        28        O      tau(  28) = (   0.8054408   0.2275378   3.5337973  )
        29        O      tau(  29) = (   0.1945592   0.2275378   3.5337973  )
        30        O      tau(  30) = (   0.5000000   0.0000000   4.3658648  )
        31        O      tau(  31) = (   0.0000000   0.0000000   4.2463166  )
        32        O      tau(  32) = (   0.3031442   0.2275378   4.0521169  )
        33        O      tau(  33) = (   0.6968557   0.2275378   4.0521169  )
        34        O      tau(  34) = (   0.5000000   0.0000000   4.7622342  )
        35        O      tau(  35) = (   0.8114425   0.2275378   4.5785935  )
        36        O      tau(  36) = (   0.1885575   0.2275378   4.5785935  )

     number of k points=    15  Gaussian smearing, width (Ry)=  0.0200
                       cart. coord. in units 2pi/alat
        k(    1) = (   0.0000000   0.0000000   0.0000000), wk =   0.0555556
        k(    2) = (   0.0000000   0.2441597   0.0000000), wk =   0.1111111
        k(    3) = (   0.0000000   0.4883194   0.0000000), wk =   0.1111111
        k(    4) = (   0.0000000   0.7324791   0.0000000), wk =   0.1111111
        k(    5) = (   0.0000000   0.9766387   0.0000000), wk =   0.1111111
        k(    6) = (   0.2500000   0.0000000   0.0000000), wk =   0.1111111
        k(    7) = (   0.2500000   0.2441597   0.0000000), wk =   0.2222222
        k(    8) = (   0.2500000   0.4883194   0.0000000), wk =   0.2222222
        k(    9) = (   0.2500000   0.7324791   0.0000000), wk =   0.2222222
        k(   10) = (   0.2500000   0.9766387   0.0000000), wk =   0.2222222
        k(   11) = (  -0.5000000   0.0000000   0.0000000), wk =   0.0555556
        k(   12) = (  -0.5000000   0.2441597   0.0000000), wk =   0.1111111
        k(   13) = (  -0.5000000   0.4883194   0.0000000), wk =   0.1111111
        k(   14) = (  -0.5000000   0.7324791   0.0000000), wk =   0.1111111
        k(   15) = (  -0.5000000   0.9766387   0.0000000), wk =   0.1111111

     Dense  grid:   960753 G-vectors     FFT dimensions: (  90,  40, 576)

     Estimated max dynamical RAM per process >       7.83 GB

     Initial potential from superposition of free atoms

     starting charge     286.6604, renormalised to     288.0000

     negative rho (up, down):  1.031E-03 0.000E+00
     Starting wfcs are random

     total cpu time spent up to now is       12.0 secs

     per-process dynamical memory:  1384.2 Mb

     Self-consistent Calculation

     iteration #  1     ecut=   120.00 Ry     beta= 0.40
     Davidson diagonalization with overlap
     ethr =  1.00E-02,  avg # of iterations = 17.1

     negative rho (up, down):  1.392E-05 0.000E+00

     total cpu time spent up to now is       32.9 secs

     total energy              =   -2151.83615653 Ry
     estimated scf accuracy    <      14.17410444 Ry

     iteration #  2     ecut=   120.00 Ry     beta= 0.40
     Davidson diagonalization with overlap
     ethr =  4.92E-03,  avg # of iterations =  4.0

     negative rho (up, down):  2.066E-07 0.000E+00

     total cpu time spent up to now is       42.0 secs

     total energy              =   -2154.78932079 Ry
     estimated scf accuracy    <       3.13075932 Ry

     iteration #  3     ecut=   120.00 Ry     beta= 0.40
     Davidson diagonalization with overlap
     ethr =  1.09E-03,  avg # of iterations =  6.9

     negative rho (up, down):  4.227E-08 0.000E+00

     total cpu time spent up to now is       50.8 secs

     total energy              =   -2155.00549793 Ry
     estimated scf accuracy    <       9.52255454 Ry

     iteration #  4     ecut=   120.00 Ry     beta= 0.40
     Davidson diagonalization with overlap
     c_bands:  4 eigenvalues not converged
     ethr =  1.09E-03,  avg # of iterations = 13.5

     negative rho (up, down):  2.110E-08 0.000E+00

     total cpu time spent up to now is       60.2 secs

     total energy              =   -2155.54170137 Ry
     estimated scf accuracy    <       3.65048644 Ry

     iteration #  5     ecut=   120.00 Ry     beta= 0.40
     Davidson diagonalization with overlap
     c_bands:  1 eigenvalues not converged
     ethr =  1.09E-03,  avg # of iterations =  5.9

     total cpu time spent up to now is       68.2 secs

     total energy              =   -2155.77065042 Ry
     estimated scf accuracy    <       0.91169562 Ry

     iteration #  6     ecut=   120.00 Ry     beta= 0.40
     Davidson diagonalization with overlap
     ethr =  3.17E-04,  avg # of iterations =  6.1

     total cpu time spent up to now is       76.3 secs

     total energy              =   -2155.86994969 Ry
     estimated scf accuracy    <       0.08691885 Ry

     iteration #  7     ecut=   120.00 Ry     beta= 0.40
     Davidson diagonalization with overlap
     c_bands:  3 eigenvalues not converged
     c_bands:  2 eigenvalues not converged
     c_bands:  5 eigenvalues not converged
     c_bands:  2 eigenvalues not converged
     c_bands:  1 eigenvalues not converged
     c_bands:  2 eigenvalues not converged
     c_bands:  5 eigenvalues not converged
     c_bands:  5 eigenvalues not converged
     ethr =  3.02E-05,  avg # of iterations = 20.9

     total cpu time spent up to now is       90.2 secs

     total energy              =   -2155.89481479 Ry
     estimated scf accuracy    <       0.08450277 Ry

     iteration #  8     ecut=   120.00 Ry     beta= 0.40
     Davidson diagonalization with overlap
     c_bands:  3 eigenvalues not converged
     ethr =  2.93E-05,  avg # of iterations =  7.7

     total cpu time spent up to now is       99.0 secs

     total energy              =   -2155.90029109 Ry
     estimated scf accuracy    <       0.01543633 Ry

     iteration #  9     ecut=   120.00 Ry     beta= 0.40
     Davidson diagonalization with overlap
     c_bands:  1 eigenvalues not converged
     c_bands:  1 eigenvalues not converged
     c_bands:  1 eigenvalues not converged
     c_bands:  2 eigenvalues not converged
     c_bands:  1 eigenvalues not converged
     c_bands:  1 eigenvalues not converged
     ethr =  5.36E-06,  avg # of iterations = 15.5

     total cpu time spent up to now is      109.2 secs

     total energy              =   -2155.90221034 Ry
     estimated scf accuracy    <       0.00422193 Ry

     iteration # 10     ecut=   120.00 Ry     beta= 0.40
     Davidson diagonalization with overlap
     c_bands:  1 eigenvalues not converged
     c_bands:  1 eigenvalues not converged
     ethr =  1.47E-06,  avg # of iterations = 10.4

     total cpu time spent up to now is      118.5 secs

     total energy              =   -2155.90245510 Ry
     estimated scf accuracy    <       0.00156740 Ry

     iteration # 11     ecut=   120.00 Ry     beta= 0.40
     Davidson diagonalization with overlap
     ethr =  5.44E-07,  avg # of iterations =  5.0

     total cpu time spent up to now is      126.6 secs

     total energy              =   -2155.90256567 Ry
     estimated scf accuracy    <       0.00070130 Ry

     iteration # 12     ecut=   120.00 Ry     beta= 0.40
     Davidson diagonalization with overlap
     ethr =  2.44E-07,  avg # of iterations =  6.7

     total cpu time spent up to now is      135.6 secs

     total energy              =   -2155.90259076 Ry
     estimated scf accuracy    <       0.00034928 Ry

     iteration # 13     ecut=   120.00 Ry     beta= 0.40
     Davidson diagonalization with overlap
     c_bands:  1 eigenvalues not converged
     ethr =  1.21E-07,  avg # of iterations =  6.9

     total cpu time spent up to now is      143.9 secs

     total energy              =   -2155.90259078 Ry
     estimated scf accuracy    <       0.00014832 Ry

     iteration # 14     ecut=   120.00 Ry     beta= 0.40
     Davidson diagonalization with overlap
     ethr =  5.15E-08,  avg # of iterations =  7.0

     total cpu time spent up to now is      152.7 secs

     total energy              =   -2155.90260729 Ry
     estimated scf accuracy    <       0.00005670 Ry

     iteration # 15     ecut=   120.00 Ry     beta= 0.40
     Davidson diagonalization with overlap
     ethr =  1.97E-08,  avg # of iterations =  2.3

     total cpu time spent up to now is      160.6 secs

     total energy              =   -2155.90260365 Ry
     estimated scf accuracy    <       0.00003900 Ry

     iteration # 16     ecut=   120.00 Ry     beta= 0.40
     Davidson diagonalization with overlap
     ethr =  1.35E-08,  avg # of iterations =  4.1

     negative rho (up, down):  8.512E-08 0.000E+00

     total cpu time spent up to now is      168.5 secs

     total energy              =   -2155.90260443 Ry
     estimated scf accuracy    <       0.00002117 Ry

     iteration # 17     ecut=   120.00 Ry     beta= 0.40
     Davidson diagonalization with overlap
     ethr =  7.35E-09,  avg # of iterations =  3.1

     negative rho (up, down):  9.632E-08 0.000E+00

     total cpu time spent up to now is      176.1 secs

     total energy              =   -2155.90260378 Ry
     estimated scf accuracy    <       0.00001335 Ry

     iteration # 18     ecut=   120.00 Ry     beta= 0.40
     Davidson diagonalization with overlap
     ethr =  4.64E-09,  avg # of iterations =  2.9

     total cpu time spent up to now is      183.7 secs

     total energy              =   -2155.90260334 Ry
     estimated scf accuracy    <       0.00000764 Ry

     iteration # 19     ecut=   120.00 Ry     beta= 0.40
     Davidson diagonalization with overlap
     c_bands:  2 eigenvalues not converged
     ethr =  2.65E-09,  avg # of iterations =  6.3

     total cpu time spent up to now is      192.5 secs

     total energy              =   -2155.90260324 Ry
     estimated scf accuracy    <       0.00000312 Ry

     iteration # 20     ecut=   120.00 Ry     beta= 0.40
     Davidson diagonalization with overlap
     ethr =  1.08E-09,  avg # of iterations =  8.5

     total cpu time spent up to now is      201.3 secs

     End of self-consistent calculation

          k = 0.0000 0.0000 0.0000 (120149 PWs)   bands (ev):

   -56.5164 -56.5089 -56.3730 -56.3664 -56.3033 -56.2997 -56.2943 -56.2909
   -56.2156 -56.2035 -55.9098 -55.9072 -32.8341 -32.8270 -32.7220 -32.7139
   -32.7113 -32.7048 -32.6341 -32.6269 -32.6268 -32.6199 -32.6147 -32.6083
   -32.6064 -32.5984 -32.5159 -32.5106 -32.4574 -32.4559 -32.4551 -32.4528
   -32.4448 -32.4447 -32.4443 -32.4385 -32.4023 -32.3942 -32.3866 -32.3786
   -32.3243 -32.3124 -32.1934 -32.1894 -32.1638 -32.1610 -31.9725 -31.9695
   -17.5096 -17.4362 -17.2320 -17.0804 -17.0017 -16.9439 -16.8403 -16.7757
   -16.5381 -16.4005 -16.2499 -16.2394 -16.1868 -16.1782 -15.8576 -15.8205
   -15.8095 -15.8060 -15.7881 -15.7714 -15.7568 -15.7298 -15.4635 -15.4557
    -5.0675  -4.9811  -4.8945  -4.8811  -4.8595  -4.8547  -4.7801  -4.7164
    -4.4147  -4.3911  -4.1146  -3.9322  -3.6828  -3.6336  -3.6234  -3.5040
    -3.4966  -3.1813  -3.1685  -3.1465  -3.1438  -3.1249  -3.1034  -3.0985
    -3.0520  -3.0425  -2.8520  -2.8408  -2.7456  -2.6762  -2.5974  -2.3046
    -2.2247  -2.1335  -2.0921  -1.9824  -1.9622  -1.9618  -1.8956  -1.8918
    -1.7518  -1.6919  -1.6089  -1.5853  -1.4963  -1.4909  -1.3548  -1.2308
    -1.2058  -1.1971  -1.1609  -1.1266  -1.0968  -1.0846  -0.8339  -0.8154
    -0.8056  -0.7937  -0.5542  -0.5484  -0.5273  -0.5248  -0.5031  -0.4939
    -0.4702  -0.4677  -0.0647  -0.0252   0.0061   0.1594   0.3097   0.4419
     2.5071   2.5212   2.5568   2.6008   2.6247   2.6302   2.9205   2.9575
     2.9583   2.9661   3.1334   3.1481   3.1494   3.2039   3.2213   3.2768
     3.4476   3.4512   3.4576   3.4676   3.5833   3.7119   3.7660   3.8725
     3.9192   4.0621   4.1441   4.2008   4.3106

          k = 0.0000 0.2442 0.0000 (120091 PWs)   bands (ev):

   -56.5117 -56.5042 -56.3685 -56.3618 -56.2984 -56.2951 -56.2899 -56.2867
   -56.2111 -56.1990 -55.9049 -55.9023 -32.8222 -32.8151 -32.7204 -32.7150
   -32.7137 -32.7070 -32.6760 -32.6689 -32.6146 -32.6076 -32.6016 -32.5955
   -32.5951 -32.5873 -32.5169 -32.5128 -32.4970 -32.4908 -32.4542 -32.4514
   -32.4508 -32.4489 -32.4479 -32.4462 -32.4408 -32.4360 -32.4353 -32.4316
   -32.3749 -32.3631 -32.1870 -32.1831 -32.1609 -32.1580 -32.0274 -32.0242
   -17.3889 -17.3202 -17.1244 -16.9789 -16.9015 -16.8455 -16.7467 -16.6880
   -16.4619 -16.3280 -16.2350 -16.2252 -16.1527 -16.1411 -15.9008 -15.8679
   -15.8561 -15.8520 -15.8373 -15.8193 -15.8053 -15.7822 -15.4938 -15.4861
    -4.9009  -4.8275  -4.7547  -4.7403  -4.7119  -4.7069  -4.6483  -4.5823
    -4.2733  -4.2658  -3.9921  -3.8482  -3.7024  -3.6890  -3.6671  -3.6213
    -3.6123  -3.5833  -3.5341  -3.3613  -3.3414  -3.3357  -3.3058  -3.2623
    -3.1552  -2.8366  -2.8005  -2.6451  -2.6053  -2.5136  -2.2742  -2.1294
    -2.1224  -1.9507  -1.8896  -1.8774  -1.8325  -1.8016  -1.7374  -1.7155
    -1.6845  -1.6542  -1.6293  -1.5984  -1.5744  -1.5214  -1.4855  -1.4797
    -1.4316  -1.3518  -1.3413  -1.2714  -1.2002  -1.1487  -1.0532  -1.0440
    -0.9465  -0.9406  -0.7916  -0.7836  -0.6994  -0.6622  -0.6161  -0.5794
    -0.4934  -0.3964  -0.2679  -0.2460  -0.2183   0.1161   0.2378   0.3719
     2.6012   2.6105   2.6648   2.7142   2.7319   2.7642   2.8913   2.8986
     2.9122   2.9534   2.9741   3.2135   3.2184   3.2502   3.2905   3.3025
     3.5135   3.6481   3.6552   3.6698   3.7162   3.7257   3.7572   3.9531
     3.9680   3.9786   4.1093   4.2070   4.3702

          k = 0.0000 0.4883 0.0000 (120081 PWs)   bands (ev):

   -56.4998 -56.4924 -56.3569 -56.3503 -56.2858 -56.2831 -56.2785 -56.2760
   -56.1998 -56.1876 -55.8925 -55.8900 -32.8389 -32.8314 -32.7845 -32.7777
   -32.6978 -32.6941 -32.6898 -32.6874 -32.6247 -32.6185 -32.5970 -32.5914
   -32.5833 -32.5763 -32.5761 -32.5692 -32.5670 -32.5648 -32.5619 -32.5577
   -32.5045 -32.4936 -32.4842 -32.4820 -32.4484 -32.4457 -32.4387 -32.4282
   -32.4267 -32.4145 -32.2108 -32.2071 -32.1535 -32.1507 -32.1232 -32.1195
   -17.0690 -17.0156 -16.8548 -16.7285 -16.6457 -16.5981 -16.5118 -16.4728
   -16.3670 -16.3295 -16.1960 -16.1427 -16.0235 -16.0004 -15.9902 -15.9751
   -15.9615 -15.9417 -15.9392 -15.9280 -15.9220 -15.9137 -15.5531 -15.5461
    -4.4632  -4.4336  -4.4059  -4.3823  -4.3299  -4.3240  -4.3191  -4.2724
    -4.0241  -3.9774  -3.9692  -3.9567  -3.8740  -3.8283  -3.7414  -3.6659
    -3.6410  -3.6166  -3.6046  -3.5697  -3.5442  -3.4145  -3.4002  -3.2430
    -3.2252  -3.1495  -2.9497  -2.6728  -2.5542  -2.4682  -2.3810  -2.2701
    -2.2454  -2.2321  -2.1827  -2.1554  -2.0458  -1.9601  -1.9276  -1.8720
    -1.8489  -1.7997  -1.7324  -1.5396  -1.5186  -1.4854  -1.4655  -1.3923
    -1.3801  -1.3290  -1.3173  -1.2249  -1.1856  -1.1809  -1.1007  -1.0155
    -0.9958  -0.9702  -0.9694  -0.9586  -0.9061  -0.8851  -0.8579  -0.8401
    -0.8095  -0.7314  -0.5884  -0.5389  -0.5046   0.0170   0.0472   0.1212
     2.6748   2.6828   2.8283   2.8776   2.8882   2.9029   2.9698   3.0354
     3.1011   3.1498   3.1586   3.2395   3.3516   3.3781   3.3903   3.4893
     3.6678   3.6880   3.7217   3.7441   3.9015   3.9084   3.9661   3.9739
     3.9934   4.0093   4.1130   4.1263   4.2540

          k = 0.0000 0.7325 0.0000 (120088 PWs)   bands (ev):

   -56.4862 -56.4788 -56.3437 -56.3371 -56.2711 -56.2695 -56.2656 -56.2642
   -56.1869 -56.1747 -55.8785 -55.8759 -32.9842 -32.9767 -32.7787 -32.7724
   -32.7485 -32.7421 -32.7357 -32.7345 -32.7193 -32.7174 -32.6821 -32.6788
   -32.6755 -32.6710 -32.6443 -32.6324 -32.5470 -32.5399 -32.5319 -32.5266
   -32.5237 -32.5202 -32.4781 -32.4756 -32.4451 -32.4438 -32.4315 -32.4213
   -32.4014 -32.3891 -32.3464 -32.3422 -32.1455 -32.1428 -32.1150 -32.1113
   -16.6629 -16.6499 -16.6255 -16.5676 -16.3634 -16.3493 -16.3433 -16.2669
   -16.2527 -16.2459 -16.1331 -16.1181 -16.1128 -16.1117 -16.1013 -16.0842
   -16.0681 -16.0594 -15.9985 -15.9761 -15.8364 -15.8247 -15.5067 -15.5004
    -4.1619  -4.1063  -4.0967  -4.0773  -4.0697  -4.0578  -4.0152  -3.9785
    -3.9249  -3.9173  -3.8476  -3.8311  -3.8119  -3.7978  -3.7549  -3.7474
    -3.6768  -3.6652  -3.6557  -3.5827  -3.5447  -3.5054  -3.4769  -3.2959
    -3.1419  -2.9561  -2.9426  -2.8818  -2.8311  -2.7807  -2.7427  -2.6983
    -2.6893  -2.6671  -2.4908  -2.4471  -2.4313  -2.1161  -2.0639  -1.9341
    -1.8736  -1.8342  -1.7933  -1.6182  -1.5872  -1.5819  -1.5250  -1.5016
    -1.4773  -1.4282  -1.4023  -1.3562  -1.2893  -1.1657  -1.1481  -1.1462
    -1.1379  -0.9436  -0.8894  -0.8834  -0.8824  -0.8197  -0.8069  -0.7990
    -0.5966  -0.5829  -0.5740  -0.5500  -0.4653  -0.4095  -0.3581  -0.2853
     2.9290   2.9671   2.9772   2.9871   3.0569   3.1076   3.2227   3.2471
     3.2870   3.3159   3.4248   3.4347   3.4415   3.4643   3.5509   3.5638
     3.6057   3.6320   3.6377   3.7606   3.8226   3.9130   4.0472   4.0858
     4.1090   4.1406   4.1570   4.1633   4.1847

          k = 0.0000 0.9766 0.0000 (120070 PWs)   bands (ev):

   -56.4774 -56.4699 -56.3351 -56.3285 -56.2610 -56.2604 -56.2574 -56.2569
   -56.1784 -56.1663 -55.8692 -55.8667 -33.0794 -33.0719 -32.8700 -32.8637
   -32.8288 -32.8284 -32.8143 -32.8131 -32.7363 -32.7247 -32.7115 -32.7039
   -32.6880 -32.6816 -32.6667 -32.6590 -32.5228 -32.5157 -32.5101 -32.5068
   -32.4881 -32.4868 -32.4694 -32.4688 -32.4648 -32.4596 -32.4498 -32.4489
   -32.4053 -32.3959 -32.3844 -32.3719 -32.1406 -32.1378 -32.0985 -32.0948
   -16.6366 -16.6313 -16.3571 -16.3377 -16.2868 -16.2281 -16.2016 -16.1920
   -16.1793 -16.1779 -16.1635 -16.1597 -16.1567 -16.1519 -16.1287 -16.1115
   -16.0862 -16.0738 -15.9355 -15.9250 -15.8215 -15.8111 -15.3815 -15.3748
    -4.4531  -4.3556  -4.1424  -4.0929  -4.0701  -4.0508  -3.9850  -3.9509
    -3.8780  -3.8259  -3.8051  -3.7622  -3.6990  -3.6802  -3.6588  -3.6248
    -3.6033  -3.5754  -3.5326  -3.5180  -3.5120  -3.5038  -3.4045  -3.2975
    -3.2510  -3.0991  -3.0375  -3.0310  -2.9102  -2.8667  -2.7981  -2.7938
    -2.4405  -2.4361  -2.2518  -2.2093  -2.1998  -2.1716  -2.1574  -2.1127
    -2.1068  -2.0949  -2.0101  -1.9999  -1.8934  -1.8633  -1.7305  -1.7244
    -1.6351  -1.4591  -1.3933  -1.2736  -1.2598  -1.1354  -1.1017  -1.0632
    -1.0237  -0.9784  -0.8997  -0.8365  -0.7559  -0.7299  -0.6719  -0.6701
    -0.6641  -0.6571  -0.6454  -0.6338  -0.5092  -0.4910  -0.4818  -0.3551
     2.7189   2.9967   3.1915   3.2001   3.2501   3.3611   3.3902   3.4001
     3.4165   3.5335   3.5424   3.5677   3.5767   3.6275   3.6906   3.6941
     3.7245   3.7637   3.7733   3.8089   3.8920   3.9051   3.9293   3.9879
     4.0380   4.0466   4.0528   4.0764   4.1524

          k = 0.2500 0.0000 0.0000 (120149 PWs)   bands (ev):

   -56.5163 -56.5089 -56.3730 -56.3664 -56.3023 -56.2992 -56.2950 -56.2920
   -56.2156 -56.2035 -55.9098 -55.9072 -32.8342 -32.8271 -32.7119 -32.7112
   -32.7050 -32.7035 -32.6340 -32.6268 -32.6219 -32.6149 -32.6071 -32.6003
   -32.5933 -32.5857 -32.5152 -32.5124 -32.4776 -32.4740 -32.4677 -32.4557
   -32.4546 -32.4447 -32.4443 -32.4385 -32.4001 -32.3922 -32.3886 -32.3809
   -32.3243 -32.3125 -32.1934 -32.1894 -32.1692 -32.1664 -31.9726 -31.9696
   -17.4195 -17.3549 -17.1349 -16.9755 -16.9101 -16.9055 -16.8230 -16.8060
   -16.5960 -16.4403 -16.3268 -16.3167 -16.1827 -16.1743 -15.8914 -15.8818
   -15.8704 -15.8502 -15.8258 -15.8235 -15.8103 -15.7862 -15.4607 -15.4531
    -4.9338  -4.8583  -4.6842  -4.6190  -4.6110  -4.5987  -4.5926  -4.5784
    -4.4074  -4.3934  -3.9122  -3.7387  -3.6362  -3.6115  -3.5052  -3.4982
    -3.4857  -3.1717  -3.1608  -3.1199  -3.1006  -3.0646  -3.0600  -3.0114
    -3.0067  -2.9968  -2.8518  -2.8405  -2.7658  -2.7439  -2.6985  -2.6050
    -2.5483  -2.3661  -2.1862  -2.1815  -2.1156  -2.1106  -2.0517  -1.8794
    -1.7128  -1.6993  -1.5846  -1.5799  -1.5626  -1.5595  -1.4315  -1.3314
    -1.2535  -1.2439  -1.1716  -1.1439  -1.0661  -1.0441  -0.9869  -0.9756
    -0.9664  -0.8668  -0.6782  -0.6689  -0.6684  -0.6508  -0.5871  -0.5780
    -0.5665  -0.5197  -0.4716  -0.3614  -0.2869   0.0461   0.1644   0.2932
     2.7836   2.7941   2.8520   2.8777   2.9199   2.9227   2.9256   2.9712
     3.1399   3.1496   3.1955   3.2131   3.2548   3.2739   3.3681   3.4130
     3.4175   3.4429   3.5888   3.6100   3.6918   3.8492   3.8698   3.9993
     4.0219   4.1351   4.1531   4.1572   4.2559

          k = 0.2500 0.2442 0.0000 (120063 PWs)   bands (ev):

   -56.5116 -56.5042 -56.3685 -56.3618 -56.2974 -56.2945 -56.2904 -56.2876
   -56.2112 -56.1990 -55.9049 -55.9024 -32.8223 -32.8152 -32.7205 -32.7139
   -32.7065 -32.6986 -32.6761 -32.6690 -32.6102 -32.6032 -32.5955 -32.5889
   -32.5821 -32.5750 -32.5165 -32.5140 -32.4974 -32.4912 -32.4778 -32.4745
   -32.4584 -32.4504 -32.4463 -32.4456 -32.4420 -32.4394 -32.4351 -32.4309
   -32.3743 -32.3625 -32.1870 -32.1831 -32.1651 -32.1623 -32.0273 -32.0242
   -17.3040 -17.2441 -17.0329 -16.8793 -16.8126 -16.8095 -16.7300 -16.7139
   -16.5162 -16.3659 -16.2577 -16.2487 -16.2055 -16.1962 -15.9348 -15.9254
   -15.9152 -15.8921 -15.8746 -15.8618 -15.8456 -15.8287 -15.4907 -15.4833
    -4.7786  -4.7150  -4.5412  -4.4783  -4.4702  -4.4513  -4.4469  -4.4379
    -4.2724  -4.2532  -3.8717  -3.7570  -3.6930  -3.6717  -3.6434  -3.6289
    -3.4984  -3.4724  -3.4415  -3.3340  -3.2911  -3.2692  -3.2563  -3.2120
    -3.1192  -2.9025  -2.8064  -2.7186  -2.5908  -2.4646  -2.4260  -2.3504
    -2.1752  -2.1721  -2.0563  -2.0482  -1.9665  -1.9564  -1.9310  -1.9204
    -1.8810  -1.7840  -1.6487  -1.6396  -1.5583  -1.5354  -1.4958  -1.4937
    -1.4649  -1.4228  -1.4173  -1.4110  -1.2927  -1.2285  -1.1773  -1.1457
    -1.1097  -1.0332  -0.9905  -0.9602  -0.8351  -0.7774  -0.5520  -0.5316
    -0.4434  -0.4184  -0.3903  -0.3757  -0.3054   0.0331   0.1302   0.2465
     2.7586   2.7643   2.8965   2.8995   2.9320   2.9708   3.0195   3.0265
     3.0306   3.0850   3.1263   3.2434   3.2488   3.3385   3.3507   3.3735
     3.5757   3.6582   3.7477   3.7526   3.7589   3.8080   3.8201   4.0654
     4.1203   4.1282   4.1806   4.2374   4.2777

          k = 0.2500 0.4883 0.0000 (119989 PWs)   bands (ev):

   -56.4998 -56.4924 -56.3569 -56.3503 -56.2850 -56.2827 -56.2789 -56.2768
   -56.1998 -56.1877 -55.8926 -55.8900 -32.8390 -32.8315 -32.7847 -32.7779
   -32.6957 -32.6942 -32.6882 -32.6871 -32.6258 -32.6196 -32.6001 -32.5923
   -32.5882 -32.5803 -32.5780 -32.5732 -32.5646 -32.5595 -32.5404 -32.5371
   -32.5010 -32.4908 -32.4836 -32.4822 -32.4607 -32.4583 -32.4387 -32.4326
   -32.4282 -32.4203 -32.2108 -32.2071 -32.1555 -32.1527 -32.1230 -32.1193
   -17.0022 -16.9574 -16.7855 -16.6534 -16.5734 -16.5686 -16.5057 -16.4856
   -16.3810 -16.3367 -16.2133 -16.1523 -16.1150 -16.1078 -16.0428 -16.0334
   -16.0110 -15.9983 -15.9798 -15.9548 -15.8843 -15.8743 -15.5497 -15.5429
    -4.3873  -4.3767  -4.1884  -4.1801  -4.1293  -4.1131  -4.0847  -4.0768
    -3.9837  -3.9588  -3.8957  -3.8639  -3.8526  -3.8050  -3.6804  -3.6747
    -3.6513  -3.6303  -3.6211  -3.5303  -3.4770  -3.4272  -3.3021  -3.2878
    -3.0929  -2.9928  -2.7968  -2.6621  -2.5759  -2.5469  -2.4633  -2.4497
    -2.4113  -2.3585  -2.3225  -2.2773  -2.2335  -2.1432  -2.0688  -1.9832
    -1.9560  -1.9291  -1.8603  -1.7778  -1.6888  -1.6337  -1.5691  -1.5077
    -1.5067  -1.4881  -1.4491  -1.3678  -1.3559  -1.3538  -1.2860  -1.2330
    -1.1170  -1.0750  -1.0102  -0.9320  -0.7512  -0.7249  -0.6961  -0.6556
    -0.5941  -0.5782  -0.5586  -0.4851  -0.3729  -0.0491  -0.0099   0.0695
     2.7024   2.7108   2.8343   2.8483   2.8658   3.0172   3.0825   3.1715
     3.2342   3.2551   3.2858   3.3047   3.3485   3.3525   3.4733   3.4981
     3.5957   3.6109   3.7723   3.8375   3.9172   3.9278   4.0020   4.0413
     4.0601   4.0903   4.2868   4.3015   4.3102

          k = 0.2500 0.7325 0.0000 (120077 PWs)   bands (ev):

   -56.4862 -56.4788 -56.3437 -56.3371 -56.2706 -56.2693 -56.2659 -56.2647
   -56.1869 -56.1747 -55.8785 -55.8760 -32.9845 -32.9770 -32.7803 -32.7740
   -32.7488 -32.7427 -32.7362 -32.7349 -32.7244 -32.7223 -32.6991 -32.6902
   -32.6820 -32.6754 -32.6214 -32.6107 -32.5462 -32.5392 -32.5316 -32.5275
   -32.5088 -32.5053 -32.4777 -32.4761 -32.4535 -32.4520 -32.4314 -32.4211
   -32.4037 -32.3913 -32.3459 -32.3416 -32.1451 -32.1423 -32.1149 -32.1112
   -16.6410 -16.6338 -16.6066 -16.5524 -16.3765 -16.3602 -16.3456 -16.3403
   -16.2819 -16.2509 -16.1833 -16.1731 -16.1143 -16.1085 -16.0855 -16.0812
   -16.0451 -16.0258 -15.9670 -15.9468 -15.8339 -15.8221 -15.5068 -15.5005
    -4.1297  -4.1130  -4.0951  -4.0896  -3.9955  -3.9793  -3.9462  -3.9331
    -3.8773  -3.8666  -3.7758  -3.7633  -3.7591  -3.7401  -3.7246  -3.7227
    -3.6404  -3.6319  -3.5796  -3.5324  -3.4992  -3.4944  -3.4659  -3.4149
    -3.1660  -3.0263  -2.9309  -2.8903  -2.8590  -2.8236  -2.7731  -2.7542
    -2.5951  -2.5517  -2.4837  -2.3646  -2.3281  -2.2056  -2.1170  -2.0001
    -1.9215  -1.8963  -1.8447  -1.7694  -1.6717  -1.6616  -1.6233  -1.6053
    -1.5843  -1.5124  -1.4535  -1.3910  -1.3673  -1.2994  -1.1505  -1.0750
    -1.0553  -1.0004  -0.9805  -0.9597  -0.8784  -0.8579  -0.7849  -0.7660
    -0.6529  -0.5566  -0.5145  -0.4556  -0.3831  -0.3248  -0.3020  -0.2550
     2.7630   2.8163   2.8499   2.8975   2.9238   3.0100   3.0931   3.2587
     3.2936   3.3108   3.4519   3.4546   3.4790   3.5152   3.5505   3.5874
     3.6255   3.6748   3.6807   3.7558   3.8768   3.9438   3.9820   4.0534
     4.1137   4.1541   4.2453   4.2890   4.3326

          k = 0.2500 0.9766 0.0000 (120126 PWs)   bands (ev):

   -56.4774 -56.4699 -56.3351 -56.3285 -56.2610 -56.2603 -56.2575 -56.2569
   -56.1784 -56.1663 -55.8692 -55.8667 -33.0797 -33.0722 -32.8717 -32.8655
   -32.8293 -32.8290 -32.8188 -32.8179 -32.7533 -32.7422 -32.7126 -32.7052
   -32.6881 -32.6817 -32.6478 -32.6393 -32.5253 -32.5183 -32.5097 -32.5073
   -32.4806 -32.4799 -32.4694 -32.4687 -32.4625 -32.4570 -32.4511 -32.4504
   -32.4051 -32.3957 -32.3844 -32.3719 -32.1386 -32.1358 -32.0985 -32.0949
   -16.6353 -16.6301 -16.3956 -16.3897 -16.3729 -16.3645 -16.3294 -16.3247
   -16.3067 -16.2991 -16.2248 -16.1726 -16.0217 -16.0159 -15.9800 -15.9691
   -15.9339 -15.9297 -15.9061 -15.8970 -15.8212 -15.8140 -15.3818 -15.3752
    -4.4154  -4.3363  -4.3240  -4.3173  -4.1481  -4.0965  -4.0719  -4.0613
    -3.9915  -3.9851  -3.8772  -3.7986  -3.7370  -3.6442  -3.5962  -3.5842
    -3.5647  -3.5403  -3.4386  -3.4257  -3.4137  -3.3927  -3.3142  -3.3015
    -3.0741  -3.0275  -2.9603  -2.7964  -2.7457  -2.6807  -2.6321  -2.6076
    -2.5942  -2.5468  -2.2890  -2.2702  -2.2311  -2.2157  -2.1720  -2.1103
    -2.0812  -2.0784  -1.9751  -1.9018  -1.8801  -1.7664  -1.7383  -1.6934
    -1.5652  -1.4545  -1.4112  -1.2661  -1.2587  -1.2131  -1.0958  -1.0613
    -0.9584  -0.9486  -0.9038  -0.8599  -0.8553  -0.8376  -0.8096  -0.7573
    -0.7167  -0.6895  -0.6616  -0.6415  -0.6332  -0.4597  -0.3650  -0.2856
     2.7846   2.8051   2.8151   2.9292   3.0026   3.0650   3.1043   3.1342
     3.3247   3.4324   3.4882   3.4966   3.6405   3.6478   3.7124   3.7321
     3.7606   3.7977   3.8072   3.8399   3.8531   3.8740   3.9994   4.0068
     4.0315   4.2196   4.2489   4.2592   4.3054

          k =-0.5000 0.0000 0.0000 (119898 PWs)   bands (ev):

   -56.5163 -56.5089 -56.3730 -56.3664 -56.3002 -56.2996 -56.2945 -56.2940
   -56.2157 -56.2035 -55.9098 -55.9072 -32.8343 -32.8272 -32.7116 -32.7051
   -32.7001 -32.6924 -32.6340 -32.6267 -32.6169 -32.6099 -32.6036 -32.6035
   -32.5528 -32.5522 -32.5220 -32.5218 -32.5055 -32.5055 -32.4800 -32.4676
   -32.4546 -32.4446 -32.4443 -32.4384 -32.3950 -32.3945 -32.3864 -32.3860
   -32.3244 -32.3126 -32.1933 -32.1893 -32.1748 -32.1720 -31.9726 -31.9696
   -17.2696 -17.2649 -17.0049 -17.0004 -16.8312 -16.8308 -16.7266 -16.7253
   -16.6059 -16.6040 -16.4589 -16.4491 -16.1740 -16.1671 -15.9855 -15.9744
   -15.9237 -15.9224 -15.8567 -15.8507 -15.8157 -15.8132 -15.4590 -15.4516
    -4.8689  -4.8654  -4.5015  -4.4974  -4.2709  -4.2667  -4.2596  -4.2566
    -4.2236  -4.2169  -3.6599  -3.6504  -3.5061  -3.4995  -3.4124  -3.4087
    -3.1949  -3.1940  -3.1689  -3.1628  -3.0875  -3.0850  -3.0649  -3.0618
    -3.0238  -3.0196  -2.9583  -2.9480  -2.8515  -2.8400  -2.5887  -2.5842
    -2.4716  -2.4687  -2.4282  -2.4256  -2.3182  -2.3146  -2.2300  -2.2276
    -2.0464  -2.0453  -1.9435  -1.9400  -1.5212  -1.5142  -1.4885  -1.4882
    -1.2475  -1.2474  -1.2474  -1.2375  -1.2276  -1.2264  -1.0469  -1.0437
    -0.8785  -0.8714  -0.8610  -0.8595  -0.7428  -0.7395  -0.6360  -0.6272
    -0.5506  -0.5483  -0.2883  -0.2802  -0.1539  -0.1426  -0.0954  -0.0945
     2.8961   2.8982   3.0395   3.0436   3.1086   3.1087   3.1511   3.1543
     3.1939   3.1955   3.2746   3.2809   3.3329   3.3372   3.4315   3.4352
     3.7205   3.7344   3.8140   3.8153   3.8711   3.8751   3.9614   3.9659
     3.9856   3.9924   4.1731   4.1871   4.1881

          k =-0.5000 0.2442 0.0000 (120024 PWs)   bands (ev):

   -56.5116 -56.5042 -56.3684 -56.3618 -56.2955 -56.2949 -56.2901 -56.2895
   -56.2112 -56.1990 -55.9049 -55.9024 -32.8224 -32.8153 -32.7206 -32.7140
   -32.6973 -32.6895 -32.6763 -32.6692 -32.6057 -32.5987 -32.5922 -32.5920
   -32.5419 -32.5413 -32.5245 -32.5244 -32.5060 -32.5060 -32.4979 -32.4917
   -32.4684 -32.4560 -32.4505 -32.4407 -32.4399 -32.4396 -32.4350 -32.4350
   -32.3738 -32.3620 -32.1870 -32.1830 -32.1695 -32.1667 -32.0273 -32.0242
   -17.1646 -17.1599 -16.9040 -16.8999 -16.7408 -16.7402 -16.6353 -16.6340
   -16.5223 -16.5205 -16.3858 -16.3766 -16.2043 -16.1976 -16.0285 -16.0177
   -15.9635 -15.9621 -15.8875 -15.8830 -15.8523 -15.8473 -15.4887 -15.4814
    -4.7246  -4.7211  -4.3584  -4.3543  -4.1188  -4.1165  -4.1066  -4.1021
    -4.0846  -4.0790  -3.7663  -3.7618  -3.6745  -3.6661  -3.5881  -3.5818
    -3.3009  -3.2997  -3.2953  -3.2896  -3.2047  -3.1996  -3.1210  -3.1142
    -2.9782  -2.9726  -2.9347  -2.9338  -2.7232  -2.7145  -2.4564  -2.4559
    -2.3098  -2.3011  -2.2009  -2.1993  -2.1673  -2.1667  -2.0753  -2.0746
    -2.0107  -2.0083  -1.9487  -1.9450  -1.8038  -1.7993  -1.7380  -1.7329
    -1.6279  -1.6194  -1.4678  -1.4640  -1.3611  -1.3593  -1.2308  -1.2296
    -1.1562  -1.1514  -1.0058  -1.0021  -0.6187  -0.6107  -0.5406  -0.5366
    -0.4150  -0.4121  -0.2258  -0.2182  -0.1281  -0.1207  -0.0935  -0.0908
     2.8133   2.8172   3.0120   3.0152   3.0722   3.0742   3.1590   3.1594
     3.2110   3.2128   3.2360   3.2505   3.3564   3.3580   3.4226   3.4244
     3.7420   3.7477   3.8881   3.8911   3.8939   3.8973   4.0198   4.0219
     4.0771   4.0853   4.2783   4.2857   4.3169

          k =-0.5000 0.4883 0.0000 (119900 PWs)   bands (ev):

   -56.4998 -56.4923 -56.3569 -56.3503 -56.2836 -56.2830 -56.2788 -56.2782
   -56.1998 -56.1877 -55.8926 -55.8900 -32.8391 -32.8316 -32.7848 -32.7780
   -32.6948 -32.6932 -32.6882 -32.6853 -32.6267 -32.6205 -32.5984 -32.5982
   -32.5868 -32.5866 -32.5774 -32.5704 -32.5624 -32.5620 -32.5112 -32.5107
   -32.4965 -32.4870 -32.4840 -32.4835 -32.4813 -32.4796 -32.4393 -32.4386
   -32.4281 -32.4269 -32.2108 -32.2071 -32.1575 -32.1547 -32.1228 -32.1192
   -16.8978 -16.8927 -16.6643 -16.6626 -16.5418 -16.5406 -16.4164 -16.4163
   -16.3551 -16.3539 -16.2660 -16.2601 -16.2165 -16.2128 -16.1324 -16.1226
   -16.0359 -16.0344 -15.9771 -15.9743 -15.8707 -15.8601 -15.5471 -15.5404
    -4.3744  -4.3706  -4.0688  -4.0683  -3.9542  -3.9530  -3.8637  -3.8577
    -3.7462  -3.7449  -3.7329  -3.7323  -3.6918  -3.6868  -3.6246  -3.6173
    -3.5118  -3.5038  -3.4708  -3.4686  -3.3306  -3.3263  -3.3114  -3.3045
    -3.0350  -3.0277  -2.9118  -2.9118  -2.6788  -2.6752  -2.6136  -2.6105
    -2.5891  -2.5846  -2.3687  -2.3617  -2.2951  -2.2906  -2.1827  -2.1806
    -2.0640  -2.0630  -1.9619  -1.9611  -1.8298  -1.8207  -1.7740  -1.7737
    -1.6973  -1.6926  -1.6474  -1.6438  -1.5098  -1.5080  -1.3240  -1.3222
    -1.2358  -1.2350  -0.9455  -0.9399  -0.5456  -0.5428  -0.4999  -0.4954
    -0.4271  -0.4259  -0.3247  -0.3174  -0.1962  -0.1940  -0.1372  -0.1286
     2.7193   2.7275   2.8250   2.8342   2.9475   2.9476   3.1352   3.1400
     3.2429   3.2430   3.2756   3.2862   3.4174   3.4196   3.5952   3.5956
     3.7523   3.7545   3.9039   3.9042   3.9149   3.9219   4.1214   4.1236
     4.2025   4.2058   4.2515   4.2559   4.4578

          k =-0.5000 0.7325 0.0000 (120012 PWs)   bands (ev):

   -56.4862 -56.4788 -56.3437 -56.3371 -56.2699 -56.2693 -56.2659 -56.2653
   -56.1869 -56.1747 -55.8785 -55.8760 -32.9847 -32.9772 -32.7819 -32.7757
   -32.7492 -32.7435 -32.7362 -32.7356 -32.7286 -32.7274 -32.7113 -32.7021
   -32.6820 -32.6755 -32.6064 -32.5960 -32.5455 -32.5385 -32.5300 -32.5293
   -32.4817 -32.4815 -32.4777 -32.4774 -32.4717 -32.4714 -32.4312 -32.4210
   -32.4062 -32.3937 -32.3453 -32.3411 -32.1447 -32.1420 -32.1149 -32.1112
   -16.6208 -16.6158 -16.5529 -16.5473 -16.4272 -16.4266 -16.3443 -16.3399
   -16.2707 -16.2653 -16.2147 -16.2122 -16.1337 -16.1279 -16.0910 -16.0902
   -15.9957 -15.9954 -15.9427 -15.9369 -15.8303 -15.8183 -15.5068 -15.5006
    -4.1132  -4.1089  -4.0425  -4.0342  -3.9827  -3.9787  -3.9077  -3.9072
    -3.8571  -3.8531  -3.7747  -3.7739  -3.6889  -3.6820  -3.6282  -3.6256
    -3.5947  -3.5917  -3.5191  -3.5114  -3.4416  -3.4414  -3.2518  -3.2484
    -3.1497  -3.1479  -3.0304  -3.0245  -2.9692  -2.9653  -2.6731  -2.6711
    -2.5260  -2.5200  -2.3566  -2.3505  -2.1832  -2.1799  -2.1382  -2.1304
    -2.0282  -2.0221  -1.9469  -1.9436  -1.7817  -1.7816  -1.6785  -1.6770
    -1.5969  -1.5966  -1.5444  -1.5402  -1.3663  -1.3626  -1.3122  -1.3079
    -1.2186  -1.2156  -0.8903  -0.8856  -0.7645  -0.7610  -0.7062  -0.7041
    -0.6389  -0.6360  -0.3585  -0.3507  -0.2873  -0.2840  -0.2215  -0.2153
     2.6333   2.6436   2.7076   2.7080   2.7589   2.7664   3.2373   3.2446
     3.2873   3.2903   3.4138   3.4159   3.5551   3.5585   3.7035   3.7037
     3.7247   3.7308   3.7769   3.7789   3.8969   3.8996   4.0604   4.0675
     4.0997   4.1034   4.2621   4.2639   4.4197

          k =-0.5000 0.9766 0.0000 (120142 PWs)   bands (ev):

   -56.4774 -56.4699 -56.3351 -56.3285 -56.2609 -56.2603 -56.2575 -56.2570
   -56.1784 -56.1663 -55.8692 -55.8667 -33.0800 -33.0724 -32.8735 -32.8672
   -32.8298 -32.8295 -32.8233 -32.8225 -32.7662 -32.7552 -32.7129 -32.7055
   -32.6881 -32.6817 -32.6339 -32.6252 -32.5277 -32.5208 -32.5090 -32.5080
   -32.4723 -32.4720 -32.4689 -32.4688 -32.4603 -32.4546 -32.4537 -32.4531
   -32.4048 -32.3955 -32.3844 -32.3719 -32.1366 -32.1338 -32.0985 -32.0949
   -16.6340 -16.6288 -16.4594 -16.4560 -16.4516 -16.4466 -16.3903 -16.3860
   -16.3131 -16.3126 -16.2040 -16.2010 -15.9613 -15.9591 -15.9542 -15.9522
   -15.8499 -15.8496 -15.8403 -15.8289 -15.8208 -15.8153 -15.3822 -15.3756
    -4.4190  -4.4109  -4.3574  -4.3554  -4.2986  -4.2960  -4.1493  -4.1435
    -4.0370  -4.0353  -3.8090  -3.8079  -3.7113  -3.7095  -3.5358  -3.5355
    -3.4535  -3.4469  -3.3604  -3.3598  -3.3422  -3.3376  -3.2444  -3.2440
    -3.1066  -3.1044  -2.8928  -2.8895  -2.6842  -2.6799  -2.5258  -2.5224
    -2.3183  -2.3182  -2.2534  -2.2507  -2.2326  -2.2304  -2.1387  -2.1381
    -2.0968  -2.0946  -1.9201  -1.9141  -1.7253  -1.7200  -1.5409  -1.5360
    -1.4755  -1.4667  -1.4252  -1.4226  -1.3105  -1.3041  -1.1878  -1.1877
    -1.1154  -1.1139  -0.9559  -0.9520  -0.9301  -0.9299  -0.8444  -0.8390
    -0.6980  -0.6942  -0.4839  -0.4757  -0.4529  -0.4515  -0.4248  -0.4165
     2.5691   2.5776   2.6523   2.6534   2.8576   2.8619   3.0459   3.0473
     3.3551   3.3562   3.4862   3.4945   3.6073   3.6122   3.6730   3.6799
     3.7667   3.7674   3.8101   3.8106   3.8645   3.8772   4.0344   4.0403
     4.1393   4.1439   4.3183   4.3253   4.3306

     the Fermi energy is     1.4606 ev

!    total energy              =   -2155.90260300 Ry
     estimated scf accuracy    <       0.00000074 Ry
     smearing contrib. (-TS)   =      -0.00000000 Ry
     internal energy E=F+TS    =   -2155.90260300 Ry

     The total energy is F=E-TS. E is the sum of the following terms:
     one-electron contribution =  -53587.53088308 Ry
     hartree contribution      =   26838.45929960 Ry
     xc contribution           =    -340.13233857 Ry
     ewald contribution        =   24933.30131905 Ry

     convergence has been achieved in  20 iterations

     Forces acting on atoms (cartesian axes, Ry/au):

     atom    1 type  1   force =     0.00000000    0.00000000    0.00014659
     atom    2 type  1   force =     0.00000000    0.00000000    0.00011076
     atom    3 type  1   force =     0.00000000    0.00000000   -0.00002114
     atom    4 type  1   force =     0.00000000    0.00000000   -0.00029626
     atom    5 type  1   force =     0.00000000    0.00000000    0.00000278
     atom    6 type  1   force =     0.00000000    0.00000000   -0.00037954
     atom    7 type  1   force =     0.00000000    0.00000000   -0.00048593
     atom    8 type  1   force =     0.00000000    0.00000000   -0.00018564
     atom    9 type  1   force =     0.00000000    0.00000000   -0.00055170
     atom   10 type  1   force =     0.00000000    0.00000000    0.00027232
     atom   11 type  1   force =     0.00000000    0.00000000    0.00008442
     atom   12 type  1   force =     0.00000000    0.00000000    0.00001878
     atom   13 type  2   force =     0.00000000    0.00000000    0.00030033
     atom   14 type  2   force =     0.00000000    0.00000000    0.00041710
     atom   15 type  2   force =     0.00000000    0.00000000   -0.00001629
     atom   16 type  2   force =     0.00058578    0.00000000   -0.00001949
     atom   17 type  2   force =    -0.00058578    0.00000000   -0.00001949
     atom   18 type  2   force =     0.00000000    0.00000000   -0.00014211
     atom   19 type  2   force =     0.00000000    0.00000000    0.00056801
     atom   20 type  2   force =     0.00005782    0.00000000   -0.00016677
     atom   21 type  2   force =    -0.00005782    0.00000000   -0.00016677
     atom   22 type  2   force =     0.00000000    0.00000000    0.00008255
     atom   23 type  2   force =     0.00000000    0.00000000   -0.00000983
     atom   24 type  2   force =    -0.00027215    0.00000000   -0.00015769
     atom   25 type  2   force =     0.00027215    0.00000000   -0.00015769
     atom   26 type  2   force =     0.00000000    0.00000000   -0.00020227
     atom   27 type  2   force =     0.00000000    0.00000000    0.00016003
     atom   28 type  2   force =    -0.00035723    0.00000000   -0.00017955
     atom   29 type  2   force =     0.00035723    0.00000000   -0.00017955
     atom   30 type  2   force =     0.00000000    0.00000000   -0.00030429
     atom   31 type  2   force =     0.00000000    0.00000000    0.00026790
     atom   32 type  2   force =    -0.00003904    0.00000000    0.00027065
     atom   33 type  2   force =     0.00003904    0.00000000    0.00027065
     atom   34 type  2   force =     0.00000000    0.00000000    0.00013670
     atom   35 type  2   force =     0.00041992    0.00000000    0.00026621
     atom   36 type  2   force =    -0.00041992    0.00000000    0.00026621

     Total force =     0.001923     Total SCF correction =     0.004507
     SCF correction compared to forces is large: reduce conv_thr to get better values


     Computing stress (Cartesian axis) and pressure

          total   stress  (Ry/bohr**3)                   (kbar)     P=        0.02
   0.00000030   0.00000000   0.00000000            0.04        0.00        0.00
   0.00000000  -0.00000128   0.00000000            0.00       -0.19        0.00
   0.00000000   0.00000000   0.00000147            0.00        0.00        0.22


     BFGS Geometry Optimization
     Energy error            =      0.0E+00 Ry
     Gradient error          =      5.9E-04 Ry/Bohr
     Cell gradient error     =      1.9E-01 kbar

     bfgs converged in   1 scf cycles and   0 bfgs steps
     (criteria: energy <  1.0E-04 Ry, force <  1.0E-03 Ry/Bohr, cell <  5.0E-01 kbar)

     End of BFGS Geometry Optimization

     Final enthalpy           =   -2155.9026030016 Ry
Begin final coordinates
     new unit-cell volume =   5408.64832 a.u.^3 (   801.47899 Ang^3 )
     density =      1.98561 g/cm^3

CELL_PARAMETERS (angstrom)
   6.516889485   0.000000000   0.000000000
   0.000000000   2.965677286   0.000000000
   0.000000000   0.000000000  41.469413757

ATOMIC_POSITIONS (angstrom)
Ti               3.2584445483        0.0000000000       13.2699644555
Ti               0.0000000000        1.4828385552       12.7664183351
Ti               0.0000000000        0.0000000000       16.1054405088
Ti               3.2584445483        1.4828385552       16.5136887429
Ti               3.2584445483        0.0000000000       19.9029073980
Ti               0.0000000000        1.4828385552       19.5613645726
Ti               0.0000000000        0.0000000000       22.8349849739
Ti               3.2584445483        1.4828385552       23.1762609384
Ti               3.2584445483        0.0000000000       26.6302529023
Ti               0.0000000000        1.4828385552       26.2250877850
Ti               0.0000000000        0.0000000000       29.4710553104
Ti               3.2584445483        1.4828385552       29.9695822492
O                0.0000000000        0.0000000000       11.6998470830
O                3.2584445483        0.0000000000       15.0678293618
O                0.0000000000        0.0000000000       14.2849204939
O                2.0289981535        1.4828385552       12.9047836092
O                4.4878911377        1.4828385552       12.9047836092
O                0.0000000000        0.0000000000       18.4011444674
O                3.2584445483        0.0000000000       17.6569695576
O                5.2332100287        1.4828386434       16.3245467882
O                1.2836794560        1.4828386434       16.3245467882
O                3.2584445483        0.0000000000       21.7546095508
O                0.0000000000        0.0000000000       20.9836248783
O                1.9903366109        1.4828385552       19.7077583436
O                4.5265526802        1.4828385552       19.7077583436
O                0.0000000000        0.0000000000       25.0830553901
O                3.2584445483        0.0000000000       24.3354672652
O                5.2489685874        1.4828386434       23.0293666718
O                1.2679208973        1.4828386434       23.0293666718
O                3.2584445483        0.0000000000       28.4518586606
O                0.0000000000        0.0000000000       27.6727761163
O                1.9755573951        1.4828385552       26.4071977636
O                4.5413318961        1.4828385552       26.4071977636
O                3.2584445483        0.0000000000       31.0349538920
O                5.2880812432        1.4828386434       29.8381879495
O                1.2288082416        1.4828386434       29.8381879495
End final coordinates



     Writing config-only to output data dir ./Out/pwscf.save/

     Final scf calculation at the relaxed structure.
     The G-vectors are recalculated for the final unit cell
     Results may differ from those at the preceding step.
 
     G-vector sticks info
     --------------------
     sticks:   dense  smooth     PW     G-vecs:    dense   smooth      PW
     Sum        2639    2639    733               960753   960753  139571
 
     Using Slab Decomposition
 


     bravais-lattice index     =            0
     lattice parameter (alat)  =      12.3151  a.u.
     unit-cell volume          =    5408.6483 (a.u.)^3
     number of atoms/cell      =           36
     number of atomic types    =            2
     number of electrons       =       288.00
     number of Kohn-Sham states=          173
     kinetic-energy cutoff     =     120.0000  Ry
     charge density cutoff     =     480.0000  Ry
     scf convergence threshold =      1.0E-06
     mixing beta               =       0.4000
     number of iterations used =           20  plain     mixing
     press convergence thresh. =      5.0E-01
     Exchange-correlation= PBE
                           (   1   4   3   4   0   0   0)

     GPU acceleration is ACTIVE.


     celldm(1)=  12.315136  celldm(2)=   0.000000  celldm(3)=   0.000000
     celldm(4)=   0.000000  celldm(5)=   0.000000  celldm(6)=   0.000000

     crystal axes: (cart. coord. in units of alat)
               a(1) = (   1.000000   0.000000   0.000000 )  
               a(2) = (   0.000000   0.455076   0.000000 )  
               a(3) = (   0.000000   0.000000   6.363375 )  

     reciprocal axes: (cart. coord. in units 2 pi/alat)
               b(1) = (  1.000000  0.000000  0.000000 )  
               b(2) = (  0.000000  2.197437  0.000000 )  
               b(3) = (  0.000000  0.000000  0.157149 )  


     PseudoPot. # 1 for Ti read from file:
     /cm/shared/apps/KO/pseudo/sg15/Ti_ONCV_PBE-1.2.upf
     MD5 check sum: 1aea57736bd12dcfee93c97d0b9b5968
     Pseudo is Norm-conserving, Zval = 12.0
     Generated using ONCVPSP code by D. R. Hamann
     Using radial grid of  602 points,  6 beta functions with: 
                l(1) =   0
                l(2) =   0
                l(3) =   1
                l(4) =   1
                l(5) =   2
                l(6) =   2

     PseudoPot. # 2 for O  read from file:
     /cm/shared/apps/KO/pseudo/sg15/O_ONCV_PBE-1.2.upf
     MD5 check sum: e36c48deb68f4e355fffe4602be2c42c
     Pseudo is Norm-conserving, Zval =  6.0
     Generated using ONCVPSP code by D. R. Hamann
     Using radial grid of  602 points,  4 beta functions with: 
                l(1) =   0
                l(2) =   0
                l(3) =   1
                l(4) =   1

     atomic species   valence    mass     pseudopotential
     Ti               12.00    47.86700     Ti( 1.00)
     O                 6.00    15.99900     O ( 1.00)

      4 Sym. Ops. (no inversion) found



   Cartesian axes

     site n.     atom                  positions (alat units)
         1        Ti     tau(   1) = (   0.5000000   0.0000000   2.0362421  )
         2        Ti     tau(   2) = (   0.0000000   0.2275378   1.9589742  )
         3        Ti     tau(   3) = (   0.0000000   0.0000000   2.4713386  )
         4        Ti     tau(   4) = (   0.5000000   0.2275378   2.5339832  )
         5        Ti     tau(   5) = (   0.5000000   0.0000000   3.0540502  )
         6        Ti     tau(   6) = (   0.0000000   0.2275378   3.0016413  )
         7        Ti     tau(   7) = (   0.0000000   0.0000000   3.5039700  )
         8        Ti     tau(   8) = (   0.5000000   0.2275378   3.5563379  )
         9        Ti     tau(   9) = (   0.5000000   0.0000000   4.0863441  )
        10        Ti     tau(  10) = (   0.0000000   0.2275378   4.0241726  )
        11        Ti     tau(  11) = (   0.0000000   0.0000000   4.5222580  )
        12        Ti     tau(  12) = (   0.5000000   0.2275378   4.5987556  )
        13        O      tau(  13) = (   0.0000000   0.0000000   1.7953116  )
        14        O      tau(  14) = (   0.5000000   0.0000000   2.3121198  )
        15        O      tau(  15) = (   0.0000000   0.0000000   2.1919845  )
        16        O      tau(  16) = (   0.3113446   0.2275378   1.9802060  )
        17        O      tau(  17) = (   0.6886554   0.2275378   1.9802060  )
        18        O      tau(  18) = (   0.0000000   0.0000000   2.8236085  )
        19        O      tau(  19) = (   0.5000000   0.0000000   2.7094168  )
        20        O      tau(  20) = (   0.8030227   0.2275378   2.5049599  )
        21        O      tau(  21) = (   0.1969773   0.2275378   2.5049599  )
        22        O      tau(  22) = (   0.5000000   0.0000000   3.3381891  )
        23        O      tau(  23) = (   0.0000000   0.0000000   3.2198835  )
        24        O      tau(  24) = (   0.3054121   0.2275378   3.0241050  )
        25        O      tau(  25) = (   0.6945879   0.2275378   3.0241050  )
        26        O      tau(  26) = (   0.0000000   0.0000000   3.8489306  )
        27        O      tau(  27) = (   0.5000000   0.0000000   3.7342151  )
        28        O      tau(  28) = (   0.8054408   0.2275378   3.5337973  )
        29        O      tau(  29) = (   0.1945592   0.2275378   3.5337973  )
        30        O      tau(  30) = (   0.5000000   0.0000000   4.3658648  )
        31        O      tau(  31) = (   0.0000000   0.0000000   4.2463166  )
        32        O      tau(  32) = (   0.3031442   0.2275378   4.0521169  )
        33        O      tau(  33) = (   0.6968557   0.2275378   4.0521169  )
        34        O      tau(  34) = (   0.5000000   0.0000000   4.7622342  )
        35        O      tau(  35) = (   0.8114425   0.2275378   4.5785935  )
        36        O      tau(  36) = (   0.1885575   0.2275378   4.5785935  )

     number of k points=    15  Gaussian smearing, width (Ry)=  0.0200
                       cart. coord. in units 2pi/alat
        k(    1) = (   0.0000000   0.0000000   0.0000000), wk =   0.0555556
        k(    2) = (   0.0000000   0.2441597   0.0000000), wk =   0.1111111
        k(    3) = (   0.0000000   0.4883194   0.0000000), wk =   0.1111111
        k(    4) = (   0.0000000   0.7324791   0.0000000), wk =   0.1111111
        k(    5) = (   0.0000000   0.9766387   0.0000000), wk =   0.1111111
        k(    6) = (   0.2500000   0.0000000   0.0000000), wk =   0.1111111
        k(    7) = (   0.2500000   0.2441597   0.0000000), wk =   0.2222222
        k(    8) = (   0.2500000   0.4883194   0.0000000), wk =   0.2222222
        k(    9) = (   0.2500000   0.7324791   0.0000000), wk =   0.2222222
        k(   10) = (   0.2500000   0.9766387   0.0000000), wk =   0.2222222
        k(   11) = (  -0.5000000   0.0000000   0.0000000), wk =   0.0555556
        k(   12) = (  -0.5000000   0.2441597   0.0000000), wk =   0.1111111
        k(   13) = (  -0.5000000   0.4883194   0.0000000), wk =   0.1111111
        k(   14) = (  -0.5000000   0.7324791   0.0000000), wk =   0.1111111
        k(   15) = (  -0.5000000   0.9766387   0.0000000), wk =   0.1111111

     Dense  grid:   960753 G-vectors     FFT dimensions: (  90,  40, 576)

     Estimated max dynamical RAM per process >       7.85 GB

     Initial potential from superposition of free atoms

     starting charge     286.6604, renormalised to     288.0000

     negative rho (up, down):  1.031E-03 0.000E+00
     Starting wfcs are random

     total cpu time spent up to now is      224.8 secs

     per-process dynamical memory:  1596.9 Mb

     Self-consistent Calculation

     iteration #  1     ecut=   120.00 Ry     beta= 0.40
     Davidson diagonalization with overlap
     c_bands:  4 eigenvalues not converged
     c_bands:  2 eigenvalues not converged
     c_bands:  1 eigenvalues not converged
     c_bands:  1 eigenvalues not converged
     c_bands:  3 eigenvalues not converged
     c_bands:  4 eigenvalues not converged
     c_bands:  4 eigenvalues not converged
     c_bands:  1 eigenvalues not converged
     c_bands:  1 eigenvalues not converged
     c_bands:  1 eigenvalues not converged
     c_bands:  3 eigenvalues not converged
     c_bands:  1 eigenvalues not converged
     c_bands:  1 eigenvalues not converged
     ethr =  1.00E-06,  avg # of iterations = 59.7

     negative rho (up, down):  5.739E-04 0.000E+00

     total cpu time spent up to now is      284.9 secs

     total energy              =   -2151.07377758 Ry
     estimated scf accuracy    <      16.10377145 Ry

     iteration #  2     ecut=   120.00 Ry     beta= 0.40
     Davidson diagonalization with overlap
     ethr =  5.59E-03,  avg # of iterations =  4.2

     negative rho (up, down):  3.967E-04 0.000E+00

     total cpu time spent up to now is      293.5 secs

     total energy              =   -2153.68818608 Ry
     estimated scf accuracy    <       8.17064067 Ry

     iteration #  3     ecut=   120.00 Ry     beta= 0.40
     Davidson diagonalization with overlap
     ethr =  2.84E-03,  avg # of iterations =  7.3

     negative rho (up, down):  3.764E-04 0.000E+00

     total cpu time spent up to now is      302.2 secs

     total energy              =   -2152.68574917 Ry
     estimated scf accuracy    <      90.08563810 Ry

     iteration #  4     ecut=   120.00 Ry     beta= 0.40
     Davidson diagonalization with overlap
     ethr =  2.84E-03,  avg # of iterations =  1.9

     negative rho (up, down):  2.808E-04 0.000E+00

     total cpu time spent up to now is      310.5 secs

     total energy              =   -2155.78301613 Ry
     estimated scf accuracy    <       0.99670072 Ry

     iteration #  5     ecut=   120.00 Ry     beta= 0.40
     Davidson diagonalization with overlap
     c_bands:  1 eigenvalues not converged
     c_bands:  2 eigenvalues not converged
     ethr =  3.46E-04,  avg # of iterations = 12.9

     negative rho (up, down):  1.498E-04 0.000E+00

     total cpu time spent up to now is      320.7 secs

     total energy              =   -2155.85526738 Ry
     estimated scf accuracy    <       0.23657235 Ry

     iteration #  6     ecut=   120.00 Ry     beta= 0.40
     Davidson diagonalization with overlap
     c_bands:  1 eigenvalues not converged
     c_bands:  2 eigenvalues not converged
     c_bands:  2 eigenvalues not converged
     c_bands:  1 eigenvalues not converged
     ethr =  8.21E-05,  avg # of iterations = 16.1

     negative rho (up, down):  3.426E-05 0.000E+00

     total cpu time spent up to now is      331.3 secs

     total energy              =   -2155.89501871 Ry
     estimated scf accuracy    <       0.04659613 Ry

     iteration #  7     ecut=   120.00 Ry     beta= 0.40
     Davidson diagonalization with overlap
     c_bands:  1 eigenvalues not converged
     c_bands:  2 eigenvalues not converged
     c_bands:  2 eigenvalues not converged
     c_bands:  2 eigenvalues not converged
     c_bands:  2 eigenvalues not converged
     c_bands:  4 eigenvalues not converged
     c_bands:  1 eigenvalues not converged
     ethr =  1.62E-05,  avg # of iterations = 18.1

     negative rho (up, down):  7.627E-06 0.000E+00

     total cpu time spent up to now is      343.4 secs

     total energy              =   -2155.89966664 Ry
     estimated scf accuracy    <       0.04963260 Ry

     iteration #  8     ecut=   120.00 Ry     beta= 0.40
     Davidson diagonalization with overlap
     c_bands:  1 eigenvalues not converged
     c_bands:  2 eigenvalues not converged
     c_bands:  2 eigenvalues not converged
     c_bands:  2 eigenvalues not converged
     ethr =  1.62E-05,  avg # of iterations =  9.1

     negative rho (up, down):  2.803E-06 0.000E+00

     total cpu time spent up to now is      352.3 secs

     total energy              =   -2155.90095895 Ry
     estimated scf accuracy    <       0.01525135 Ry

     iteration #  9     ecut=   120.00 Ry     beta= 0.40
     Davidson diagonalization with overlap
     c_bands:  2 eigenvalues not converged
     c_bands:  1 eigenvalues not converged
     c_bands:  1 eigenvalues not converged
     c_bands:  1 eigenvalues not converged
     c_bands:  3 eigenvalues not converged
     ethr =  5.30E-06,  avg # of iterations = 14.6

     negative rho (up, down):  1.257E-06 0.000E+00

     total cpu time spent up to now is      362.5 secs

     total energy              =   -2155.90268710 Ry
     estimated scf accuracy    <       0.00565692 Ry

     iteration # 10     ecut=   120.00 Ry     beta= 0.40
     Davidson diagonalization with overlap
     c_bands:  1 eigenvalues not converged
     c_bands:  2 eigenvalues not converged
     c_bands:  2 eigenvalues not converged
     c_bands:  1 eigenvalues not converged
     c_bands:  2 eigenvalues not converged
     c_bands:  1 eigenvalues not converged
     ethr =  1.96E-06,  avg # of iterations = 12.7

     negative rho (up, down):  2.273E-07 0.000E+00

     total cpu time spent up to now is      372.2 secs

     total energy              =   -2155.90284996 Ry
     estimated scf accuracy    <       0.00365996 Ry

     iteration # 11     ecut=   120.00 Ry     beta= 0.40
     Davidson diagonalization with overlap
     c_bands:  2 eigenvalues not converged
     ethr =  1.27E-06,  avg # of iterations =  7.9

     negative rho (up, down):  6.391E-08 0.000E+00

     total cpu time spent up to now is      380.8 secs

     total energy              =   -2155.90288252 Ry
     estimated scf accuracy    <       0.00252270 Ry

     iteration # 12     ecut=   120.00 Ry     beta= 0.40
     Davidson diagonalization with overlap
     ethr =  8.76E-07,  avg # of iterations =  1.6

     total cpu time spent up to now is      388.0 secs

     total energy              =   -2155.90282759 Ry
     estimated scf accuracy    <       0.00202161 Ry

     iteration # 13     ecut=   120.00 Ry     beta= 0.40
     Davidson diagonalization with overlap
     ethr =  7.02E-07,  avg # of iterations =  1.3

     total cpu time spent up to now is      395.2 secs

     total energy              =   -2155.90276603 Ry
     estimated scf accuracy    <       0.00156017 Ry

     iteration # 14     ecut=   120.00 Ry     beta= 0.40
     Davidson diagonalization with overlap
     c_bands:  1 eigenvalues not converged
     ethr =  5.42E-07,  avg # of iterations =  3.5

     total cpu time spent up to now is      403.8 secs

     total energy              =   -2155.90269316 Ry
     estimated scf accuracy    <       0.00117154 Ry

     iteration # 15     ecut=   120.00 Ry     beta= 0.40
     Davidson diagonalization with overlap
     ethr =  4.07E-07,  avg # of iterations =  3.2

     total cpu time spent up to now is      411.4 secs

     total energy              =   -2155.90265221 Ry
     estimated scf accuracy    <       0.00076431 Ry

     iteration # 16     ecut=   120.00 Ry     beta= 0.40
     Davidson diagonalization with overlap
     c_bands:  1 eigenvalues not converged
     ethr =  2.65E-07,  avg # of iterations =  5.9

     total cpu time spent up to now is      419.5 secs

     total energy              =   -2155.90259819 Ry
     estimated scf accuracy    <       0.00049632 Ry

     iteration # 17     ecut=   120.00 Ry     beta= 0.40
     Davidson diagonalization with overlap
     c_bands:  3 eigenvalues not converged
     c_bands:  1 eigenvalues not converged
     ethr =  1.72E-07,  avg # of iterations =  6.9

     negative rho (up, down):  1.480E-08 0.000E+00

     total cpu time spent up to now is      427.7 secs

     total energy              =   -2155.90258182 Ry
     estimated scf accuracy    <       0.00019844 Ry

     iteration # 18     ecut=   120.00 Ry     beta= 0.40
     Davidson diagonalization with overlap
     ethr =  6.89E-08,  avg # of iterations =  9.9

     negative rho (up, down):  2.455E-08 0.000E+00

     total cpu time spent up to now is      436.9 secs

     total energy              =   -2155.90259637 Ry
     estimated scf accuracy    <       0.00003560 Ry

     iteration # 19     ecut=   120.00 Ry     beta= 0.40
     Davidson diagonalization with overlap
     ethr =  1.24E-08,  avg # of iterations =  6.8

     negative rho (up, down):  2.221E-08 0.000E+00

     total cpu time spent up to now is      446.0 secs

     total energy              =   -2155.90260388 Ry
     estimated scf accuracy    <       0.00000442 Ry

     iteration # 20     ecut=   120.00 Ry     beta= 0.40
     Davidson diagonalization with overlap
     ethr =  1.54E-09,  avg # of iterations =  3.4

     negative rho (up, down):  1.616E-08 0.000E+00

     total cpu time spent up to now is      453.9 secs

     total energy              =   -2155.90260334 Ry
     estimated scf accuracy    <       0.00000318 Ry

     iteration # 21     ecut=   120.00 Ry     beta= 0.40
     Davidson diagonalization with overlap
     ethr =  1.10E-09,  avg # of iterations =  3.6

     total cpu time spent up to now is      462.1 secs

     End of self-consistent calculation

          k = 0.0000 0.0000 0.0000 (120149 PWs)   bands (ev):

   -56.5133 -56.5122 -56.3692 -56.3685 -56.3034 -56.2993 -56.2945 -56.2907
   -56.2120 -56.2064 -55.9102 -55.9060 -32.8308 -32.8301 -32.7189 -32.7171
   -32.7077 -32.7072 -32.6312 -32.6302 -32.6226 -32.6223 -32.6148 -32.6082
   -32.6063 -32.5982 -32.5159 -32.5105 -32.4569 -32.4536 -32.4519 -32.4517
   -32.4477 -32.4473 -32.4413 -32.4402 -32.4024 -32.3941 -32.3865 -32.3785
   -32.3207 -32.3154 -32.1925 -32.1896 -32.1641 -32.1600 -31.9725 -31.9689
   -17.5094 -17.4363 -17.2319 -17.0802 -17.0014 -16.9439 -16.8401 -16.7758
   -16.5380 -16.4005 -16.2467 -16.2426 -16.1842 -16.1806 -15.8575 -15.8196
   -15.8102 -15.8059 -15.7880 -15.7707 -15.7572 -15.7300 -15.4605 -15.4591
    -5.0674  -4.9811  -4.8940  -4.8817  -4.8578  -4.8555  -4.7800  -4.7165
    -4.4145  -4.3911  -4.1145  -3.9321  -3.6828  -3.6308  -3.6263  -3.5015
    -3.4990  -3.1814  -3.1682  -3.1466  -3.1439  -3.1249  -3.1016  -3.0994
    -3.0487  -3.0456  -2.8488  -2.8442  -2.7454  -2.6762  -2.5974  -2.3045
    -2.2247  -2.1331  -2.0925  -1.9815  -1.9626  -1.9618  -1.8970  -1.8904
    -1.7515  -1.6920  -1.6084  -1.5856  -1.4941  -1.4932  -1.3547  -1.2304
    -1.2057  -1.1971  -1.1608  -1.1265  -1.0969  -1.0846  -0.8339  -0.8143
    -0.8056  -0.7947  -0.5543  -0.5480  -0.5273  -0.5251  -0.5022  -0.4947
    -0.4708  -0.4669  -0.0646  -0.0255   0.0064   0.1595   0.3097   0.4418
     2.5091   2.5195   2.5567   2.6007   2.6271   2.6291   2.9205   2.9575
     2.9613   2.9629   3.1335   3.1483   3.1495   3.2040   3.2215   3.2769
     3.4480   3.4513   3.4577   3.4676   3.5833   3.7124   3.7662   3.8730
     3.9193   4.0623   4.1402   4.2008   4.3107

          k = 0.0000 0.2442 0.0000 (120091 PWs)   bands (ev):

   -56.5086 -56.5075 -56.3646 -56.3639 -56.2985 -56.2946 -56.2900 -56.2865
   -56.2076 -56.2020 -55.9053 -55.9011 -32.8189 -32.8182 -32.7168 -32.7166
   -32.7119 -32.7102 -32.6728 -32.6721 -32.6104 -32.6101 -32.6016 -32.5954
   -32.5950 -32.5871 -32.5168 -32.5127 -32.4936 -32.4925 -32.4542 -32.4504
   -32.4496 -32.4477 -32.4461 -32.4445 -32.4433 -32.4391 -32.4353 -32.4314
   -32.3714 -32.3661 -32.1861 -32.1832 -32.1611 -32.1570 -32.0272 -32.0238
   -17.3888 -17.3202 -17.1243 -16.9786 -16.9013 -16.8455 -16.7464 -16.6882
   -16.4618 -16.3280 -16.2337 -16.2263 -16.1493 -16.1444 -15.9008 -15.8672
   -15.8566 -15.8520 -15.8373 -15.8185 -15.8056 -15.7824 -15.4907 -15.4895
    -4.9008  -4.8275  -4.7542  -4.7408  -4.7100  -4.7080  -4.6482  -4.5824
    -4.2729  -4.2659  -3.9920  -3.8482  -3.7018  -3.6894  -3.6670  -3.6191
    -3.6146  -3.5832  -3.5342  -3.3611  -3.3389  -3.3375  -3.3058  -3.2622
    -3.1553  -2.8361  -2.8011  -2.6451  -2.6052  -2.5136  -2.2741  -2.1287
    -2.1228  -1.9506  -1.8895  -1.8774  -1.8324  -1.8016  -1.7374  -1.7155
    -1.6845  -1.6541  -1.6295  -1.5980  -1.5746  -1.5213  -1.4847  -1.4802
    -1.4317  -1.3508  -1.3423  -1.2713  -1.1998  -1.1490  -1.0531  -1.0439
    -0.9465  -0.9405  -0.7916  -0.7836  -0.6994  -0.6622  -0.6160  -0.5793
    -0.4933  -0.3965  -0.2679  -0.2462  -0.2180   0.1163   0.2378   0.3718
     2.6040   2.6086   2.6648   2.7154   2.7314   2.7641   2.8940   2.8960
     2.9124   2.9535   2.9741   3.2137   3.2185   3.2504   3.2906   3.3025
     3.5136   3.6484   3.6558   3.6697   3.7163   3.7258   3.7571   3.9538
     3.9679   3.9789   4.1096   4.2067   4.3991

          k = 0.0000 0.4883 0.0000 (120081 PWs)   bands (ev):

   -56.4967 -56.4956 -56.3531 -56.3524 -56.2859 -56.2827 -56.2787 -56.2758
   -56.1962 -56.1906 -55.8930 -55.8888 -32.8360 -32.8346 -32.7811 -32.7808
   -32.6946 -32.6930 -32.6904 -32.6902 -32.6214 -32.6203 -32.5969 -32.5911
   -32.5791 -32.5788 -32.5763 -32.5692 -32.5671 -32.5647 -32.5618 -32.5576
   -32.5012 -32.4962 -32.4842 -32.4820 -32.4486 -32.4454 -32.4352 -32.4311
   -32.4232 -32.4175 -32.2101 -32.2071 -32.1538 -32.1497 -32.1225 -32.1194
   -17.0688 -17.0157 -16.8547 -16.7283 -16.6454 -16.5981 -16.5114 -16.4731
   -16.3667 -16.3297 -16.1959 -16.1427 -16.0233 -16.0004 -15.9898 -15.9750
   -15.9617 -15.9410 -15.9381 -15.9279 -15.9231 -15.9141 -15.5500 -15.5497
    -4.4629  -4.4337  -4.4057  -4.3826  -4.3291  -4.3230  -4.3200  -4.2725
    -4.0240  -3.9773  -3.9681  -3.9578  -3.8739  -3.8283  -3.7415  -3.6659
    -3.6408  -3.6155  -3.6051  -3.5698  -3.5441  -3.4137  -3.4008  -3.2429
    -3.2250  -3.1494  -2.9497  -2.6728  -2.5541  -2.4682  -2.3812  -2.2698
    -2.2454  -2.2320  -2.1826  -2.1553  -2.0458  -1.9600  -1.9274  -1.8720
    -1.8488  -1.7997  -1.7324  -1.5395  -1.5185  -1.4848  -1.4658  -1.3914
    -1.3810  -1.3290  -1.3172  -1.2249  -1.1851  -1.1813  -1.1006  -1.0150
    -0.9959  -0.9699  -0.9696  -0.9588  -0.9059  -0.8851  -0.8578  -0.8404
    -0.8095  -0.7314  -0.5882  -0.5390  -0.5047   0.0178   0.0466   0.1210
     2.6776   2.6809   2.8284   2.8778   2.8881   2.9030   2.9702   3.0355
     3.1011   3.1503   3.1583   3.2396   3.3516   3.3783   3.3904   3.4894
     3.6679   3.6881   3.7218   3.7439   3.9037   3.9068   3.9661   3.9743
     3.9931   4.0093   4.1137   4.1255   4.2540

          k = 0.0000 0.7325 0.0000 (120088 PWs)   bands (ev):

   -56.4832 -56.4821 -56.3399 -56.3392 -56.2713 -56.2689 -56.2659 -56.2640
   -56.1833 -56.1777 -55.8789 -55.8747 -32.9813 -32.9800 -32.7752 -32.7742
   -32.7454 -32.7448 -32.7359 -32.7341 -32.7194 -32.7175 -32.6785 -32.6781
   -32.6756 -32.6742 -32.6408 -32.6354 -32.5427 -32.5424 -32.5318 -32.5266
   -32.5238 -32.5200 -32.4780 -32.4753 -32.4454 -32.4434 -32.4280 -32.4242
   -32.3979 -32.3921 -32.3452 -32.3428 -32.1459 -32.1417 -32.1143 -32.1112
   -16.6623 -16.6503 -16.6255 -16.5676 -16.3633 -16.3465 -16.3454 -16.2668
   -16.2508 -16.2478 -16.1330 -16.1178 -16.1131 -16.1111 -16.1018 -16.0839
   -16.0668 -16.0607 -15.9984 -15.9762 -15.8333 -15.8276 -15.5041 -15.5037
    -4.1618  -4.1062  -4.0961  -4.0779  -4.0684  -4.0590  -4.0151  -3.9786
    -3.9227  -3.9190  -3.8476  -3.8308  -3.8117  -3.7977  -3.7548  -3.7474
    -3.6761  -3.6651  -3.6559  -3.5827  -3.5444  -3.5054  -3.4769  -3.2958
    -3.1418  -2.9560  -2.9424  -2.8817  -2.8310  -2.7807  -2.7426  -2.6966
    -2.6908  -2.6671  -2.4907  -2.4471  -2.4313  -2.1158  -2.0639  -1.9341
    -1.8735  -1.8342  -1.7934  -1.6182  -1.5865  -1.5825  -1.5247  -1.5015
    -1.4772  -1.4280  -1.4020  -1.3561  -1.2892  -1.1657  -1.1481  -1.1440
    -1.1400  -0.9433  -0.8881  -0.8841  -0.8836  -0.8197  -0.8049  -0.8010
    -0.5958  -0.5834  -0.5739  -0.5503  -0.4654  -0.4093  -0.3581  -0.2855
     2.9291   2.9672   2.9802   2.9849   3.0571   3.1076   3.2229   3.2472
     3.2876   3.3156   3.4257   3.4344   3.4416   3.4644   3.5512   3.5640
     3.6061   3.6322   3.6377   3.7610   3.8226   3.9132   4.0474   4.0857
     4.1091   4.1419   4.1608   4.1849   4.2778

          k = 0.0000 0.9766 0.0000 (120070 PWs)   bands (ev):

   -56.4743 -56.4732 -56.3313 -56.3306 -56.2615 -56.2595 -56.2578 -56.2566
   -56.1748 -56.1692 -55.8697 -55.8655 -33.0765 -33.0752 -32.8666 -32.8655
   -32.8289 -32.8278 -32.8145 -32.8132 -32.7328 -32.7277 -32.7082 -32.7070
   -32.6845 -32.6840 -32.6636 -32.6622 -32.5185 -32.5183 -32.5100 -32.5069
   -32.4884 -32.4861 -32.4697 -32.4681 -32.4625 -32.4614 -32.4502 -32.4486
   -32.4018 -32.3988 -32.3808 -32.3749 -32.1410 -32.1368 -32.0978 -32.0947
   -16.6344 -16.6334 -16.3569 -16.3377 -16.2868 -16.2281 -16.2009 -16.1925
   -16.1793 -16.1775 -16.1624 -16.1574 -16.1574 -16.1540 -16.1286 -16.1111
   -16.0864 -16.0743 -15.9345 -15.9258 -15.8205 -15.8120 -15.3785 -15.3784
    -4.4530  -4.3555  -4.1423  -4.0926  -4.0700  -4.0511  -3.9847  -3.9510
    -3.8780  -3.8258  -3.8051  -3.7620  -3.6987  -3.6804  -3.6588  -3.6244
    -3.6033  -3.5750  -3.5327  -3.5156  -3.5133  -3.5044  -3.4045  -3.2974
    -3.2510  -3.0990  -3.0373  -3.0312  -2.9098  -2.8668  -2.7974  -2.7943
    -2.4404  -2.4361  -2.2513  -2.2093  -2.1999  -2.1717  -2.1572  -2.1127
    -2.1067  -2.0950  -2.0098  -1.9999  -1.8932  -1.8633  -1.7294  -1.7254
    -1.6351  -1.4590  -1.3931  -1.2729  -1.2604  -1.1354  -1.1015  -1.0632
    -1.0238  -0.9782  -0.8997  -0.8366  -0.7560  -0.7303  -0.6718  -0.6679
    -0.6652  -0.6580  -0.6456  -0.6339  -0.5091  -0.4910  -0.4820  -0.3551
     2.7190   2.9969   3.1926   3.1992   3.2501   3.3611   3.3929   3.3976
     3.4165   3.5355   3.5410   3.5701   3.5753   3.6275   3.6906   3.6941
     3.7247   3.7668   3.7705   3.8088   3.8937   3.9032   3.9294   3.9875
     4.0390   4.0464   4.0526   4.0761   4.1519

          k = 0.2500 0.0000 0.0000 (120149 PWs)   bands (ev):

   -56.5133 -56.5121 -56.3692 -56.3685 -56.3023 -56.2987 -56.2951 -56.2918
   -56.2120 -56.2065 -55.9102 -55.9060 -32.8309 -32.8302 -32.7085 -32.7080
   -32.7073 -32.7067 -32.6311 -32.6301 -32.6177 -32.6174 -32.6070 -32.6002
   -32.5933 -32.5856 -32.5151 -32.5123 -32.4777 -32.4737 -32.4643 -32.4587
   -32.4512 -32.4471 -32.4413 -32.4402 -32.4001 -32.3922 -32.3885 -32.3807
   -32.3208 -32.3155 -32.1924 -32.1896 -32.1695 -32.1654 -31.9725 -31.9690
   -17.4193 -17.3550 -17.1348 -16.9753 -16.9095 -16.9057 -16.8227 -16.8063
   -16.5960 -16.4403 -16.3235 -16.3200 -16.1806 -16.1762 -15.8887 -15.8843
   -15.8704 -15.8501 -15.8258 -15.8230 -15.8104 -15.7862 -15.4576 -15.4566
    -4.9338  -4.8583  -4.6841  -4.6179  -4.6119  -4.5973  -4.5933  -4.5785
    -4.4070  -4.3936  -3.9122  -3.7386  -3.6356  -3.6122  -3.5026  -3.5007
    -3.4857  -3.1713  -3.1612  -3.1199  -3.1008  -3.0632  -3.0606  -3.0113
    -3.0035  -2.9999  -2.8486  -2.8439  -2.7657  -2.7438  -2.6985  -2.6049
    -2.5482  -2.3660  -2.1853  -2.1822  -2.1156  -2.1105  -2.0516  -1.8792
    -1.7128  -1.6991  -1.5845  -1.5793  -1.5626  -1.5599  -1.4314  -1.3315
    -1.2522  -1.2448  -1.1716  -1.1438  -1.0661  -1.0440  -0.9859  -0.9756
    -0.9673  -0.8668  -0.6779  -0.6691  -0.6680  -0.6511  -0.5846  -0.5803
    -0.5664  -0.5198  -0.4716  -0.3615  -0.2869   0.0463   0.1643   0.2930
     2.7848   2.7931   2.8519   2.8777   2.9211   2.9229   2.9254   2.9712
     3.1429   3.1465   3.1955   3.2133   3.2548   3.2741   3.3684   3.4144
     3.4168   3.4430   3.5888   3.6101   3.6918   3.8498   3.8696   3.9996
     4.0223   4.1351   4.1515   4.1589   4.2555

          k = 0.2500 0.2442 0.0000 (120063 PWs)   bands (ev):

   -56.5086 -56.5075 -56.3646 -56.3639 -56.2975 -56.2941 -56.2906 -56.2875
   -56.2076 -56.2020 -55.9053 -55.9011 -32.8190 -32.8183 -32.7169 -32.7168
   -32.7034 -32.7018 -32.6729 -32.6721 -32.6060 -32.6057 -32.5954 -32.5887
   -32.5822 -32.5749 -32.5164 -32.5139 -32.4940 -32.4929 -32.4779 -32.4742
   -32.4548 -32.4493 -32.4472 -32.4456 -32.4433 -32.4407 -32.4352 -32.4307
   -32.3708 -32.3655 -32.1861 -32.1832 -32.1655 -32.1613 -32.0272 -32.0237
   -17.3039 -17.2441 -17.0328 -16.8790 -16.8117 -16.8101 -16.7297 -16.7142
   -16.5162 -16.3659 -16.2552 -16.2512 -16.2034 -16.1982 -15.9322 -15.9278
   -15.9152 -15.8920 -15.8747 -15.8614 -15.8455 -15.8289 -15.4876 -15.4868
    -4.7785  -4.7151  -4.5411  -4.4772  -4.4712  -4.4498  -4.4476  -4.4382
    -4.2721  -4.2533  -3.8716  -3.7570  -3.6925  -3.6719  -3.6427  -3.6298
    -3.4982  -3.4724  -3.4417  -3.3338  -3.2910  -3.2682  -3.2567  -3.2120
    -3.1193  -2.9023  -2.8065  -2.7187  -2.5908  -2.4645  -2.4259  -2.3504
    -2.1751  -2.1719  -2.0555  -2.0491  -1.9662  -1.9564  -1.9310  -1.9202
    -1.8810  -1.7840  -1.6480  -1.6402  -1.5581  -1.5354  -1.4956  -1.4940
    -1.4649  -1.4229  -1.4166  -1.4109  -1.2927  -1.2285  -1.1772  -1.1457
    -1.1097  -1.0330  -0.9906  -0.9601  -0.8349  -0.7775  -0.5519  -0.5316
    -0.4433  -0.4185  -0.3898  -0.3762  -0.3054   0.0334   0.1301   0.2464
     2.7607   2.7629   2.8971   2.8990   2.9321   2.9710   3.0219   3.0262
     3.0291   3.0852   3.1261   3.2435   3.2490   3.3392   3.3504   3.3736
     3.5759   3.6583   3.7495   3.7513   3.7589   3.8079   3.8201   4.0659
     4.1202   4.1289   4.1809   4.2381   4.2772

          k = 0.2500 0.4883 0.0000 (119989 PWs)   bands (ev):

   -56.4967 -56.4956 -56.3531 -56.3524 -56.2851 -56.2822 -56.2791 -56.2766
   -56.1962 -56.1906 -55.8930 -55.8888 -32.8361 -32.8347 -32.7813 -32.7810
   -32.6925 -32.6913 -32.6904 -32.6902 -32.6224 -32.6213 -32.6001 -32.5920
   -32.5883 -32.5779 -32.5760 -32.5757 -32.5645 -32.5595 -32.5405 -32.5370
   -32.4978 -32.4931 -32.4835 -32.4825 -32.4609 -32.4580 -32.4352 -32.4311
   -32.4290 -32.4233 -32.2101 -32.2071 -32.1558 -32.1517 -32.1223 -32.1192
   -17.0020 -16.9575 -16.7855 -16.6532 -16.5727 -16.5689 -16.5053 -16.4859
   -16.3809 -16.3367 -16.2132 -16.1523 -16.1123 -16.1100 -16.0415 -16.0345
   -16.0110 -15.9983 -15.9797 -15.9549 -15.8811 -15.8772 -15.5467 -15.5465
    -4.3869  -4.3771  -4.1883  -4.1801  -4.1284  -4.1139  -4.0837  -4.0772
    -3.9836  -3.9587  -3.8957  -3.8632  -3.8532  -3.8051  -3.6795  -3.6755
    -3.6511  -3.6296  -3.6216  -3.5300  -3.4767  -3.4273  -3.3014  -3.2882
    -3.0929  -2.9927  -2.7967  -2.6620  -2.5758  -2.5468  -2.4631  -2.4500
    -2.4113  -2.3584  -2.3224  -2.2773  -2.2336  -2.1431  -2.0687  -1.9831
    -1.9558  -1.9290  -1.8602  -1.7778  -1.6886  -1.6337  -1.5690  -1.5082
    -1.5061  -1.4882  -1.4490  -1.3678  -1.3558  -1.3535  -1.2859  -1.2328
    -1.1167  -1.0754  -1.0102  -0.9321  -0.7507  -0.7254  -0.6961  -0.6556
    -0.5940  -0.5782  -0.5587  -0.4851  -0.3730  -0.0486  -0.0103   0.0694
     2.7054   2.7086   2.8345   2.8489   2.8654   3.0173   3.0827   3.1718
     3.2343   3.2551   3.2859   3.3045   3.3486   3.3528   3.4733   3.4982
     3.5957   3.6111   3.7724   3.8375   3.9185   3.9268   4.0023   4.0413
     4.0601   4.0902   4.2891   4.3008   4.3090

          k = 0.2500 0.7325 0.0000 (120077 PWs)   bands (ev):

   -56.4832 -56.4821 -56.3399 -56.3392 -56.2709 -56.2686 -56.2661 -56.2644
   -56.1833 -56.1777 -55.8789 -55.8747 -32.9815 -32.9802 -32.7769 -32.7758
   -32.7459 -32.7452 -32.7364 -32.7345 -32.7245 -32.7224 -32.6959 -32.6933
   -32.6784 -32.6781 -32.6180 -32.6138 -32.5420 -32.5417 -32.5315 -32.5275
   -32.5089 -32.5050 -32.4776 -32.4758 -32.4538 -32.4517 -32.4279 -32.4241
   -32.4002 -32.3943 -32.3446 -32.3423 -32.1455 -32.1413 -32.1142 -32.1111
   -16.6399 -16.6348 -16.6065 -16.5524 -16.3765 -16.3602 -16.3436 -16.3417
   -16.2815 -16.2511 -16.1827 -16.1736 -16.1133 -16.1089 -16.0852 -16.0813
   -16.0452 -16.0258 -15.9667 -15.9471 -15.8307 -15.8252 -15.5042 -15.5038
    -4.1295  -4.1127  -4.0943  -4.0907  -3.9953  -3.9794  -3.9463  -3.9330
    -3.8773  -3.8666  -3.7756  -3.7626  -3.7594  -3.7398  -3.7242  -3.7230
    -3.6400  -3.6320  -3.5796  -3.5322  -3.4979  -3.4954  -3.4658  -3.4149
    -3.1659  -3.0262  -2.9307  -2.8901  -2.8590  -2.8237  -2.7731  -2.7540
    -2.5948  -2.5519  -2.4836  -2.3645  -2.3281  -2.2054  -2.1171  -2.0001
    -1.9212  -1.8964  -1.8448  -1.7693  -1.6713  -1.6619  -1.6230  -1.6051
    -1.5843  -1.5121  -1.4534  -1.3910  -1.3673  -1.2994  -1.1505  -1.0744
    -1.0557  -1.0004  -0.9803  -0.9598  -0.8782  -0.8583  -0.7847  -0.7662
    -0.6529  -0.5567  -0.5143  -0.4556  -0.3832  -0.3239  -0.3027  -0.2552
     2.7632   2.8166   2.8498   2.8983   2.9235   3.0101   3.0932   3.2590
     3.2939   3.3105   3.4519   3.4550   3.4792   3.5155   3.5505   3.5878
     3.6253   3.6750   3.6807   3.7560   3.8770   3.9441   3.9820   4.0534
     4.1140   4.1541   4.2453   4.2892   4.3334

          k = 0.2500 0.9766 0.0000 (120126 PWs)   bands (ev):

   -56.4743 -56.4732 -56.3313 -56.3306 -56.2615 -56.2594 -56.2578 -56.2566
   -56.1748 -56.1692 -55.8697 -55.8655 -33.0768 -33.0754 -32.8683 -32.8672
   -32.8295 -32.8283 -32.8191 -32.8179 -32.7499 -32.7453 -32.7093 -32.7084
   -32.6847 -32.6841 -32.6446 -32.6425 -32.5211 -32.5208 -32.5096 -32.5074
   -32.4811 -32.4791 -32.4696 -32.4680 -32.4600 -32.4589 -32.4515 -32.4502
   -32.4015 -32.3987 -32.3808 -32.3749 -32.1390 -32.1348 -32.0979 -32.0947
   -16.6330 -16.6322 -16.3934 -16.3916 -16.3728 -16.3649 -16.3283 -16.3252
   -16.3066 -16.2990 -16.2248 -16.1726 -16.0191 -16.0177 -15.9792 -15.9697
   -15.9338 -15.9300 -15.9037 -15.8994 -15.8197 -15.8156 -15.3788 -15.3788
    -4.4154  -4.3357  -4.3238  -4.3179  -4.1481  -4.0965  -4.0719  -4.0613
    -3.9897  -3.9864  -3.8772  -3.7984  -3.7370  -3.6441  -3.5960  -3.5844
    -3.5647  -3.5402  -3.4380  -3.4254  -3.4137  -3.3928  -3.3132  -3.3022
    -3.0740  -3.0274  -2.9602  -2.7963  -2.7456  -2.6803  -2.6321  -2.6075
    -2.5941  -2.5469  -2.2888  -2.2701  -2.2309  -2.2157  -2.1721  -2.1103
    -2.0801  -2.0793  -1.9750  -1.9017  -1.8801  -1.7663  -1.7383  -1.6933
    -1.5650  -1.4542  -1.4112  -1.2654  -1.2593  -1.2131  -1.0958  -1.0614
    -0.9573  -0.9495  -0.9038  -0.8596  -0.8553  -0.8379  -0.8097  -0.7572
    -0.7169  -0.6897  -0.6619  -0.6406  -0.6342  -0.4596  -0.3649  -0.2857
     2.7846   2.8067   2.8136   2.9292   3.0027   3.0653   3.1046   3.1343
     3.3248   3.4324   3.4910   3.4936   3.6448   3.6449   3.7125   3.7322
     3.7607   3.7978   3.8071   3.8422   3.8514   3.8739   4.0012   4.0056
     4.0324   4.2177   4.2524   4.2559   4.3049

          k =-0.5000 0.0000 0.0000 (119898 PWs)   bands (ev):

   -56.5132 -56.5121 -56.3691 -56.3685 -56.3005 -56.2990 -56.2945 -56.2939
   -56.2121 -56.2065 -55.9102 -55.9060 -32.8310 -32.8303 -32.7081 -32.7076
   -32.6970 -32.6956 -32.6310 -32.6300 -32.6127 -32.6124 -32.6037 -32.6031
   -32.5531 -32.5521 -32.5222 -32.5213 -32.5059 -32.5049 -32.4764 -32.4706
   -32.4512 -32.4471 -32.4412 -32.4401 -32.3949 -32.3947 -32.3864 -32.3856
   -32.3209 -32.3156 -32.1923 -32.1895 -32.1751 -32.1710 -31.9726 -31.9690
   -17.2675 -17.2668 -17.0041 -17.0010 -16.8318 -16.8298 -16.7264 -16.7253
   -16.6054 -16.6045 -16.4556 -16.4523 -16.1712 -16.1697 -15.9823 -15.9775
   -15.9233 -15.9229 -15.8536 -15.8533 -15.8145 -15.8143 -15.4559 -15.4551
    -4.8676  -4.8666  -4.5005  -4.4981  -4.2691  -4.2680  -4.2580  -4.2579
    -4.2208  -4.2197  -3.6568  -3.6537  -3.5032  -3.5023  -3.4113  -3.4097
    -3.1952  -3.1934  -3.1680  -3.1636  -3.0867  -3.0858  -3.0642  -3.0626
    -3.0227  -3.0198  -2.9551  -2.9511  -2.8483  -2.8435  -2.5869  -2.5859
    -2.4710  -2.4692  -2.4285  -2.4253  -2.3170  -2.3156  -2.2306  -2.2263
    -2.0459  -2.0456  -1.9432  -1.9402  -1.5179  -1.5171  -1.4894  -1.4873
    -1.2481  -1.2469  -1.2451  -1.2387  -1.2284  -1.2263  -1.0453  -1.0453
    -0.8758  -0.8738  -0.8604  -0.8600  -0.7419  -0.7406  -0.6327  -0.6304
    -0.5498  -0.5492  -0.2855  -0.2829  -0.1510  -0.1454  -0.0952  -0.0948
     2.8959   2.8983   3.0408   3.0427   3.1077   3.1095   3.1514   3.1554
     3.1935   3.1963   3.2759   3.2800   3.3332   3.3368   3.4329   3.4342
     3.7237   3.7314   3.8145   3.8149   3.8724   3.8741   3.9632   3.9644
     3.9869   3.9905   4.1768   4.1850   4.1909

          k =-0.5000 0.2442 0.0000 (120024 PWs)   bands (ev):

   -56.5086 -56.5074 -56.3646 -56.3639 -56.2959 -56.2943 -56.2900 -56.2894
   -56.2076 -56.2020 -55.9054 -55.9011 -32.8191 -32.8184 -32.7170 -32.7169
   -32.6942 -32.6928 -32.6731 -32.6724 -32.6015 -32.6012 -32.5923 -32.5917
   -32.5422 -32.5412 -32.5248 -32.5239 -32.5063 -32.5054 -32.4945 -32.4934
   -32.4649 -32.4590 -32.4471 -32.4432 -32.4398 -32.4398 -32.4350 -32.4348
   -32.3703 -32.3650 -32.1860 -32.1832 -32.1699 -32.1657 -32.0272 -32.0237
   -17.1625 -17.1619 -16.9033 -16.9004 -16.7413 -16.7393 -16.6351 -16.6339
   -16.5218 -16.5210 -16.3825 -16.3798 -16.2016 -16.2001 -16.0254 -16.0208
   -15.9629 -15.9627 -15.8852 -15.8848 -15.8500 -15.8494 -15.4856 -15.4850
    -4.7233  -4.7223  -4.3574  -4.3551  -4.1179  -4.1174  -4.1048  -4.1030
    -4.0820  -4.0816  -3.7641  -3.7640  -3.6714  -3.6691  -3.5868  -3.5830
    -3.2994  -3.2993  -3.2945  -3.2923  -3.2027  -3.2009  -3.1176  -3.1172
    -2.9764  -2.9742  -2.9349  -2.9337  -2.7203  -2.7176  -2.4566  -2.4556
    -2.3073  -2.3035  -2.2010  -2.1992  -2.1677  -2.1662  -2.0752  -2.0746
    -2.0107  -2.0078  -1.9471  -1.9462  -1.8026  -1.8003  -1.7359  -1.7349
    -1.6257  -1.6214  -1.4658  -1.4658  -1.3610  -1.3595  -1.2302  -1.2301
    -1.1540  -1.1535  -1.0042  -1.0037  -0.6158  -0.6135  -0.5392  -0.5382
    -0.4137  -0.4134  -0.2233  -0.2205  -0.1263  -0.1223  -0.0929  -0.0917
     2.8147   2.8162   3.0127   3.0148   3.0731   3.0736   3.1585   3.1602
     3.2111   3.2129   3.2388   3.2478   3.3555   3.3596   3.4231   3.4241
     3.7448   3.7451   3.8897   3.8918   3.8949   3.8954   4.0204   4.0214
     4.0791   4.0831   4.2796   4.2846   4.3155

          k =-0.5000 0.4883 0.0000 (119900 PWs)   bands (ev):

   -56.4967 -56.4956 -56.3531 -56.3524 -56.2840 -56.2823 -56.2788 -56.2781
   -56.1962 -56.1907 -55.8930 -55.8888 -32.8362 -32.8348 -32.7814 -32.7811
   -32.6912 -32.6909 -32.6900 -32.6885 -32.6234 -32.6223 -32.5983 -32.5983
   -32.5867 -32.5865 -32.5731 -32.5729 -32.5623 -32.5619 -32.5116 -32.5106
   -32.4933 -32.4890 -32.4845 -32.4827 -32.4808 -32.4805 -32.4358 -32.4352
   -32.4310 -32.4299 -32.2101 -32.2071 -32.1578 -32.1537 -32.1222 -32.1191
   -16.8955 -16.8949 -16.6643 -16.6624 -16.5420 -16.5401 -16.4165 -16.4158
   -16.3547 -16.3541 -16.2631 -16.2625 -16.2153 -16.2141 -16.1293 -16.1256
   -16.0352 -16.0350 -15.9759 -15.9753 -15.8673 -15.8632 -15.5440 -15.5440
    -4.3730  -4.3718  -4.0693  -4.0676  -3.9538  -3.9534  -3.8610  -3.8603
    -3.7453  -3.7446  -3.7331  -3.7328  -3.6891  -3.6890  -3.6221  -3.6196
    -3.5091  -3.5066  -3.4699  -3.4695  -3.3289  -3.3276  -3.3077  -3.3076
    -3.0325  -3.0300  -2.9119  -2.9117  -2.6778  -2.6757  -2.6124  -2.6115
    -2.5875  -2.5860  -2.3660  -2.3646  -2.2929  -2.2927  -2.1822  -2.1810
    -2.0640  -2.0629  -1.9623  -1.9605  -1.8274  -1.8227  -1.7751  -1.7725
    -1.6951  -1.6948  -1.6464  -1.6446  -1.5094  -1.5083  -1.3239  -1.3220
    -1.2357  -1.2351  -0.9429  -0.9427  -0.5448  -0.5435  -0.4981  -0.4972
    -0.4277  -0.4253  -0.3224  -0.3197  -0.1957  -0.1944  -0.1351  -0.1309
     2.7228   2.7247   2.8281   2.8313   2.9472   2.9481   3.1373   3.1382
     3.2420   3.2445   3.2779   3.2838   3.4170   3.4206   3.5950   3.5959
     3.7519   3.7549   3.9040   3.9051   3.9176   3.9194   4.1221   4.1232
     4.2046   4.2067   4.2525   4.2593   4.4662

          k =-0.5000 0.7325 0.0000 (120012 PWs)   bands (ev):

   -56.4832 -56.4820 -56.3399 -56.3392 -56.2703 -56.2685 -56.2660 -56.2652
   -56.1833 -56.1777 -55.8789 -55.8747 -32.9818 -32.9804 -32.7785 -32.7775
   -32.7463 -32.7460 -32.7363 -32.7353 -32.7285 -32.7278 -32.7081 -32.7053
   -32.6784 -32.6781 -32.6030 -32.5991 -32.5413 -32.5410 -32.5296 -32.5296
   -32.4819 -32.4813 -32.4781 -32.4765 -32.4721 -32.4710 -32.4277 -32.4239
   -32.4026 -32.3967 -32.3441 -32.3417 -32.1451 -32.1409 -32.1142 -32.1111
   -16.6190 -16.6174 -16.5507 -16.5494 -16.4270 -16.4269 -16.3429 -16.3407
   -16.2688 -16.2669 -16.2141 -16.2128 -16.1311 -16.1298 -16.0907 -16.0904
   -15.9958 -15.9953 -15.9408 -15.9387 -15.8270 -15.8215 -15.5042 -15.5038
    -4.1111  -4.1108  -4.0400  -4.0367  -3.9812  -3.9800  -3.9078  -3.9070
    -3.8552  -3.8549  -3.7743  -3.7742  -3.6868  -3.6840  -3.6276  -3.6258
    -3.5937  -3.5923  -3.5164  -3.5142  -3.4416  -3.4414  -3.2504  -3.2494
    -3.1489  -3.1485  -3.0278  -3.0271  -2.9685  -2.9652  -2.6726  -2.6717
    -2.5234  -2.5226  -2.3543  -2.3526  -2.1820  -2.1811  -2.1369  -2.1315
    -2.0254  -2.0247  -1.9458  -1.9444  -1.7822  -1.7811  -1.6780  -1.6771
    -1.5969  -1.5968  -1.5431  -1.5413  -1.3648  -1.3640  -1.3112  -1.3088
    -1.2177  -1.2166  -0.8890  -0.8872  -0.7627  -0.7626  -0.7054  -0.7051
    -0.6385  -0.6366  -0.3556  -0.3532  -0.2865  -0.2846  -0.2201  -0.2169
     2.6365   2.6406   2.7074   2.7083   2.7624   2.7635   3.2405   3.2415
     3.2888   3.2890   3.4146   3.4154   3.5558   3.5583   3.7034   3.7038
     3.7268   3.7291   3.7775   3.7783   3.8978   3.8987   4.0625   4.0631
     4.1010   4.1017   4.2617   4.2635   4.4230

          k =-0.5000 0.9766 0.0000 (120142 PWs)   bands (ev):

   -56.4743 -56.4732 -56.3313 -56.3306 -56.2614 -56.2593 -56.2579 -56.2567
   -56.1748 -56.1692 -55.8697 -55.8655 -33.0770 -33.0757 -32.8701 -32.8690
   -32.8300 -32.8289 -32.8235 -32.8225 -32.7628 -32.7583 -32.7096 -32.7087
   -32.6847 -32.6841 -32.6307 -32.6284 -32.5236 -32.5232 -32.5087 -32.5083
   -32.4728 -32.4714 -32.4690 -32.4681 -32.4576 -32.4567 -32.4541 -32.4529
   -32.4013 -32.3985 -32.3808 -32.3749 -32.1370 -32.1328 -32.0979 -32.0947
   -16.6317 -16.6309 -16.4576 -16.4563 -16.4510 -16.4489 -16.3892 -16.3863
   -16.3131 -16.3124 -16.2025 -16.2023 -15.9597 -15.9573 -15.9551 -15.9537
   -15.8501 -15.8493 -15.8371 -15.8320 -15.8192 -15.8170 -15.3792 -15.3792
    -4.4161  -4.4138  -4.3571  -4.3558  -4.2974  -4.2971  -4.1465  -4.1459
    -4.0373  -4.0349  -3.8091  -3.8076  -3.7108  -3.7100  -3.5356  -3.5355
    -3.4506  -3.4498  -3.3605  -3.3595  -3.3403  -3.3390  -3.2443  -3.2439
    -3.1073  -3.1031  -2.8917  -2.8905  -2.6827  -2.6808  -2.5248  -2.5232
    -2.3190  -2.3171  -2.2519  -2.2516  -2.2318  -2.2318  -2.1394  -2.1372
    -2.0964  -2.0951  -1.9187  -1.9155  -1.7227  -1.7224  -1.5383  -1.5382
    -1.4729  -1.4692  -1.4242  -1.4237  -1.3081  -1.3063  -1.1879  -1.1874
    -1.1152  -1.1143  -0.9550  -0.9525  -0.9309  -0.9296  -0.8424  -0.8411
    -0.6978  -0.6949  -0.4817  -0.4773  -0.4530  -0.4517  -0.4221  -0.4193
     2.5718   2.5750   2.6521   2.6537   2.8589   2.8613   3.0463   3.0470
     3.3555   3.3563   3.4891   3.4914   3.6092   3.6106   3.6770   3.6773
     3.7670   3.7674   3.8098   3.8107   3.8680   3.8742   4.0374   4.0380
     4.1411   4.1425   4.3212   4.3261   4.3300

     the Fermi energy is     1.4610 ev

!    total energy              =   -2155.90260338 Ry
     estimated scf accuracy    <       0.00000038 Ry
     smearing contrib. (-TS)   =      -0.00000000 Ry
     internal energy E=F+TS    =   -2155.90260338 Ry

     The total energy is F=E-TS. E is the sum of the following terms:
     one-electron contribution =  -53587.53958755 Ry
     hartree contribution      =   26838.46783639 Ry
     xc contribution           =    -340.13217127 Ry
     ewald contribution        =   24933.30131905 Ry

     convergence has been achieved in  21 iterations

     Forces acting on atoms (cartesian axes, Ry/au):

     atom    1 type  1   force =     0.00000000    0.00000000    0.00015573
     atom    2 type  1   force =     0.00000000    0.00000000    0.00012948
     atom    3 type  1   force =     0.00000000    0.00000000    0.00005976
     atom    4 type  1   force =     0.00000000    0.00000000   -0.00024571
     atom    5 type  1   force =     0.00000000    0.00000000    0.00011783
     atom    6 type  1   force =     0.00000000    0.00000000   -0.00031177
     atom    7 type  1   force =     0.00000000    0.00000000   -0.00038827
     atom    8 type  1   force =     0.00000000    0.00000000   -0.00009056
     atom    9 type  1   force =     0.00000000    0.00000000   -0.00049423
     atom   10 type  1   force =     0.00000000    0.00000000    0.00033798
     atom   11 type  1   force =     0.00000000    0.00000000    0.00013054
     atom   12 type  1   force =     0.00000000    0.00000000    0.00005483
     atom   13 type  2   force =     0.00000000    0.00000000    0.00030936
     atom   14 type  2   force =     0.00000000    0.00000000    0.00044519
     atom   15 type  2   force =     0.00000000    0.00000000   -0.00002137
     atom   16 type  2   force =     0.00057483    0.00000000   -0.00000860
     atom   17 type  2   force =    -0.00057483    0.00000000   -0.00000860
     atom   18 type  2   force =     0.00000000    0.00000000   -0.00020090
     atom   19 type  2   force =     0.00000000    0.00000000    0.00053970
     atom   20 type  2   force =     0.00006157    0.00000000   -0.00014719
     atom   21 type  2   force =    -0.00006157    0.00000000   -0.00014719
     atom   22 type  2   force =     0.00000000    0.00000000   -0.00001998
     atom   23 type  2   force =     0.00000000    0.00000000   -0.00010500
     atom   24 type  2   force =    -0.00026647    0.00000000   -0.00017016
     atom   25 type  2   force =     0.00026647    0.00000000   -0.00017016
     atom   26 type  2   force =     0.00000000    0.00000000   -0.00031421
     atom   27 type  2   force =     0.00000000    0.00000000    0.00005880
     atom   28 type  2   force =    -0.00035898    0.00000000   -0.00022327
     atom   29 type  2   force =     0.00035898    0.00000000   -0.00022327
     atom   30 type  2   force =     0.00000000    0.00000000   -0.00035945
     atom   31 type  2   force =     0.00000000    0.00000000    0.00016803
     atom   32 type  2   force =    -0.00003421    0.00000000    0.00022361
     atom   33 type  2   force =     0.00003421    0.00000000    0.00022361
     atom   34 type  2   force =     0.00000000    0.00000000    0.00014539
     atom   35 type  2   force =     0.00039527    0.00000000    0.00027502
     atom   36 type  2   force =    -0.00039527    0.00000000    0.00027502

     Total force =     0.001873     Total SCF correction =     0.002334
     SCF correction compared to forces is large: reduce conv_thr to get better values


     Computing stress (Cartesian axis) and pressure

          total   stress  (Ry/bohr**3)                   (kbar)     P=       -0.02
  -0.00000000   0.00000000   0.00000000           -0.00        0.00        0.00
   0.00000000  -0.00000150   0.00000000            0.00       -0.22        0.00
   0.00000000   0.00000000   0.00000114            0.00        0.00        0.17


     Writing all to output data dir ./Out/pwscf.save/
 
     init_run     :     20.70s CPU     23.34s WALL (       2 calls)
     electrons    :    417.21s CPU    426.79s WALL (       2 calls)
     forces       :      4.76s CPU      4.45s WALL (       2 calls)
     stress       :     19.21s CPU     19.25s WALL (       2 calls)

     Called by init_run:
     wfcinit      :     14.59s CPU     16.75s WALL (       2 calls)
     potinit      :      0.15s CPU      0.11s WALL (       2 calls)
     hinit0       :      5.07s CPU      4.95s WALL (       2 calls)

     Called by electrons:
     c_bands      :    340.16s CPU    349.25s WALL (      41 calls)
     sum_band     :     69.58s CPU     69.92s WALL (      41 calls)
     v_of_rho     :      1.36s CPU      1.11s WALL (      43 calls)
     mix_rho      :      5.31s CPU      5.63s WALL (      41 calls)

     Called by c_bands:
     init_us_2    :      2.45s CPU      2.47s WALL (    1320 calls)
     init_us_2:gp :      2.40s CPU      2.42s WALL (    1320 calls)
     cegterg      :    261.89s CPU    263.15s WALL (     649 calls)

     Called by *egterg:
     cdiaghg      :     27.81s CPU     28.84s WALL (    6190 calls)
                                       28.79s GPU  (    6190 calls)
     h_psi        :    181.06s CPU    182.13s WALL (    6250 calls)
                                      181.82s GPU  (    6250 calls)
     g_psi        :      0.02s CPU      2.43s WALL (    5571 calls)
                                        2.39s GPU  (    5571 calls)

     Called by h_psi:
     h_psi:calbec :      0.28s CPU     13.25s WALL (    6250 calls)
                                       13.20s GPU  (    6250 calls)
     vloc_psi     :    150.84s CPU    151.70s WALL (    6250 calls)
                                      151.65s GPU  (    6250 calls)
     add_vuspsi   :      5.67s CPU     15.85s WALL (    6250 calls)
                                       15.81s GPU  (    6250 calls)

     General routines
     calbec       :      0.22s CPU      0.28s WALL (    6400 calls)
     fft          :      0.04s CPU      0.19s WALL (     444 calls)
                                        0.18s GPU  (     444 calls)
     ffts         :      0.00s CPU      0.01s WALL (      41 calls)
                                        0.01s GPU  (      41 calls)
     fftw         :      0.52s CPU    134.02s WALL (   56659 calls)
                                      133.62s GPU  (   56659 calls)
 
 
     PWSCF        :   7m43.34s CPU   7m57.74s WALL

 
   This run was terminated on:  13:50:57  23Jul2026            

=------------------------------------------------------------------------------=
   JOB DONE.
=------------------------------------------------------------------------------=
