
     Program PWSCF v.7.1 starts on 17Jul2026 at 15:41:53 

     This program is part of the open-source Quantum ESPRESSO suite
     for quantum simulation of materials; please cite
         "P. Giannozzi et al., J. Phys.:Condens. Matter 21 395502 (2009);
         "P. Giannozzi et al., J. Phys.:Condens. Matter 29 465901 (2017);
         "P. Giannozzi et al., J. Chem. Phys. 152 154105 (2020);
          URL http://www.quantum-espresso.org", 
     in publications or presentations arising from this work. More details at
     http://www.quantum-espresso.org/quote

     Parallel version (MPI), running on    36 processors

     MPI processes distributed on     1 nodes
     156639 MiB available memory on the printing compute node when the environment starts
 
     Waiting for input...
     Reading input from standard input
Warning: card &FCP ignored
Warning: card / ignored
Warning: card &RISM ignored
Warning: card / ignored

     Current dimensions of program PWSCF are:
     Max number of different atomic species (ntypx) = 10
     Max number of k-points (npk) =  40000
     Max angular momentum in pseudopotentials (lmaxx) =  4
     Message from routine setup:
     using ibrav=0 with symmetry is DISCOURAGED, use correct ibrav instead
 
     R & G space division:  proc/nbgrp/npool/nimage =      36
     Subspace diagonalization in iterative solution of the eigenvalue problem:
     one sub-group per band group will be used
     scalapack distributed-memory algorithm (size of sub-group:  2*  2 procs)

 
     Parallelization info
     --------------------
     sticks:   dense  smooth     PW     G-vecs:    dense   smooth      PW
     Min          73      73     20                25293    25293    3688
     Max          74      74     21                25319    25319    3729
     Sum        2639    2639    733               911173   911173  133221
 
     Using Slab Decomposition
 


     bravais-lattice index     =            0
     lattice parameter (alat)  =      12.3151  a.u.
     unit-cell volume          =    5130.2813 (a.u.)^3
     number of atoms/cell      =           36
     number of atomic types    =            2
     number of electrons       =       288.00
     number of Kohn-Sham states=          173
     kinetic-energy cutoff     =     120.0000  Ry
     charge density cutoff     =     480.0000  Ry
     scf convergence threshold =      1.0E-06
     mixing beta               =       0.4000
     number of iterations used =           20  plain     mixing
     energy convergence thresh.=      1.0E-04
     force convergence thresh. =      1.0E-03
     press convergence thresh. =      5.0E-01
     Exchange-correlation= PBE
                           (   1   4   3   4   0   0   0)
     nstep                     =          500


     celldm(1)=  12.315136  celldm(2)=   0.000000  celldm(3)=   0.000000
     celldm(4)=   0.000000  celldm(5)=   0.000000  celldm(6)=   0.000000

     crystal axes: (cart. coord. in units of alat)
               a(1) = (   1.000000   0.000000   0.000000 )  
               a(2) = (   0.000000   0.455076   0.000000 )  
               a(3) = (   0.000000   0.000000   6.035871 )  

     reciprocal axes: (cart. coord. in units 2 pi/alat)
               b(1) = (  1.000000  0.000000  0.000000 )  
               b(2) = (  0.000000  2.197437  0.000000 )  
               b(3) = (  0.000000  0.000000  0.165676 )  


     PseudoPot. # 1 for Ti read from file:
     /cm/shared/apps/KO/pseudo/sg15/Ti_ONCV_PBE-1.2.upf
     MD5 check sum: 1aea57736bd12dcfee93c97d0b9b5968
     Pseudo is Norm-conserving, Zval = 12.0
     Generated using ONCVPSP code by D. R. Hamann
     Using radial grid of  602 points,  6 beta functions with: 
                l(1) =   0
                l(2) =   0
                l(3) =   1
                l(4) =   1
                l(5) =   2
                l(6) =   2

     PseudoPot. # 2 for O  read from file:
     /cm/shared/apps/KO/pseudo/sg15/O_ONCV_PBE-1.2.upf
     MD5 check sum: e36c48deb68f4e355fffe4602be2c42c
     Pseudo is Norm-conserving, Zval =  6.0
     Generated using ONCVPSP code by D. R. Hamann
     Using radial grid of  602 points,  4 beta functions with: 
                l(1) =   0
                l(2) =   0
                l(3) =   1
                l(4) =   1

     atomic species   valence    mass     pseudopotential
        Ti            12.00    47.86700     Ti( 1.00)
        O              6.00    15.99900     O ( 1.00)

      4 Sym. Ops. (no inversion) found



   Cartesian axes

     site n.     atom                  positions (alat units)
         1           Ti  tau(   1) = (   0.5000000   0.0000000   1.7754049  )
         2           Ti  tau(   2) = (   0.0000000   0.2275378   1.6981370  )
         3           Ti  tau(   3) = (   0.0000000   0.0000000   2.2105014  )
         4           Ti  tau(   4) = (   0.5000000   0.2275378   2.2731461  )
         5           Ti  tau(   5) = (   0.5000000   0.0000000   2.7932130  )
         6           Ti  tau(   6) = (   0.0000000   0.2275378   2.7408041  )
         7           Ti  tau(   7) = (   0.0000000   0.0000000   3.2431328  )
         8           Ti  tau(   8) = (   0.5000000   0.2275378   3.2955007  )
         9           Ti  tau(   9) = (   0.5000000   0.0000000   3.8255069  )
        10           Ti  tau(  10) = (   0.0000000   0.2275378   3.7633354  )
        11           Ti  tau(  11) = (   0.0000000   0.0000000   4.2614208  )
        12           Ti  tau(  12) = (   0.5000000   0.2275378   4.3379185  )
        13           O   tau(  13) = (   0.0000000   0.0000000   1.5344744  )
        14           O   tau(  14) = (   0.5000000   0.0000000   2.0512826  )
        15           O   tau(  15) = (   0.0000000   0.0000000   1.9311473  )
        16           O   tau(  16) = (   0.3113446   0.2275378   1.7193688  )
        17           O   tau(  17) = (   0.6886554   0.2275378   1.7193688  )
        18           O   tau(  18) = (   0.0000000   0.0000000   2.5627713  )
        19           O   tau(  19) = (   0.5000000   0.0000000   2.4485796  )
        20           O   tau(  20) = (   0.8030227   0.2275378   2.2441227  )
        21           O   tau(  21) = (   0.1969773   0.2275378   2.2441227  )
        22           O   tau(  22) = (   0.5000000   0.0000000   3.0773519  )
        23           O   tau(  23) = (   0.0000000   0.0000000   2.9590463  )
        24           O   tau(  24) = (   0.3054121   0.2275378   2.7632679  )
        25           O   tau(  25) = (   0.6945879   0.2275378   2.7632679  )
        26           O   tau(  26) = (   0.0000000   0.0000000   3.5880934  )
        27           O   tau(  27) = (   0.5000000   0.0000000   3.4733779  )
        28           O   tau(  28) = (   0.8054408   0.2275378   3.2729602  )
        29           O   tau(  29) = (   0.1945592   0.2275378   3.2729602  )
        30           O   tau(  30) = (   0.5000000   0.0000000   4.1050277  )
        31           O   tau(  31) = (   0.0000000   0.0000000   3.9854794  )
        32           O   tau(  32) = (   0.3031442   0.2275378   3.7912797  )
        33           O   tau(  33) = (   0.6968557   0.2275378   3.7912797  )
        34           O   tau(  34) = (   0.5000000   0.0000000   4.5013970  )
        35           O   tau(  35) = (   0.8114425   0.2275378   4.3177563  )
        36           O   tau(  36) = (   0.1885575   0.2275378   4.3177563  )

     number of k points=     8  Gaussian smearing, width (Ry)=  0.0200
                       cart. coord. in units 2pi/alat
        k(    1) = (   0.0000000   0.0000000   0.0000000), wk =   0.1111111
        k(    2) = (   0.0000000   0.3662395   0.0000000), wk =   0.2222222
        k(    3) = (   0.0000000   0.7324791   0.0000000), wk =   0.2222222
        k(    4) = (   0.0000000  -1.0987186   0.0000000), wk =   0.1111111
        k(    5) = (   0.3333333   0.0000000   0.0000000), wk =   0.2222222
        k(    6) = (   0.3333333   0.3662395   0.0000000), wk =   0.4444444
        k(    7) = (   0.3333333   0.7324791   0.0000000), wk =   0.4444444
        k(    8) = (   0.3333333  -1.0987186   0.0000000), wk =   0.2222222

     Dense  grid:   911173 G-vectors     FFT dimensions: (  90,  40, 540)

     Estimated max dynamical RAM per process >     162.00 MB

     Estimated total dynamical RAM >       5.70 GB

     Initial potential from superposition of free atoms

     starting charge     286.6604, renormalised to     288.0000

     negative rho (up, down):  9.683E-04 0.000E+00
     Starting wfcs are random

     total cpu time spent up to now is        5.8 secs

     per-process dynamical memory:   236.9 Mb

     Self-consistent Calculation

     iteration #  1     ecut=   120.00 Ry     beta= 0.40
     Davidson diagonalization with overlap
     c_bands:  1 eigenvalues not converged
     ethr =  1.00E-02,  avg # of iterations = 17.0

     negative rho (up, down):  1.007E-05 0.000E+00

     total cpu time spent up to now is       42.8 secs

     total energy              =   -2151.86589071 Ry
     estimated scf accuracy    <      14.06436942 Ry

     iteration #  2     ecut=   120.00 Ry     beta= 0.40
     Davidson diagonalization with overlap
     ethr =  4.88E-03,  avg # of iterations =  3.9

     negative rho (up, down):  9.519E-08 0.000E+00

     total cpu time spent up to now is       54.7 secs

     total energy              =   -2154.78645606 Ry
     estimated scf accuracy    <       3.08298642 Ry

     iteration #  3     ecut=   120.00 Ry     beta= 0.40
     Davidson diagonalization with overlap
     ethr =  1.07E-03,  avg # of iterations =  7.2

     negative rho (up, down):  2.173E-08 0.000E+00

     total cpu time spent up to now is       67.1 secs

     total energy              =   -2154.94061227 Ry
     estimated scf accuracy    <      10.15890900 Ry

     iteration #  4     ecut=   120.00 Ry     beta= 0.40
     Davidson diagonalization with overlap
     ethr =  1.07E-03,  avg # of iterations =  6.1

     total cpu time spent up to now is       77.6 secs

     total energy              =   -2155.79639980 Ry
     estimated scf accuracy    <       0.46717942 Ry

     iteration #  5     ecut=   120.00 Ry     beta= 0.40
     Davidson diagonalization with overlap
     ethr =  1.62E-04,  avg # of iterations = 12.5

     total cpu time spent up to now is       92.8 secs

     total energy              =   -2155.88978970 Ry
     estimated scf accuracy    <       0.07595297 Ry

     iteration #  6     ecut=   120.00 Ry     beta= 0.40
     Davidson diagonalization with overlap
     c_bands:  1 eigenvalues not converged
     c_bands:  1 eigenvalues not converged
     ethr =  2.64E-05,  avg # of iterations = 14.8

     total cpu time spent up to now is      108.7 secs

     total energy              =   -2155.89861506 Ry
     estimated scf accuracy    <       0.03133924 Ry

     iteration #  7     ecut=   120.00 Ry     beta= 0.40
     Davidson diagonalization with overlap
     c_bands:  2 eigenvalues not converged
     c_bands:  2 eigenvalues not converged
     c_bands:  4 eigenvalues not converged
     ethr =  1.09E-05,  avg # of iterations = 16.4

     total cpu time spent up to now is      122.5 secs

     total energy              =   -2155.90082453 Ry
     estimated scf accuracy    <       0.00919557 Ry

     iteration #  8     ecut=   120.00 Ry     beta= 0.40
     Davidson diagonalization with overlap
     c_bands:  1 eigenvalues not converged
     c_bands:  1 eigenvalues not converged
     c_bands:  1 eigenvalues not converged
     ethr =  3.19E-06,  avg # of iterations = 17.1

     total cpu time spent up to now is      138.3 secs

     total energy              =   -2155.90180050 Ry
     estimated scf accuracy    <       0.00444231 Ry

     iteration #  9     ecut=   120.00 Ry     beta= 0.40
     Davidson diagonalization with overlap
     c_bands:  1 eigenvalues not converged
     c_bands:  1 eigenvalues not converged
     ethr =  1.54E-06,  avg # of iterations = 11.1

     total cpu time spent up to now is      149.9 secs

     total energy              =   -2155.90204546 Ry
     estimated scf accuracy    <       0.00171930 Ry

     iteration # 10     ecut=   120.00 Ry     beta= 0.40
     Davidson diagonalization with overlap
     ethr =  5.97E-07,  avg # of iterations =  5.2

     total cpu time spent up to now is      160.1 secs

     total energy              =   -2155.90202840 Ry
     estimated scf accuracy    <       0.00091283 Ry

     iteration # 11     ecut=   120.00 Ry     beta= 0.40
     Davidson diagonalization with overlap
     ethr =  3.17E-07,  avg # of iterations =  7.1

     total cpu time spent up to now is      170.7 secs

     total energy              =   -2155.90202382 Ry
     estimated scf accuracy    <       0.00032524 Ry

     iteration # 12     ecut=   120.00 Ry     beta= 0.40
     Davidson diagonalization with overlap
     c_bands:  3 eigenvalues not converged
     c_bands:  2 eigenvalues not converged
     c_bands:  1 eigenvalues not converged
     ethr =  1.13E-07,  avg # of iterations = 11.5

     total cpu time spent up to now is      183.4 secs

     total energy              =   -2155.90205632 Ry
     estimated scf accuracy    <       0.00005525 Ry

     iteration # 13     ecut=   120.00 Ry     beta= 0.40
     Davidson diagonalization with overlap
     ethr =  1.92E-08,  avg # of iterations = 10.0

     negative rho (up, down):  8.694E-08 0.000E+00

     total cpu time spent up to now is      198.3 secs

     total energy              =   -2155.90206928 Ry
     estimated scf accuracy    <       0.00001062 Ry

     iteration # 14     ecut=   120.00 Ry     beta= 0.40
     Davidson diagonalization with overlap
     ethr =  3.69E-09,  avg # of iterations =  3.1

     negative rho (up, down):  1.092E-06 0.000E+00

     total cpu time spent up to now is      208.4 secs

     total energy              =   -2155.90207019 Ry
     estimated scf accuracy    <       0.00000199 Ry

     iteration # 15     ecut=   120.00 Ry     beta= 0.40
     Davidson diagonalization with overlap
     ethr =  6.91E-10,  avg # of iterations =  6.0

     total cpu time spent up to now is      220.0 secs

     End of self-consistent calculation

          k = 0.0000 0.0000 0.0000 (113903 PWs)   bands (ev):

   -56.0931 -56.0929 -55.9522 -55.9483 -55.8824 -55.8783 -55.8727 -55.8690
   -55.7924 -55.7882 -55.4937 -55.4861 -32.4113 -32.4103 -32.2985 -32.2981
   -32.2899 -32.2867 -32.2108 -32.2106 -32.2055 -32.2020 -32.1933 -32.1866
   -32.1851 -32.1770 -32.0942 -32.0889 -32.0358 -32.0334 -32.0318 -32.0309
   -32.0291 -32.0288 -32.0244 -32.0201 -31.9809 -31.9725 -31.9653 -31.9570
   -31.9011 -31.8971 -31.7757 -31.7696 -31.7474 -31.7400 -31.5558 -31.5487
   -17.0883 -17.0157 -16.8105 -16.6593 -16.5810 -16.5225 -16.4191 -16.3553
   -16.1165 -15.9786 -15.8249 -15.8237 -15.7634 -15.7607 -15.4357 -15.3982
   -15.3896 -15.3842 -15.3669 -15.3500 -15.3362 -15.3077 -15.0407 -15.0376
    -4.6461  -4.5598  -4.4723  -4.4606  -4.4392  -4.4339  -4.3593  -4.2955
    -3.9935  -3.9700  -3.6932  -3.5117  -3.2618  -3.2100  -3.2069  -3.0811
    -3.0790  -2.7589  -2.7467  -2.7242  -2.7226  -2.7040  -2.6832  -2.6781
    -2.6275  -2.6261  -2.4268  -2.4260  -2.3247  -2.2552  -2.1768  -1.8832
    -1.8032  -1.7126  -1.6720  -1.5610  -1.5420  -1.5400  -1.4770  -1.4687
    -1.3307  -1.2711  -1.1878  -1.1651  -1.0750  -1.0715  -0.9335  -0.8090
    -0.7853  -0.7754  -0.7400  -0.7060  -0.6757  -0.6630  -0.4127  -0.3928
    -0.3848  -0.3739  -0.1334  -0.1269  -0.1058  -0.1041  -0.0812  -0.0738
    -0.0500  -0.0452   0.3573   0.3949   0.4275   0.5808   0.7304   0.8635
     2.9291   2.9389   2.9785   3.0226   3.0447   3.0496   3.3408   3.3778
     3.3819   3.3821   3.5546   3.5688   3.5707   3.6248   3.6426   3.6965
     3.8651   3.8717   3.8782   3.8891   4.0049   4.1317   4.1861   4.2923
     4.3390   4.4829   4.5577   4.5685   4.6204

          k = 0.0000 0.3662 0.0000 (113949 PWs)   bands (ev):

   -56.0831 -56.0829 -55.9424 -55.9386 -55.8719 -55.8682 -55.8631 -55.8600
   -55.7829 -55.7786 -55.4833 -55.4757 -32.3873 -32.3866 -32.3385 -32.3372
   -32.2837 -32.2835 -32.2694 -32.2670 -32.1793 -32.1758 -32.1649 -32.1610
   -32.1589 -32.1534 -32.1352 -32.1308 -32.1135 -32.1116 -32.0827 -32.0752
   -32.0557 -32.0539 -32.0303 -32.0265 -32.0255 -32.0225 -32.0153 -32.0111
   -32.0062 -32.0024 -31.7676 -31.7613 -31.7412 -31.7337 -31.6665 -31.6597
   -16.8269 -16.7650 -16.5807 -16.4431 -16.3664 -16.3123 -16.2194 -16.1694
   -15.9711 -15.8677 -15.8198 -15.8107 -15.6406 -15.6387 -15.5251 -15.5002
   -15.4891 -15.4800 -15.4722 -15.4524 -15.4398 -15.4196 -15.1024 -15.0989
    -4.2853  -4.2296  -4.1738  -4.1584  -4.1198  -4.1153  -4.0799  -4.0133
    -3.7193  -3.6980  -3.4660  -3.4334  -3.3960  -3.3788  -3.2805  -3.2642
    -3.2579  -3.2168  -3.1813  -3.0776  -3.0737  -2.9949  -2.9615  -2.9010
    -2.6832  -2.5356  -2.4601  -2.1049  -2.0983  -2.0183  -1.9008  -1.7737
    -1.6384  -1.5935  -1.5906  -1.4907  -1.4841  -1.4187  -1.3368  -1.3195
    -1.2926  -1.2437  -1.1443  -1.1250  -1.1041  -1.0732  -1.0519  -1.0261
    -0.9999  -0.9887  -0.9737  -0.9628  -0.8838  -0.8699  -0.7544  -0.6646
    -0.6408  -0.5308  -0.4674  -0.4418  -0.4119  -0.3559  -0.3226  -0.2815
    -0.0916  -0.0747  -0.0491  -0.0319  -0.0288   0.5036   0.5849   0.6969
     3.0406   3.0432   3.1786   3.2665   3.2774   3.2801   3.3037   3.3041
     3.3540   3.4214   3.4623   3.6819   3.6992   3.7335   3.7593   3.8202
     4.0355   4.0834   4.1157   4.1492   4.2582   4.2836   4.3131   4.3448
     4.4339   4.4602   4.4673   4.5068   4.7449

          k = 0.0000 0.7325 0.0000 (113958 PWs)   bands (ev):

   -56.0630 -56.0628 -55.9229 -55.9190 -55.8507 -55.8477 -55.8441 -55.8421
   -55.7637 -55.7594 -55.4624 -55.4548 -32.5607 -32.5606 -32.3582 -32.3540
   -32.3260 -32.3247 -32.3152 -32.3130 -32.2977 -32.2956 -32.2605 -32.2576
   -32.2553 -32.2552 -32.2212 -32.2171 -32.1256 -32.1221 -32.1101 -32.1048
   -32.1027 -32.0985 -32.0569 -32.0541 -32.0241 -32.0217 -32.0081 -32.0058
   -31.9782 -31.9737 -31.9283 -31.9226 -31.7292 -31.7217 -31.6976 -31.6911
   -16.2414 -16.2297 -16.2045 -16.1470 -15.9419 -15.9279 -15.9238 -15.8448
   -15.8296 -15.8275 -15.7107 -15.6959 -15.6917 -15.6905 -15.6811 -15.6624
   -15.6462 -15.6394 -15.5769 -15.5544 -15.4120 -15.4089 -15.0854 -15.0804
    -3.7406  -3.6855  -3.6749  -3.6571  -3.6478  -3.6385  -3.5932  -3.5578
    -3.5027  -3.4985  -3.4253  -3.4101  -3.3912  -3.3768  -3.3333  -3.3260
    -3.2559  -3.2442  -3.2357  -3.1614  -3.1243  -3.0849  -3.0561  -2.8750
    -2.7208  -2.5348  -2.5215  -2.4610  -2.4101  -2.3591  -2.3221  -2.2758
    -2.2702  -2.2466  -2.0697  -2.0259  -2.0105  -1.6953  -1.6435  -1.5132
    -1.4530  -1.4130  -1.3729  -1.1970  -1.1651  -1.1608  -1.1041  -1.0810
    -1.0564  -1.0070  -0.9816  -0.9353  -0.8687  -0.7446  -0.7261  -0.7225
    -0.7197  -0.5226  -0.4682  -0.4630  -0.4625  -0.3978  -0.3848  -0.3801
    -0.1743  -0.1630  -0.1526  -0.1290  -0.0440   0.0119   0.0623   0.1361
     3.3501   3.3881   3.3998   3.4041   3.4768   3.5277   3.6427   3.6685
     3.7073   3.7360   3.8456   3.8559   3.8619   3.8838   3.9716   3.9850
     4.0253   4.0535   4.0572   4.1803   4.2418   4.3334   4.4681   4.5056
     4.5304   4.5631   4.5817   4.6051   4.6987

          k = 0.0000-1.0987 0.0000 (113876 PWs)   bands (ev):

   -56.0529 -56.0527 -55.9131 -55.9092 -55.8398 -55.8369 -55.8349 -55.8334
   -55.7541 -55.7498 -55.4520 -55.4443 -32.6688 -32.6688 -32.4621 -32.4578
   -32.4211 -32.4191 -32.4055 -32.4036 -32.3248 -32.3209 -32.2808 -32.2806
   -32.2713 -32.2671 -32.2416 -32.2416 -32.0981 -32.0946 -32.0849 -32.0820
   -32.0614 -32.0585 -32.0575 -32.0528 -32.0478 -32.0455 -32.0309 -32.0287
   -31.9832 -31.9815 -31.9588 -31.9542 -31.7237 -31.7161 -31.6788 -31.6723
   -16.2229 -16.2198 -15.9055 -15.9001 -15.8187 -15.8113 -15.7925 -15.7844
   -15.7706 -15.7493 -15.7458 -15.7329 -15.7261 -15.7227 -15.6955 -15.6782
   -15.6527 -15.6252 -15.5159 -15.5083 -15.3969 -15.3805 -14.9396 -14.9353
    -4.0881  -3.9870  -3.7414  -3.6817  -3.6645  -3.6195  -3.5695  -3.5429
    -3.4874  -3.4113  -3.3926  -3.3547  -3.2499  -3.2397  -3.2282  -3.2221
    -3.2161  -3.1276  -3.0798  -3.0617  -3.0588  -3.0264  -2.9386  -2.8603
    -2.8366  -2.6979  -2.6138  -2.5876  -2.4393  -2.4294  -2.4163  -2.4121
    -2.0598  -1.9707  -1.8280  -1.8246  -1.7813  -1.7797  -1.7467  -1.7311
    -1.7239  -1.6388  -1.5806  -1.4629  -1.4549  -1.3844  -1.3643  -1.3242
    -1.1596  -1.0658  -1.0074  -0.9750  -0.9138  -0.7888  -0.7064  -0.6440
    -0.6201  -0.5739  -0.4526  -0.3657  -0.2763  -0.2713  -0.2638  -0.2487
    -0.2424  -0.2418  -0.2236  -0.2057  -0.1115  -0.0747  -0.0545   0.0884
     3.1043   3.3882   3.6222   3.6315   3.6528   3.8254   3.8894   3.8907
     3.9048   3.9492   3.9907   3.9925   4.0884   4.0916   4.0939   4.1905
     4.2094   4.2462   4.2496   4.2522   4.2758   4.3143   4.3196   4.3733
     4.3847   4.4415   4.4424   4.4666   4.5742

          k = 0.3333 0.0000 0.0000 (113895 PWs)   bands (ev):

   -56.0931 -56.0928 -55.9522 -55.9483 -55.8809 -55.8776 -55.8732 -55.8707
   -55.7925 -55.7882 -55.4937 -55.4861 -32.4115 -32.4105 -32.2902 -32.2870
   -32.2825 -32.2824 -32.2107 -32.2104 -32.1981 -32.1946 -32.1847 -32.1797
   -32.1576 -32.1501 -32.0933 -32.0928 -32.0698 -32.0662 -32.0505 -32.0461
   -32.0312 -32.0286 -32.0243 -32.0200 -31.9771 -31.9698 -31.9681 -31.9608
   -31.9013 -31.8972 -31.7756 -31.7695 -31.7556 -31.7481 -31.5559 -31.5488
   -16.9401 -16.8866 -16.6533 -16.5220 -16.4852 -16.4447 -16.3810 -16.3361
   -16.2184 -16.0624 -15.9553 -15.9527 -15.7565 -15.7525 -15.5126 -15.5077
   -15.4774 -15.4507 -15.4299 -15.4175 -15.3990 -15.3746 -15.0372 -15.0339
    -4.4776  -4.4335  -4.1585  -4.0821  -4.0391  -4.0345  -4.0261  -4.0138
    -3.9396  -3.9226  -3.3490  -3.2456  -3.2140  -3.1221  -3.0826  -3.0813
    -2.9289  -2.7487  -2.7396  -2.6733  -2.6574  -2.6249  -2.6191  -2.5591
    -2.5586  -2.5564  -2.5479  -2.4526  -2.4264  -2.4255  -2.3348  -2.1779
    -2.0813  -2.0029  -1.8947  -1.8679  -1.7606  -1.7492  -1.6714  -1.5357
    -1.4912  -1.4286  -1.3760  -1.1950  -1.1359  -1.1289  -1.1202  -0.9584
    -0.8439  -0.8416  -0.7721  -0.7223  -0.7013  -0.6590  -0.6524  -0.6235
    -0.5551  -0.4947  -0.3465  -0.3285  -0.2595  -0.1903  -0.1866  -0.1822
    -0.1347  -0.1090  -0.0054   0.0011   0.0507   0.3936   0.4862   0.6067
     3.2854   3.2962   3.3625   3.3874   3.4201   3.4370   3.4607   3.4672
     3.6128   3.6349   3.6410   3.6447   3.7178   3.7245   3.8369   3.8458
     3.9165   3.9683   4.1073   4.1172   4.1759   4.3258   4.3322   4.5069
     4.5202   4.5305   4.5591   4.5890   4.6165

          k = 0.3333 0.3662 0.0000 (113817 PWs)   bands (ev):

   -56.0831 -56.0828 -55.9424 -55.9386 -55.8707 -55.8676 -55.8636 -55.8614
   -55.7829 -55.7786 -55.4833 -55.4757 -32.3873 -32.3866 -32.3388 -32.3375
   -32.2745 -32.2745 -32.2696 -32.2672 -32.1737 -32.1701 -32.1602 -32.1556
   -32.1391 -32.1363 -32.1357 -32.1320 -32.1137 -32.1072 -32.0905 -32.0860
   -32.0566 -32.0553 -32.0455 -32.0433 -32.0291 -32.0249 -32.0232 -32.0200
   -32.0043 -32.0005 -31.7677 -31.7614 -31.7460 -31.7385 -31.6663 -31.6595
   -16.6993 -16.6558 -16.4447 -16.3090 -16.2908 -16.2453 -16.1816 -16.1484
   -16.0490 -15.9249 -15.8234 -15.8135 -15.7916 -15.7901 -15.6056 -15.5980
   -15.5615 -15.5454 -15.5148 -15.4882 -15.4535 -15.4485 -15.0982 -15.0944
    -4.1579  -4.1330  -3.8484  -3.7978  -3.7481  -3.7366  -3.7136  -3.7043
    -3.6394  -3.6320  -3.4395  -3.4348  -3.2996  -3.2849  -3.2421  -3.2384
    -3.1558  -3.1531  -3.0666  -2.9733  -2.9339  -2.9236  -2.7908  -2.7597
    -2.6570  -2.5438  -2.3751  -2.1731  -2.1017  -2.0583  -1.9810  -1.9427
    -1.9115  -1.8710  -1.8301  -1.7461  -1.7363  -1.7206  -1.6758  -1.6215
    -1.5170  -1.4358  -1.4266  -1.3504  -1.2935  -1.2924  -1.2772  -1.2557
    -1.2257  -1.1469  -1.1154  -1.0935  -1.0568  -1.0020  -0.9481  -0.9238
    -0.8282  -0.7005  -0.6169  -0.5086  -0.2782  -0.2750  -0.1068  -0.1060
    -0.0104   0.0084   0.0300   0.0572   0.1179   0.3676   0.4303   0.5172
     3.1499   3.1522   3.3312   3.3357   3.3928   3.4348   3.4752   3.5775
     3.6077   3.6249   3.6825   3.6856   3.7478   3.7551   3.8460   3.9085
     4.0862   4.1116   4.2320   4.2748   4.3124   4.3139   4.4278   4.4972
     4.5772   4.6014   4.6530   4.7035   4.7390

          k = 0.3333 0.7325 0.0000 (113872 PWs)   bands (ev):

   -56.0630 -56.0627 -55.9229 -55.9190 -55.8501 -55.8474 -55.8443 -55.8427
   -55.7637 -55.7594 -55.4624 -55.4548 -32.5610 -32.5610 -32.3607 -32.3565
   -32.3265 -32.3253 -32.3158 -32.3137 -32.3052 -32.3031 -32.2823 -32.2809
   -32.2605 -32.2576 -32.1902 -32.1875 -32.1245 -32.1210 -32.1093 -32.1064
   -32.0783 -32.0742 -32.0563 -32.0548 -32.0388 -32.0361 -32.0079 -32.0056
   -31.9817 -31.9771 -31.9275 -31.9218 -31.7286 -31.7211 -31.6975 -31.6911
   -16.2089 -16.2052 -16.1693 -16.1235 -15.9748 -15.9717 -15.9244 -15.9192
   -15.8634 -15.8320 -15.7824 -15.7694 -15.7030 -15.6974 -15.6690 -15.6612
   -15.5992 -15.5859 -15.5334 -15.5181 -15.4074 -15.4050 -15.0854 -15.0805
    -3.7004  -3.6848  -3.6540  -3.6452  -3.5506  -3.5456  -3.5347  -3.5119
    -3.4617  -3.4060  -3.3458  -3.3415  -3.3011  -3.3000  -3.2551  -3.2274
    -3.2044  -3.1564  -3.1272  -3.1018  -3.0983  -3.0362  -2.9754  -2.9685
    -2.7552  -2.6767  -2.5346  -2.4967  -2.4567  -2.4507  -2.3442  -2.3208
    -2.1215  -2.1022  -1.9952  -1.9649  -1.8937  -1.7691  -1.6891  -1.6020
    -1.5330  -1.5154  -1.4191  -1.4109  -1.3211  -1.2931  -1.2630  -1.2459
    -1.2116  -1.1815  -1.0738  -1.0258  -0.9977  -0.8777  -0.7628  -0.7563
    -0.7125  -0.6632  -0.5011  -0.4829  -0.4435  -0.3977  -0.3281  -0.3025
    -0.2423  -0.1735  -0.0415   0.0224   0.0941   0.1404   0.1570   0.1755
     3.1182   3.1417   3.1791   3.2488   3.2658   3.3153   3.5657   3.6745
     3.6839   3.7466   3.8468   3.8862   3.9195   3.9604   4.0416   4.0675
     4.0923   4.1321   4.1439   4.1690   4.2936   4.3626   4.4405   4.4656
     4.5373   4.5403   4.6704   4.7099   4.8004

          k = 0.3333-1.0987 0.0000 (113996 PWs)   bands (ev):

   -56.0529 -56.0527 -55.9131 -55.9092 -55.8398 -55.8369 -55.8349 -55.8334
   -55.7541 -55.7498 -55.4520 -55.4443 -32.6692 -32.6692 -32.4648 -32.4605
   -32.4218 -32.4199 -32.4122 -32.4107 -32.3470 -32.3437 -32.2816 -32.2816
   -32.2712 -32.2670 -32.2179 -32.2172 -32.1037 -32.1000 -32.0843 -32.0827
   -32.0539 -32.0520 -32.0514 -32.0476 -32.0474 -32.0453 -32.0298 -32.0281
   -31.9829 -31.9813 -31.9583 -31.9537 -31.7203 -31.7128 -31.6788 -31.6723
   -16.2210 -16.2185 -16.0020 -15.9971 -15.9901 -15.9883 -15.9488 -15.9428
   -15.8992 -15.8963 -15.7921 -15.7530 -15.5434 -15.5390 -15.5183 -15.5142
   -15.4484 -15.4468 -15.4411 -15.4368 -15.3950 -15.3868 -14.9396 -14.9352
    -4.0218  -4.0107  -4.0047  -3.9409  -3.8727  -3.8264  -3.7073  -3.7053
    -3.7032  -3.6449  -3.4795  -3.2758  -3.2603  -3.2286  -3.1057  -3.0937
    -3.0585  -3.0578  -3.0523  -2.9782  -2.8538  -2.8522  -2.8488  -2.8456
    -2.6897  -2.6597  -2.4046  -2.3505  -2.3417  -2.2140  -2.1293  -2.0545
    -2.0463  -2.0392  -1.9766  -1.7881  -1.7712  -1.7621  -1.7602  -1.7283
    -1.6622  -1.6436  -1.6355  -1.5784  -1.4181  -1.3990  -1.1828  -1.0820
    -1.0715  -1.0252  -0.9859  -0.9001  -0.7986  -0.7482  -0.6548  -0.6251
    -0.6033  -0.5841  -0.5594  -0.4983  -0.4746  -0.4693  -0.4602  -0.3816
    -0.3356  -0.2814  -0.2733  -0.2309  -0.2240   0.0138   0.0688   0.1054
     3.0934   3.1045   3.1662   3.2269   3.3060   3.4377   3.4453   3.5177
     3.6844   3.7615   3.9596   3.9604   3.9964   4.0929   4.1158   4.1719
     4.2124   4.2145   4.2253   4.2423   4.3090   4.3147   4.4605   4.4640
     4.4775   4.6339   4.7775   4.7850   4.8029

     the Fermi energy is     1.8828 ev

!    total energy              =   -2155.90207030 Ry
     estimated scf accuracy    <       0.00000040 Ry
     smearing contrib. (-TS)   =      -0.00000000 Ry
     internal energy E=F+TS    =   -2155.90207030 Ry

     The total energy is F=E-TS. E is the sum of the following terms:
     one-electron contribution =  -45929.13902501 Ry
     hartree contribution      =   23013.70688362 Ry
     xc contribution           =    -340.13266725 Ry
     ewald contribution        =   21099.66273834 Ry

     convergence has been achieved in  15 iterations

     Forces acting on atoms (cartesian axes, Ry/au):

     atom    1 type  1   force =     0.00000000    0.00000000    0.00028028
     atom    2 type  1   force =     0.00000000    0.00000000    0.00017319
     atom    3 type  1   force =     0.00000000    0.00000000    0.00014097
     atom    4 type  1   force =     0.00000000    0.00000000   -0.00004897
     atom    5 type  1   force =     0.00000000    0.00000000    0.00027865
     atom    6 type  1   force =     0.00000000    0.00000000   -0.00024722
     atom    7 type  1   force =     0.00000000    0.00000000   -0.00034765
     atom    8 type  1   force =     0.00000000    0.00000000   -0.00002199
     atom    9 type  1   force =     0.00000000    0.00000000   -0.00040335
     atom   10 type  1   force =     0.00000000    0.00000000    0.00030780
     atom   11 type  1   force =     0.00000000    0.00000000    0.00017882
     atom   12 type  1   force =     0.00000000    0.00000000    0.00017565
     atom   13 type  2   force =     0.00000000    0.00000000    0.00124797
     atom   14 type  2   force =     0.00000000    0.00000000   -0.00039264
     atom   15 type  2   force =     0.00000000    0.00000000   -0.00103412
     atom   16 type  2   force =     0.00057166    0.00000000   -0.00119337
     atom   17 type  2   force =    -0.00057166    0.00000000   -0.00119337
     atom   18 type  2   force =     0.00000000    0.00000000    0.00088618
     atom   19 type  2   force =     0.00000000    0.00000000   -0.00021048
     atom   20 type  2   force =     0.00011245    0.00000000   -0.00023022
     atom   21 type  2   force =    -0.00011245    0.00000000   -0.00023022
     atom   22 type  2   force =     0.00000000    0.00000000    0.00027582
     atom   23 type  2   force =     0.00000000    0.00000000   -0.00098704
     atom   24 type  2   force =    -0.00027089    0.00000000    0.00056066
     atom   25 type  2   force =     0.00027089    0.00000000    0.00056066
     atom   26 type  2   force =     0.00000000    0.00000000   -0.00062026
     atom   27 type  2   force =     0.00000000    0.00000000   -0.00060609
     atom   28 type  2   force =    -0.00036230    0.00000000   -0.00027758
     atom   29 type  2   force =     0.00036230    0.00000000   -0.00027758
     atom   30 type  2   force =     0.00000000    0.00000000   -0.00012304
     atom   31 type  2   force =     0.00000000    0.00000000   -0.00054557
     atom   32 type  2   force =    -0.00000449    0.00000000    0.00139159
     atom   33 type  2   force =     0.00000449    0.00000000    0.00139159
     atom   34 type  2   force =     0.00000000    0.00000000   -0.00039465
     atom   35 type  2   force =     0.00045662    0.00000000    0.00076779
     atom   36 type  2   force =    -0.00045662    0.00000000    0.00076779

     Total force =     0.004109     Total SCF correction =     0.002426
     SCF correction compared to forces is large: reduce conv_thr to get better values


     Computing stress (Cartesian axis) and pressure

          total   stress  (Ry/bohr**3)                   (kbar)     P=        0.07
   0.00000068   0.00000000   0.00000000            0.10        0.00        0.00
   0.00000000  -0.00000095   0.00000000            0.00       -0.14        0.00
   0.00000000   0.00000000   0.00000172            0.00        0.00        0.25


     BFGS Geometry Optimization
     Energy error            =      0.0E+00 Ry
     Gradient error          =      1.4E-03 Ry/Bohr
     Cell gradient error     =      1.4E-01 kbar

     number of scf cycles    =   1
     number of bfgs steps    =   0

     enthalpy           new  =   -2155.9020702981 Ry

     new trust radius        =       0.0013915944 bohr
     new conv_thr            =       0.0000010000 Ry

     new unit-cell volume =   5130.24601 a.u.^3 (   760.22402 Ang^3 )
     density =      2.09337 g/cm^3

CELL_PARAMETERS (angstrom)
   6.516999733   0.000000000   0.000000000
   0.000000000   2.965606692   0.000000000
   0.000000000   0.000000000  39.335106809

ATOMIC_POSITIONS (angstrom)
Ti            3.2584996722        0.0000000000       11.5702656916
Ti            0.0000000000        1.4828032583       11.0666628996
Ti            0.0000000000        0.0000000000       14.4056680217
Ti            3.2584996722        1.4828032583       14.8138157458
Ti            3.2584996722        0.0000000000       18.2032077691
Ti            0.0000000000        1.4828032583       17.8613866657
Ti            0.0000000000        0.0000000000       21.1349539203
Ti            3.2584996722        1.4828032583       21.4764022204
Ti            3.2584996722        0.0000000000       24.9301923746
Ti            0.0000000000        1.4828032583       24.5254035852
Ti            0.0000000000        0.0000000000       27.7713028548
Ti            3.2584996722        1.4828032583       28.2698281137
O             0.0000000000        0.0000000000       10.0006603983
O             3.2584996722        0.0000000000       13.3677745040
O             0.0000000000        0.0000000000       12.5845261781
O             2.0293349922        1.4828032583       11.2043050229
O             4.4876645467        1.4828032583       11.2043050229
O             0.0000000000        0.0000000000       16.7017663287
O             3.2584996722        0.0000000000       15.9570110950
O             5.2333580682        1.4828033465       14.6245778806
O             1.2836416643        1.4828033465       14.6245778806
O             3.2584996722        0.0000000000       20.0549084271
O             0.0000000000        0.0000000000       19.2832554746
O             1.9902269307        1.4828032583       18.0082079499
O             4.5267726081        1.4828032583       18.0082079499
O             0.0000000000        0.0000000000       23.3828800777
O             3.2584996722        0.0000000000       22.6352994527
O             5.2488656598        1.4828033465       21.3293726972
O             1.2681340726        1.4828033465       21.3293726972
O             3.2584996722        0.0000000000       26.7519464669
O             0.0000000000        0.0000000000       25.9726403326
O             1.9755884392        1.4828032583       24.7080870768
O             4.5414110998        1.4828032583       24.7080870768
O             3.2584996722        0.0000000000       29.3348979682
O             5.2884123407        1.4828033465       28.1387471660
O             1.2285873919        1.4828033465       28.1387471660



     Writing config-only to output data dir ./Out/pwscf.save/
     NEW-OLD atomic charge density approx. for the potential

     negative rho (up, down):  1.847E-06 0.000E+00
     extrapolated charge  287.99803, renormalised to  288.00000

     total cpu time spent up to now is      242.5 secs

     per-process dynamical memory:   261.0 Mb

     Self-consistent Calculation

     iteration #  1     ecut=   120.00 Ry     beta= 0.40
     Davidson diagonalization with overlap
     ethr =  1.00E-06,  avg # of iterations =  2.6

     Threshold (ethr) on eigenvalues was too large:
     Diagonalizing with lowered threshold

     Davidson diagonalization with overlap
     ethr =  3.16E-09,  avg # of iterations =  4.6

     negative rho (up, down):  1.057E-06 0.000E+00

     total cpu time spent up to now is      267.1 secs

     total energy              =   -2155.90207704 Ry
     estimated scf accuracy    <       0.00001204 Ry

     iteration #  2     ecut=   120.00 Ry     beta= 0.40
     Davidson diagonalization with overlap
     ethr =  4.18E-09,  avg # of iterations =  8.2

     negative rho (up, down):  9.322E-07 0.000E+00

     total cpu time spent up to now is      281.4 secs

     total energy              =   -2155.90208050 Ry
     estimated scf accuracy    <       0.00007184 Ry

     iteration #  3     ecut=   120.00 Ry     beta= 0.40
     Davidson diagonalization with overlap
     ethr =  4.18E-09,  avg # of iterations =  4.9

     negative rho (up, down):  6.042E-07 0.000E+00

     total cpu time spent up to now is      292.7 secs

     total energy              =   -2155.90208378 Ry
     estimated scf accuracy    <       0.00000639 Ry

     iteration #  4     ecut=   120.00 Ry     beta= 0.40
     Davidson diagonalization with overlap
     ethr =  2.22E-09,  avg # of iterations =  5.0

     total cpu time spent up to now is      303.6 secs

     End of self-consistent calculation

          k = 0.0000 0.0000 0.0000 (113903 PWs)   bands (ev):

   -56.0940 -56.0933 -55.9511 -55.9459 -55.8827 -55.8788 -55.8742 -55.8705
   -55.7924 -55.7881 -55.4888 -55.4869 -32.4115 -32.4105 -32.2996 -32.2984
   -32.2887 -32.2854 -32.2115 -32.2110 -32.2049 -32.1994 -32.1943 -32.1879
   -32.1858 -32.1778 -32.0954 -32.0901 -32.0363 -32.0337 -32.0319 -32.0319
   -32.0289 -32.0282 -32.0229 -32.0181 -31.9819 -31.9739 -31.9659 -31.9580
   -31.9012 -31.8971 -31.7724 -31.7697 -31.7427 -31.7406 -31.5516 -31.5494
   -17.0888 -17.0158 -16.8108 -16.6587 -16.5802 -16.5227 -16.4198 -16.3557
   -16.1177 -15.9798 -15.8269 -15.8221 -15.7639 -15.7605 -15.4364 -15.3986
   -15.3892 -15.3849 -15.3662 -15.3492 -15.3360 -15.3085 -15.0409 -15.0369
    -4.6466  -4.5603  -4.4729  -4.4610  -4.4367  -4.4330  -4.3598  -4.2958
    -3.9949  -3.9715  -3.6938  -3.5114  -3.2617  -3.2117  -3.2059  -3.0813
    -3.0791  -2.7591  -2.7494  -2.7252  -2.7244  -2.7040  -2.6809  -2.6772
    -2.6295  -2.6260  -2.4309  -2.4247  -2.3247  -2.2554  -2.1768  -1.8833
    -1.8036  -1.7129  -1.6722  -1.5609  -1.5413  -1.5410  -1.4755  -1.4704
    -1.3310  -1.2717  -1.1879  -1.1652  -1.0749  -1.0720  -0.9337  -0.8095
    -0.7845  -0.7759  -0.7395  -0.7059  -0.6758  -0.6634  -0.4126  -0.3927
    -0.3852  -0.3735  -0.1334  -0.1265  -0.1063  -0.1036  -0.0813  -0.0737
    -0.0501  -0.0462   0.3567   0.3968   0.4278   0.5807   0.7303   0.8628
     2.9288   2.9389   2.9768   3.0207   3.0473   3.0509   3.3400   3.3767
     3.3810   3.3819   3.5543   3.5686   3.5703   3.6256   3.6435   3.6969
     3.8689   3.8714   3.8783   3.8879   4.0036   4.1327   4.1869   4.2923
     4.3389   4.4832   4.5653   4.5668   4.6209

          k = 0.0000 0.3662 0.0000 (113949 PWs)   bands (ev):

   -56.0840 -56.0833 -55.9413 -55.9362 -55.8721 -55.8688 -55.8646 -55.8615
   -55.7829 -55.7785 -55.4784 -55.4765 -32.3877 -32.3868 -32.3384 -32.3373
   -32.2848 -32.2837 -32.2687 -32.2661 -32.1787 -32.1732 -32.1659 -32.1618
   -32.1601 -32.1543 -32.1337 -32.1289 -32.1144 -32.1125 -32.0844 -32.0768
   -32.0561 -32.0548 -32.0309 -32.0276 -32.0255 -32.0217 -32.0155 -32.0112
   -32.0063 -32.0023 -31.7642 -31.7615 -31.7364 -31.7343 -31.6626 -31.6602
   -16.8273 -16.7652 -16.5810 -16.4425 -16.3655 -16.3124 -16.2200 -16.1697
   -15.9719 -15.8681 -15.8204 -15.8117 -15.6423 -15.6362 -15.5259 -15.5007
   -15.4887 -15.4808 -15.4715 -15.4517 -15.4395 -15.4203 -15.1026 -15.0989
    -4.2859  -4.2301  -4.1742  -4.1587  -4.1179  -4.1138  -4.0802  -4.0136
    -3.7205  -3.6991  -3.4665  -3.4338  -3.3967  -3.3791  -3.2817  -3.2629
    -3.2599  -3.2174  -3.1817  -3.0768  -3.0719  -2.9960  -2.9628  -2.9014
    -2.6834  -2.5356  -2.4602  -2.1054  -2.0988  -2.0185  -1.9012  -1.7740
    -1.6380  -1.5936  -1.5906  -1.4910  -1.4836  -1.4181  -1.3368  -1.3198
    -1.2925  -1.2438  -1.1448  -1.1253  -1.1038  -1.0739  -1.0526  -1.0274
    -0.9996  -0.9892  -0.9726  -0.9633  -0.8839  -0.8704  -0.7547  -0.6648
    -0.6406  -0.5306  -0.4678  -0.4418  -0.4118  -0.3562  -0.3237  -0.2811
    -0.0919  -0.0737  -0.0497  -0.0321  -0.0290   0.5037   0.5854   0.6964
     3.0408   3.0447   3.1771   3.2663   3.2780   3.2791   3.3030   3.3045
     3.3534   3.4210   3.4622   3.6817   3.6994   3.7336   3.7596   3.8206
     4.0363   4.0833   4.1156   4.1498   4.2573   4.2843   4.3118   4.3457
     4.4345   4.4619   4.4683   4.5065   4.7443

          k = 0.0000 0.7325 0.0000 (113958 PWs)   bands (ev):

   -56.0638 -56.0632 -55.9218 -55.9166 -55.8504 -55.8484 -55.8456 -55.8439
   -55.7637 -55.7593 -55.4575 -55.4556 -32.5615 -32.5609 -32.3569 -32.3522
   -32.3261 -32.3248 -32.3154 -32.3138 -32.2990 -32.2974 -32.2595 -32.2566
   -32.2564 -32.2555 -32.2214 -32.2172 -32.1251 -32.1195 -32.1114 -32.1061
   -32.1032 -32.0996 -32.0574 -32.0549 -32.0247 -32.0232 -32.0083 -32.0046
   -31.9783 -31.9738 -31.9256 -31.9227 -31.7244 -31.7224 -31.6940 -31.6914
   -16.2416 -16.2296 -16.2049 -16.1475 -15.9427 -15.9264 -15.9223 -15.8457
   -15.8302 -15.8276 -15.7114 -15.6972 -15.6925 -15.6902 -15.6802 -15.6620
   -15.6461 -15.6395 -15.5777 -15.5551 -15.4125 -15.4065 -15.0849 -15.0820
    -3.7409  -3.6856  -3.6756  -3.6576  -3.6478  -3.6383  -3.5940  -3.5578
    -3.5024  -3.4973  -3.4265  -3.4100  -3.3904  -3.3767  -3.3341  -3.3270
    -3.2553  -3.2443  -3.2347  -3.1624  -3.1234  -3.0843  -3.0563  -2.8753
    -2.7212  -2.5352  -2.5215  -2.4611  -2.4100  -2.3599  -2.3216  -2.2761
    -2.2700  -2.2465  -2.0702  -2.0258  -2.0115  -1.6953  -1.6436  -1.5142
    -1.4528  -1.4142  -1.3729  -1.1973  -1.1662  -1.1622  -1.1031  -1.0796
    -1.0565  -1.0059  -0.9811  -0.9351  -0.8673  -0.7446  -0.7271  -0.7229
    -0.7200  -0.5232  -0.4682  -0.4634  -0.4632  -0.3982  -0.3851  -0.3797
    -0.1754  -0.1633  -0.1532  -0.1296  -0.0448   0.0120   0.0636   0.1362
     3.3494   3.3876   3.3992   3.4057   3.4764   3.5270   3.6428   3.6675
     3.7075   3.7357   3.8459   3.8550   3.8619   3.8843   3.9716   3.9849
     4.0261   4.0527   4.0580   4.1807   4.2424   4.3345   4.4681   4.5058
     4.5292   4.5614   4.5792   4.6049   4.6983

          k = 0.0000-1.0987 0.0000 (113876 PWs)   bands (ev):

   -56.0538 -56.0531 -55.9120 -55.9068 -55.8390 -55.8376 -55.8363 -55.8359
   -55.7540 -55.7497 -55.4470 -55.4451 -32.6696 -32.6690 -32.4608 -32.4560
   -32.4211 -32.4202 -32.4070 -32.4057 -32.3251 -32.3210 -32.2817 -32.2809
   -32.2693 -32.2657 -32.2427 -32.2419 -32.0976 -32.0920 -32.0866 -32.0839
   -32.0607 -32.0594 -32.0554 -32.0524 -32.0473 -32.0464 -32.0324 -32.0308
   -31.9837 -31.9799 -31.9589 -31.9542 -31.7188 -31.7168 -31.6751 -31.6725
   -16.2227 -16.2206 -15.9063 -15.9014 -15.8194 -15.8116 -15.7923 -15.7835
   -15.7704 -15.7495 -15.7454 -15.7336 -15.7251 -15.7208 -15.6959 -15.6783
   -15.6532 -15.6259 -15.5161 -15.5077 -15.3972 -15.3808 -14.9391 -14.9360
    -4.0884  -3.9869  -3.7417  -3.6821  -3.6652  -3.6199  -3.5698  -3.5431
    -3.4876  -3.4121  -3.3932  -3.3549  -3.2495  -3.2374  -3.2268  -3.2223
    -3.2170  -3.1272  -3.0794  -3.0625  -3.0560  -3.0265  -2.9401  -2.8598
    -2.8372  -2.6984  -2.6140  -2.5882  -2.4383  -2.4295  -2.4151  -2.4129
    -2.0600  -1.9713  -1.8287  -1.8254  -1.7824  -1.7809  -1.7468  -1.7293
    -1.7235  -1.6396  -1.5810  -1.4628  -1.4549  -1.3845  -1.3649  -1.3236
    -1.1604  -1.0653  -1.0075  -0.9745  -0.9138  -0.7884  -0.7072  -0.6443
    -0.6208  -0.5723  -0.4509  -0.3656  -0.2741  -0.2733  -0.2643  -0.2458
    -0.2443  -0.2428  -0.2234  -0.2064  -0.1126  -0.0751  -0.0554   0.0876
     3.1039   3.3888   3.6223   3.6310   3.6522   3.8251   3.8892   3.8912
     3.9045   3.9477   3.9887   3.9957   4.0871   4.0908   4.0971   4.1900
     4.2082   4.2467   4.2497   4.2509   4.2750   4.3143   4.3198   4.3729
     4.3833   4.4420   4.4426   4.4675   4.5712

          k = 0.3333 0.0000 0.0000 (113895 PWs)   bands (ev):

   -56.0939 -56.0933 -55.9510 -55.9459 -55.8809 -55.8780 -55.8750 -55.8723
   -55.7924 -55.7881 -55.4888 -55.4869 -32.4117 -32.4107 -32.2890 -32.2858
   -32.2836 -32.2826 -32.2113 -32.2109 -32.1975 -32.1920 -32.1855 -32.1805
   -32.1588 -32.1514 -32.0945 -32.0940 -32.0701 -32.0671 -32.0507 -32.0462
   -32.0313 -32.0277 -32.0228 -32.0180 -31.9781 -31.9716 -31.9682 -31.9618
   -31.9013 -31.8972 -31.7723 -31.7696 -31.7509 -31.7488 -31.5517 -31.5495
   -16.9405 -16.8868 -16.6539 -16.5230 -16.4844 -16.4443 -16.3811 -16.3362
   -16.2195 -16.0633 -15.9565 -15.9512 -15.7569 -15.7527 -15.5133 -15.5080
   -15.4783 -15.4515 -15.4298 -15.4163 -15.3982 -15.3751 -15.0372 -15.0334
    -4.4780  -4.4339  -4.1596  -4.0831  -4.0391  -4.0336  -4.0256  -4.0141
    -3.9406  -3.9234  -3.3495  -3.2460  -3.2142  -3.1218  -3.0829  -3.0814
    -2.9288  -2.7512  -2.7420  -2.6738  -2.6576  -2.6221  -2.6184  -2.5604
    -2.5595  -2.5569  -2.5479  -2.4523  -2.4306  -2.4242  -2.3352  -2.1779
    -2.0819  -2.0030  -1.8959  -1.8682  -1.7598  -1.7479  -1.6714  -1.5354
    -1.4910  -1.4285  -1.3755  -1.1947  -1.1359  -1.1287  -1.1202  -0.9584
    -0.8445  -0.8398  -0.7724  -0.7227  -0.7012  -0.6593  -0.6525  -0.6233
    -0.5549  -0.4946  -0.3474  -0.3292  -0.2596  -0.1900  -0.1844  -0.1826
    -0.1354  -0.1092  -0.0054   0.0004   0.0499   0.3935   0.4860   0.6060
     3.2846   3.2951   3.3617   3.3865   3.4186   3.4353   3.4650   3.4674
     3.6137   3.6355   3.6407   3.6443   3.7176   3.7239   3.8384   3.8467
     3.9163   3.9688   4.1073   4.1161   4.1747   4.3250   4.3308   4.5105
     4.5206   4.5305   4.5597   4.5908   4.6165

          k = 0.3333 0.3662 0.0000 (113817 PWs)   bands (ev):

   -56.0839 -56.0833 -55.9413 -55.9362 -55.8706 -55.8680 -55.8653 -55.8630
   -55.7829 -55.7785 -55.4784 -55.4765 -32.3878 -32.3868 -32.3387 -32.3376
   -32.2756 -32.2747 -32.2690 -32.2664 -32.1731 -32.1676 -32.1610 -32.1565
   -32.1400 -32.1369 -32.1348 -32.1301 -32.1146 -32.1083 -32.0917 -32.0877
   -32.0570 -32.0564 -32.0458 -32.0447 -32.0293 -32.0248 -32.0232 -32.0194
   -32.0044 -32.0004 -31.7643 -31.7616 -31.7412 -31.7392 -31.6624 -31.6600
   -16.6997 -16.6559 -16.4453 -16.3097 -16.2904 -16.2447 -16.1816 -16.1482
   -16.0499 -15.9254 -15.8236 -15.8138 -15.7921 -15.7885 -15.6062 -15.5983
   -15.5624 -15.5464 -15.5154 -15.4886 -15.4532 -15.4469 -15.0981 -15.0946
    -4.1583  -4.1334  -3.8493  -3.7985  -3.7488  -3.7366  -3.7124  -3.7040
    -3.6402  -3.6324  -3.4399  -3.4354  -3.3002  -3.2853  -3.2427  -3.2379
    -3.1567  -3.1538  -3.0674  -2.9736  -2.9328  -2.9228  -2.7907  -2.7593
    -2.6580  -2.5441  -2.3751  -2.1738  -2.1022  -2.0591  -1.9817  -1.9434
    -1.9123  -1.8717  -1.8302  -1.7453  -1.7352  -1.7203  -1.6759  -1.6214
    -1.5176  -1.4361  -1.4271  -1.3508  -1.2936  -1.2932  -1.2761  -1.2546
    -1.2259  -1.1466  -1.1156  -1.0932  -1.0563  -1.0016  -0.9472  -0.9240
    -0.8279  -0.7009  -0.6171  -0.5089  -0.2792  -0.2737  -0.1078  -0.1058
    -0.0110   0.0076   0.0294   0.0569   0.1176   0.3676   0.4304   0.5165
     3.1495   3.1531   3.3310   3.3352   3.3921   3.4341   3.4750   3.5781
     3.6082   3.6246   3.6819   3.6845   3.7516   3.7544   3.8460   3.9089
     4.0859   4.1108   4.2322   4.2755   4.3124   4.3145   4.4263   4.4972
     4.5776   4.6005   4.6537   4.7033   4.7368

          k = 0.3333 0.7325 0.0000 (113872 PWs)   bands (ev):

   -56.0638 -56.0632 -55.9218 -55.9166 -55.8496 -55.8481 -55.8459 -55.8447
   -55.7637 -55.7593 -55.4575 -55.4556 -32.5618 -32.5612 -32.3594 -32.3546
   -32.3267 -32.3256 -32.3161 -32.3145 -32.3065 -32.3047 -32.2831 -32.2812
   -32.2595 -32.2565 -32.1907 -32.1876 -32.1240 -32.1184 -32.1106 -32.1076
   -32.0789 -32.0754 -32.0567 -32.0558 -32.0395 -32.0376 -32.0081 -32.0044
   -31.9818 -31.9772 -31.9247 -31.9219 -31.7238 -31.7218 -31.6939 -31.6913
   -16.2081 -16.2060 -16.1700 -16.1241 -15.9757 -15.9726 -15.9218 -15.9183
   -15.8638 -15.8324 -15.7830 -15.7699 -15.7012 -15.6962 -15.6697 -15.6621
   -15.6000 -15.5867 -15.5343 -15.5189 -15.4082 -15.4023 -15.0850 -15.0820
    -3.7006  -3.6852  -3.6545  -3.6456  -3.5494  -3.5468  -3.5355  -3.5124
    -3.4621  -3.4069  -3.3463  -3.3428  -3.3020  -3.2979  -3.2543  -3.2262
    -3.2036  -3.1565  -3.1281  -3.1020  -3.0986  -3.0362  -2.9743  -2.9682
    -2.7558  -2.6775  -2.5348  -2.4974  -2.4558  -2.4499  -2.3443  -2.3216
    -2.1216  -2.1023  -1.9954  -1.9656  -1.8941  -1.7691  -1.6889  -1.6018
    -1.5326  -1.5148  -1.4198  -1.4109  -1.3210  -1.2930  -1.2621  -1.2461
    -1.2116  -1.1809  -1.0746  -1.0262  -0.9981  -0.8783  -0.7630  -0.7563
    -0.7124  -0.6637  -0.5008  -0.4825  -0.4441  -0.3983  -0.3283  -0.3031
    -0.2431  -0.1743  -0.0418   0.0226   0.0940   0.1405   0.1574   0.1747
     3.1176   3.1414   3.1786   3.2490   3.2668   3.3146   3.5651   3.6744
     3.6842   3.7466   3.8464   3.8863   3.9205   3.9609   4.0405   4.0677
     4.0925   4.1312   4.1440   4.1687   4.2935   4.3629   4.4417   4.4666
     4.5378   4.5406   4.6701   4.7099   4.8029

          k = 0.3333-1.0987 0.0000 (113996 PWs)   bands (ev):

   -56.0538 -56.0531 -55.9120 -55.9068 -55.8390 -55.8376 -55.8363 -55.8359
   -55.7540 -55.7497 -55.4470 -55.4451 -32.6700 -32.6695 -32.4635 -32.4586
   -32.4218 -32.4211 -32.4135 -32.4128 -32.3474 -32.3438 -32.2826 -32.2818
   -32.2692 -32.2657 -32.2189 -32.2175 -32.1030 -32.0977 -32.0859 -32.0846
   -32.0533 -32.0521 -32.0502 -32.0471 -32.0470 -32.0462 -32.0312 -32.0303
   -31.9834 -31.9797 -31.9584 -31.9538 -31.7155 -31.7135 -31.6752 -31.6725
   -16.2206 -16.2195 -16.0027 -15.9979 -15.9914 -15.9886 -15.9453 -15.9419
   -15.9002 -15.8974 -15.7925 -15.7536 -15.5419 -15.5373 -15.5187 -15.5134
   -15.4492 -15.4471 -15.4417 -15.4373 -15.3954 -15.3869 -14.9391 -14.9359
    -4.0221  -4.0115  -4.0052  -3.9410  -3.8740  -3.8278  -3.7058  -3.7057
    -3.7017  -3.6456  -3.4791  -3.2756  -3.2603  -3.2286  -3.1060  -3.0945
    -3.0597  -3.0578  -3.0535  -2.9791  -2.8514  -2.8511  -2.8468  -2.8442
    -2.6899  -2.6602  -2.4051  -2.3507  -2.3421  -2.2140  -2.1298  -2.0537
    -2.0429  -2.0396  -1.9764  -1.7887  -1.7720  -1.7625  -1.7608  -1.7289
    -1.6632  -1.6440  -1.6361  -1.5789  -1.4180  -1.3991  -1.1829  -1.0814
    -1.0713  -1.0242  -0.9862  -0.9010  -0.7989  -0.7486  -0.6557  -0.6255
    -0.6038  -0.5838  -0.5596  -0.4985  -0.4748  -0.4689  -0.4617  -0.3814
    -0.3359  -0.2819  -0.2732  -0.2280  -0.2266   0.0139   0.0692   0.1051
     3.0926   3.1037   3.1654   3.2263   3.3055   3.4394   3.4465   3.5179
     3.6833   3.7618   3.9592   3.9606   3.9956   4.0935   4.1173   4.1716
     4.2118   4.2137   4.2241   4.2411   4.3090   4.3150   4.4612   4.4651
     4.4784   4.6345   4.7776   4.7848   4.8004

     the Fermi energy is     1.8822 ev

!    total energy              =   -2155.90208423 Ry
     estimated scf accuracy    <       0.00000058 Ry
     smearing contrib. (-TS)   =      -0.00000000 Ry
     internal energy E=F+TS    =   -2155.90208423 Ry

     The total energy is F=E-TS. E is the sum of the following terms:
     one-electron contribution =  -45928.55649459 Ry
     hartree contribution      =   23013.35503059 Ry
     xc contribution           =    -340.13332821 Ry
     ewald contribution        =   21099.43270797 Ry

     convergence has been achieved in   4 iterations

     Forces acting on atoms (cartesian axes, Ry/au):

     atom    1 type  1   force =     0.00000000    0.00000000   -0.00045977
     atom    2 type  1   force =     0.00000000    0.00000000    0.00031412
     atom    3 type  1   force =     0.00000000    0.00000000   -0.00041147
     atom    4 type  1   force =     0.00000000    0.00000000   -0.00030637
     atom    5 type  1   force =     0.00000000    0.00000000    0.00023949
     atom    6 type  1   force =     0.00000000    0.00000000   -0.00010434
     atom    7 type  1   force =     0.00000000    0.00000000   -0.00040405
     atom    8 type  1   force =     0.00000000    0.00000000   -0.00010985
     atom    9 type  1   force =     0.00000000    0.00000000   -0.00016442
     atom   10 type  1   force =     0.00000000    0.00000000    0.00018303
     atom   11 type  1   force =     0.00000000    0.00000000    0.00002023
     atom   12 type  1   force =     0.00000000    0.00000000   -0.00018141
     atom   13 type  2   force =     0.00000000    0.00000000    0.00068538
     atom   14 type  2   force =     0.00000000    0.00000000    0.00006427
     atom   15 type  2   force =     0.00000000    0.00000000   -0.00037814
     atom   16 type  2   force =     0.00039764    0.00000000   -0.00115966
     atom   17 type  2   force =    -0.00039764    0.00000000   -0.00115966
     atom   18 type  2   force =     0.00000000    0.00000000    0.00031574
     atom   19 type  2   force =     0.00000000    0.00000000   -0.00013911
     atom   20 type  2   force =     0.00009289    0.00000000   -0.00020068
     atom   21 type  2   force =    -0.00009289    0.00000000   -0.00020068
     atom   22 type  2   force =     0.00000000    0.00000000    0.00013921
     atom   23 type  2   force =     0.00000000    0.00000000   -0.00046745
     atom   24 type  2   force =    -0.00003885    0.00000000    0.00047676
     atom   25 type  2   force =     0.00003885    0.00000000    0.00047676
     atom   26 type  2   force =     0.00000000    0.00000000   -0.00041252
     atom   27 type  2   force =     0.00000000    0.00000000   -0.00018236
     atom   28 type  2   force =    -0.00011423    0.00000000   -0.00028164
     atom   29 type  2   force =     0.00011423    0.00000000   -0.00028164
     atom   30 type  2   force =     0.00000000    0.00000000    0.00015859
     atom   31 type  2   force =     0.00000000    0.00000000   -0.00005435
     atom   32 type  2   force =    -0.00007086    0.00000000    0.00124953
     atom   33 type  2   force =     0.00007086    0.00000000    0.00124953
     atom   34 type  2   force =     0.00000000    0.00000000   -0.00011663
     atom   35 type  2   force =     0.00028741    0.00000000    0.00080178
     atom   36 type  2   force =    -0.00028741    0.00000000    0.00080178

     Total force =     0.003234     Total SCF correction =     0.004486
     SCF correction compared to forces is large: reduce conv_thr to get better values


     Computing stress (Cartesian axis) and pressure

          total   stress  (Ry/bohr**3)                   (kbar)     P=        0.07
   0.00000044   0.00000000   0.00000000            0.06        0.00        0.00
   0.00000000  -0.00000063   0.00000000            0.00       -0.09        0.00
   0.00000000   0.00000000   0.00000152            0.00        0.00        0.22

     Energy error            =      1.4E-05 Ry
     Gradient error          =      1.2E-03 Ry/Bohr
     Cell gradient error     =      9.2E-02 kbar

     number of scf cycles    =   2
     number of bfgs steps    =   1

     enthalpy           old  =   -2155.9020702981 Ry
     enthalpy           new  =   -2155.9020842335 Ry

     CASE: enthalpy          _new < enthalpy          _old

     new trust radius        =       0.0015307538 bohr
     new conv_thr            =       0.0000000100 Ry

     new unit-cell volume =   5130.21305 a.u.^3 (   760.21914 Ang^3 )
     density =      2.09338 g/cm^3

CELL_PARAMETERS (angstrom)
   6.517097758   0.000000000   0.000000000
   0.000000000   2.965543034   0.000000000
   0.000000000   0.000000000  39.335106809

ATOMIC_POSITIONS (angstrom)
Ti            3.2585486849        0.0000000000       11.5701185420
Ti            0.0000000000        1.4827714292       11.0668327879
Ti            0.0000000000        0.0000000000       14.4055154351
Ti            3.2585486849        1.4827714292       14.8136728620
Ti            3.2585486849        0.0000000000       18.2033651736
Ti            0.0000000000        1.4827714292       17.8612941615
Ti            0.0000000000        0.0000000000       21.1347116471
Ti            3.2585486849        1.4827714292       21.4763501456
Ti            3.2585486849        0.0000000000       24.9300439820
Ti            0.0000000000        1.4827714292       24.5255419222
Ti            0.0000000000        0.0000000000       27.7713456809
Ti            3.2585486849        1.4827714292       28.2697824243
O             0.0000000000        0.0000000000       10.0011965468
O             3.2585486849        0.0000000000       13.3677278543
O             0.0000000000        0.0000000000       12.5841646500
O             2.0296476088        1.4827714292       11.2035724812
O             4.4874499556        1.4827714292       11.2035724812
O             0.0000000000        0.0000000000       16.7020725167
O             3.2585486849        0.0000000000       15.9569104161
O             5.2334986744        1.4827715174       14.6244466063
O             1.2835990836        1.4827715174       14.6244466063
O             3.2585486849        0.0000000000       20.0550215745
O             0.0000000000        0.0000000000       19.2828639623
O             1.9901884115        1.4827714292       18.0085224340
O             4.5269091528        1.4827714292       18.0085224340
O             0.0000000000        0.0000000000       23.3825822690
O             3.2585486849        0.0000000000       22.6351046838
O             5.2488259032        1.4827715174       21.3291971175
O             1.2682718547        1.4827715174       21.3291971175
O             3.2585486849        0.0000000000       26.7519922073
O             0.0000000000        0.0000000000       25.9725128836
O             1.9755864036        1.4827714292       24.7088964943
O             4.5415111608        1.4827714292       24.7088964943
O             3.2585486849        0.0000000000       29.3347720673
O             5.2887040379        1.4827715174       28.1392427452
O             1.2283937201        1.4827715174       28.1392427452



     Writing config-only to output data dir ./Out/pwscf.save/
     NEW-OLD atomic charge density approx. for the potential

     negative rho (up, down):  1.989E-06 0.000E+00
     extrapolated charge  287.99816, renormalised to  288.00000

     total cpu time spent up to now is      326.3 secs

     per-process dynamical memory:   262.1 Mb

     Self-consistent Calculation

     iteration #  1     ecut=   120.00 Ry     beta= 0.40
     Davidson diagonalization with overlap
     ethr =  1.00E-06,  avg # of iterations =  3.0

     Threshold (ethr) on eigenvalues was too large:
     Diagonalizing with lowered threshold

     Davidson diagonalization with overlap
     ethr =  1.03E-08,  avg # of iterations =  4.8

     negative rho (up, down):  1.139E-06 0.000E+00

     total cpu time spent up to now is      349.6 secs

     total energy              =   -2155.90207163 Ry
     estimated scf accuracy    <       0.00003900 Ry

     iteration #  2     ecut=   120.00 Ry     beta= 0.40
     Davidson diagonalization with overlap
     ethr =  1.35E-08,  avg # of iterations =  6.6

     negative rho (up, down):  9.906E-07 0.000E+00

     total cpu time spent up to now is      362.9 secs

     total energy              =   -2155.90207867 Ry
     estimated scf accuracy    <       0.00020785 Ry

     iteration #  3     ecut=   120.00 Ry     beta= 0.40
     Davidson diagonalization with overlap
     ethr =  1.35E-08,  avg # of iterations =  5.0

     negative rho (up, down):  6.492E-07 0.000E+00

     total cpu time spent up to now is      374.4 secs

     total energy              =   -2155.90209452 Ry
     estimated scf accuracy    <       0.00000695 Ry

     iteration #  4     ecut=   120.00 Ry     beta= 0.40
     Davidson diagonalization with overlap
     ethr =  2.41E-09,  avg # of iterations =  5.2

     negative rho (up, down):  4.951E-07 0.000E+00

     total cpu time spent up to now is      385.5 secs

     total energy              =   -2155.90209577 Ry
     estimated scf accuracy    <       0.00000048 Ry

     iteration #  5     ecut=   120.00 Ry     beta= 0.40
     Davidson diagonalization with overlap
     ethr =  1.66E-10,  avg # of iterations =  7.1

     negative rho (up, down):  1.971E-07 0.000E+00

     total cpu time spent up to now is      398.2 secs

     total energy              =   -2155.90209588 Ry
     estimated scf accuracy    <       0.00000010 Ry

     iteration #  6     ecut=   120.00 Ry     beta= 0.40
     Davidson diagonalization with overlap
     ethr =  3.50E-11,  avg # of iterations =  5.1

     negative rho (up, down):  1.175E-07 0.000E+00

     total cpu time spent up to now is      409.9 secs

     total energy              =   -2155.90209590 Ry
     estimated scf accuracy    <       0.00000003 Ry

     iteration #  7     ecut=   120.00 Ry     beta= 0.40
     Davidson diagonalization with overlap
     ethr =  9.49E-12,  avg # of iterations =  4.0

     total cpu time spent up to now is      420.2 secs

     End of self-consistent calculation

          k = 0.0000 0.0000 0.0000 (113903 PWs)   bands (ev):

   -56.0963 -56.0963 -55.9507 -55.9459 -55.8839 -55.8799 -55.8759 -55.8720
   -55.7944 -55.7921 -55.4875 -55.4863 -32.4131 -32.4129 -32.3019 -32.3015
   -32.2887 -32.2859 -32.2139 -32.2136 -32.2046 -32.1995 -32.1958 -32.1894
   -32.1871 -32.1791 -32.0971 -32.0918 -32.0377 -32.0355 -32.0337 -32.0335
   -32.0324 -32.0319 -32.0224 -32.0180 -31.9834 -31.9756 -31.9670 -31.9594
   -31.9031 -31.9010 -31.7712 -31.7695 -31.7414 -31.7400 -31.5503 -31.5490
   -17.0906 -17.0175 -16.8123 -16.6593 -16.5808 -16.5243 -16.4219 -16.3578
   -16.1198 -15.9822 -15.8269 -15.8246 -15.7648 -15.7622 -15.4384 -15.4004
   -15.3909 -15.3870 -15.3669 -15.3495 -15.3375 -15.3105 -15.0405 -15.0380
    -4.6484  -4.5623  -4.4748  -4.4631  -4.4360  -4.4330  -4.3615  -4.2975
    -3.9975  -3.9742  -3.6955  -3.5129  -3.2629  -3.2121  -3.2083  -3.0831
    -3.0796  -2.7605  -2.7529  -2.7289  -2.7257  -2.7053  -2.6805  -2.6776
    -2.6318  -2.6291  -2.4307  -2.4275  -2.3259  -2.2568  -2.1778  -1.8847
    -1.8051  -1.7136  -1.6733  -1.5615  -1.5434  -1.5418  -1.4774  -1.4717
    -1.3327  -1.2734  -1.1892  -1.1665  -1.0755  -1.0732  -0.9352  -0.8108
    -0.7851  -0.7773  -0.7402  -0.7073  -0.6773  -0.6647  -0.4140  -0.3941
    -0.3875  -0.3753  -0.1349  -0.1275  -0.1081  -0.1047  -0.0828  -0.0751
    -0.0519  -0.0482   0.3548   0.3971   0.4281   0.5796   0.7283   0.8610
     2.9266   2.9363   2.9747   3.0186   3.0482   3.0513   3.3374   3.3739
     3.3789   3.3790   3.5532   3.5672   3.5692   3.6246   3.6428   3.6955
     3.8701   3.8718   3.8771   3.8862   4.0020   4.1316   4.1861   4.2902
     4.3370   4.4823   4.5666   4.5682   4.6198

          k = 0.0000 0.3663 0.0000 (113949 PWs)   bands (ev):

   -56.0863 -56.0863 -55.9410 -55.9361 -55.8733 -55.8698 -55.8663 -55.8630
   -55.7848 -55.7826 -55.4771 -55.4759 -32.3894 -32.3893 -32.3399 -32.3395
   -32.2871 -32.2868 -32.2693 -32.2671 -32.1784 -32.1733 -32.1673 -32.1632
   -32.1616 -32.1556 -32.1332 -32.1288 -32.1158 -32.1139 -32.0863 -32.0787
   -32.0573 -32.0561 -32.0321 -32.0289 -32.0273 -32.0254 -32.0175 -32.0151
   -32.0082 -32.0062 -31.7630 -31.7613 -31.7351 -31.7337 -31.6614 -31.6599
   -16.8291 -16.7668 -16.5824 -16.4431 -16.3660 -16.3138 -16.2221 -16.1718
   -15.9737 -15.8696 -15.8222 -15.8140 -15.6421 -15.6387 -15.5280 -15.5026
   -15.4904 -15.4831 -15.4723 -15.4521 -15.4409 -15.4223 -15.1022 -15.1000
    -4.2876  -4.2320  -4.1760  -4.1607  -4.1173  -4.1139  -4.0819  -4.0152
    -3.7229  -3.7014  -3.4682  -3.4357  -3.3984  -3.3805  -3.2835  -3.2653
    -3.2616  -3.2190  -3.1833  -3.0761  -3.0722  -2.9984  -2.9655  -2.9031
    -2.6851  -2.5367  -2.4613  -2.1060  -2.0999  -2.0201  -1.9026  -1.7755
    -1.6389  -1.5947  -1.5918  -1.4926  -1.4848  -1.4192  -1.3384  -1.3213
    -1.2935  -1.2451  -1.1463  -1.1266  -1.1046  -1.0761  -1.0550  -1.0293
    -1.0007  -0.9911  -0.9737  -0.9642  -0.8852  -0.8722  -0.7561  -0.6657
    -0.6418  -0.5319  -0.4694  -0.4435  -0.4135  -0.3575  -0.3262  -0.2819
    -0.0935  -0.0735  -0.0516  -0.0341  -0.0299   0.5026   0.5840   0.6948
     3.0405   3.0437   3.1752   3.2643   3.2762   3.2773   3.3015   3.3025
     3.3517   3.4195   3.4607   3.6801   3.6984   3.7321   3.7586   3.8198
     4.0361   4.0813   4.1136   4.1494   4.2557   4.2838   4.3102   4.3454
     4.4334   4.4617   4.4679   4.5050   4.7423

          k = 0.0000 0.7325 0.0000 (113958 PWs)   bands (ev):

   -56.0662 -56.0662 -55.9214 -55.9166 -55.8514 -55.8494 -55.8473 -55.8454
   -55.7656 -55.7634 -55.4562 -55.4550 -32.5637 -32.5634 -32.3566 -32.3522
   -32.3275 -32.3269 -32.3166 -32.3149 -32.3010 -32.2992 -32.2597 -32.2587
   -32.2586 -32.2572 -32.2234 -32.2212 -32.1247 -32.1196 -32.1130 -32.1078
   -32.1044 -32.1009 -32.0586 -32.0561 -32.0261 -32.0248 -32.0099 -32.0082
   -31.9802 -31.9777 -31.9246 -31.9229 -31.7231 -31.7218 -31.6927 -31.6911
   -16.2432 -16.2311 -16.2063 -16.1490 -15.9445 -15.9259 -15.9227 -15.8474
   -15.8318 -15.8301 -15.7133 -15.6993 -15.6948 -15.6918 -15.6813 -15.6627
   -15.6473 -15.6413 -15.5800 -15.5571 -15.4125 -15.4092 -15.0847 -15.0827
    -3.7422  -3.6868  -3.6776  -3.6596  -3.6495  -3.6403  -3.5956  -3.5592
    -3.5030  -3.4984  -3.4282  -3.4112  -3.3911  -3.3778  -3.3358  -3.3291
    -3.2555  -3.2457  -3.2351  -3.1646  -3.1243  -3.0852  -3.0582  -2.8771
    -2.7229  -2.5368  -2.5225  -2.4624  -2.4117  -2.3613  -2.3229  -2.2773
    -2.2721  -2.2484  -2.0721  -2.0271  -2.0137  -1.6965  -1.6447  -1.5168
    -1.4533  -1.4168  -1.3736  -1.1991  -1.1687  -1.1646  -1.1036  -1.0794
    -1.0580  -1.0058  -0.9819  -0.9364  -0.8672  -0.7455  -0.7289  -0.7243
    -0.7225  -0.5248  -0.4687  -0.4649  -0.4645  -0.3995  -0.3854  -0.3811
    -0.1771  -0.1651  -0.1553  -0.1313  -0.0474   0.0109   0.0631   0.1350
     3.3478   3.3859   3.3986   3.4045   3.4744   3.5249   3.6411   3.6657
     3.7060   3.7340   3.8446   3.8533   3.8605   3.8829   3.9704   3.9840
     4.0257   4.0514   4.0574   4.1793   4.2412   4.3341   4.4666   4.5041
     4.5276   4.5594   4.5784   4.5836   4.6035

          k = 0.0000-1.0988 0.0000 (113876 PWs)   bands (ev):

   -56.0561 -56.0561 -55.9116 -55.9068 -55.8390 -55.8389 -55.8383 -55.8379
   -55.7560 -55.7537 -55.4457 -55.4445 -32.6719 -32.6716 -32.4605 -32.4560
   -32.4223 -32.4213 -32.4090 -32.4077 -32.3271 -32.3250 -32.2838 -32.2837
   -32.2688 -32.2656 -32.2450 -32.2450 -32.0972 -32.0920 -32.0885 -32.0858
   -32.0611 -32.0606 -32.0548 -32.0531 -32.0480 -32.0475 -32.0344 -32.0327
   -31.9850 -31.9832 -31.9608 -31.9582 -31.7175 -31.7162 -31.6738 -31.6722
   -16.2245 -16.2218 -15.9084 -15.9033 -15.8213 -15.8133 -15.7940 -15.7846
   -15.7712 -15.7507 -15.7472 -15.7355 -15.7248 -15.7214 -15.6974 -15.6802
   -15.6554 -15.6277 -15.5172 -15.5091 -15.3991 -15.3828 -14.9388 -14.9368
    -4.0898  -3.9882  -3.7430  -3.6838  -3.6672  -3.6217  -3.5717  -3.5450
    -3.4893  -3.4137  -3.3946  -3.3564  -3.2512  -3.2370  -3.2268  -3.2240
    -3.2188  -3.1276  -3.0802  -3.0627  -3.0569  -3.0279  -2.9424  -2.8609
    -2.8387  -2.7003  -2.6153  -2.5901  -2.4393  -2.4312  -2.4164  -2.4147
    -2.0616  -1.9728  -1.8314  -1.8281  -1.7841  -1.7832  -1.7481  -1.7291
    -1.7241  -1.6412  -1.5818  -1.4639  -1.4558  -1.3872  -1.3677  -1.3246
    -1.1624  -1.0664  -1.0093  -0.9755  -0.9149  -0.7895  -0.7088  -0.6463
    -0.6231  -0.5719  -0.4507  -0.3668  -0.2748  -0.2741  -0.2658  -0.2453
    -0.2444  -0.2441  -0.2245  -0.2075  -0.1152  -0.0771  -0.0579   0.0856
     3.1025   3.3875   3.6210   3.6290   3.6498   3.8235   3.8881   3.8891
     3.9032   3.9455   3.9890   3.9947   4.0854   4.0910   4.0967   4.1887
     4.2067   4.2458   4.2483   4.2493   4.2723   4.3128   4.3161   4.3712
     4.3815   4.4408   4.4420   4.4667   4.5694

          k = 0.3333 0.0000 0.0000 (113895 PWs)   bands (ev):

   -56.0963 -56.0962 -55.9507 -55.9458 -55.8820 -55.8787 -55.8771 -55.8739
   -55.7944 -55.7922 -55.4875 -55.4863 -32.4133 -32.4131 -32.2890 -32.2863
   -32.2859 -32.2856 -32.2137 -32.2134 -32.1972 -32.1921 -32.1869 -32.1818
   -32.1604 -32.1531 -32.0962 -32.0956 -32.0712 -32.0683 -32.0527 -32.0502
   -32.0330 -32.0313 -32.0223 -32.0179 -31.9797 -31.9736 -31.9690 -31.9631
   -31.9032 -31.9012 -31.7711 -31.7694 -31.7496 -31.7482 -31.5504 -31.5491
   -16.9422 -16.8883 -16.6556 -16.5255 -16.4850 -16.4453 -16.3829 -16.3376
   -16.2217 -16.0654 -15.9567 -15.9532 -15.7581 -15.7542 -15.5153 -15.5108
   -15.4805 -15.4535 -15.4309 -15.4164 -15.3990 -15.3766 -15.0367 -15.0345
    -4.4796  -4.4353  -4.1621  -4.0856  -4.0409  -4.0341  -4.0259  -4.0156
    -3.9429  -3.9260  -3.3512  -3.2473  -3.2157  -3.1231  -3.0850  -3.0817
    -2.9299  -2.7546  -2.7453  -2.6754  -2.6591  -2.6214  -2.6185  -2.5631
    -2.5611  -2.5604  -2.5493  -2.4534  -2.4304  -2.4270  -2.3369  -2.1790
    -2.0837  -2.0042  -1.8980  -1.8700  -1.7602  -1.7480  -1.6724  -1.5365
    -1.4922  -1.4298  -1.3763  -1.1958  -1.1371  -1.1294  -1.1214  -0.9591
    -0.8451  -0.8408  -0.7742  -0.7242  -0.7021  -0.6610  -0.6544  -0.6243
    -0.5558  -0.4957  -0.3494  -0.3309  -0.2609  -0.1897  -0.1858  -0.1841
    -0.1369  -0.1111  -0.0071  -0.0011   0.0483   0.3920   0.4839   0.6042
     3.2820   3.2924   3.3591   3.3841   3.4164   3.4327   3.4660   3.4681
     3.6127   3.6348   3.6391   3.6413   3.7163   3.7228   3.8385   3.8466
     3.9149   3.9675   4.1061   4.1145   4.1729   4.3220   4.3275   4.5112
     4.5212   4.5293   4.5566   4.5913   4.6049

          k = 0.3333 0.3663 0.0000 (113817 PWs)   bands (ev):

   -56.0863 -56.0862 -55.9410 -55.9361 -55.8716 -55.8688 -55.8674 -55.8646
   -55.7848 -55.7826 -55.4771 -55.4759 -32.3894 -32.3893 -32.3402 -32.3398
   -32.2779 -32.2777 -32.2695 -32.2674 -32.1728 -32.1677 -32.1624 -32.1578
   -32.1414 -32.1384 -32.1344 -32.1300 -32.1160 -32.1099 -32.0934 -32.0896
   -32.0581 -32.0578 -32.0470 -32.0462 -32.0312 -32.0288 -32.0250 -32.0231
   -32.0063 -32.0044 -31.7631 -31.7614 -31.7399 -31.7386 -31.6612 -31.6597
   -16.7013 -16.6574 -16.4469 -16.3118 -16.2912 -16.2456 -16.1834 -16.1495
   -16.0519 -15.9271 -15.8247 -15.8154 -15.7923 -15.7900 -15.6085 -15.6011
   -15.5646 -15.5481 -15.5175 -15.4901 -15.4533 -15.4481 -15.0977 -15.0956
    -4.1598  -4.1348  -3.8515  -3.8005  -3.7507  -3.7386  -3.7126  -3.7048
    -3.6419  -3.6345  -3.4416  -3.4368  -3.3021  -3.2873  -3.2435  -3.2398
    -3.1589  -3.1562  -3.0694  -2.9754  -2.9326  -2.9235  -2.7918  -2.7604
    -2.6602  -2.5456  -2.3764  -2.1748  -2.1031  -2.0610  -1.9834  -1.9453
    -1.9144  -1.8738  -1.8316  -1.7457  -1.7350  -1.7210  -1.6772  -1.6227
    -1.5191  -1.4378  -1.4288  -1.3528  -1.2952  -1.2948  -1.2765  -1.2551
    -1.2276  -1.1477  -1.1171  -1.0946  -1.0572  -1.0026  -0.9476  -0.9255
    -0.8286  -0.7026  -0.6182  -0.5101  -0.2797  -0.2752  -0.1087  -0.1076
    -0.0124   0.0061   0.0272   0.0549   0.1159   0.3663   0.4285   0.5147
     3.1485   3.1518   3.3289   3.3332   3.3907   3.4327   3.4736   3.5762
     3.6061   3.6230   3.6799   3.6830   3.7518   3.7546   3.8450   3.9080
     4.0840   4.1085   4.2307   4.2745   4.3112   4.3135   4.4245   4.4960
     4.5763   4.5985   4.6527   4.7028   4.7368

          k = 0.3333 0.7325 0.0000 (113872 PWs)   bands (ev):

   -56.0662 -56.0661 -55.9214 -55.9166 -55.8505 -55.8489 -55.8479 -55.8464
   -55.7656 -55.7634 -55.4562 -55.4550 -32.5641 -32.5638 -32.3590 -32.3547
   -32.3282 -32.3276 -32.3173 -32.3157 -32.3084 -32.3064 -32.2853 -32.2845
   -32.2597 -32.2572 -32.1928 -32.1914 -32.1237 -32.1185 -32.1122 -32.1093
   -32.0802 -32.0768 -32.0579 -32.0570 -32.0408 -32.0391 -32.0097 -32.0080
   -31.9837 -31.9812 -31.9238 -31.9221 -31.7225 -31.7211 -31.6926 -31.6910
   -16.2099 -16.2075 -16.1715 -16.1255 -15.9776 -15.9744 -15.9212 -15.9184
   -15.8660 -15.8347 -15.7853 -15.7723 -15.7010 -15.6964 -15.6712 -15.6638
   -15.6017 -15.5887 -15.5372 -15.5214 -15.4080 -15.4052 -15.0847 -15.0828
    -3.7020  -3.6865  -3.6564  -3.6478  -3.5509  -3.5479  -3.5374  -3.5138
    -3.4641  -3.4087  -3.3477  -3.3446  -3.3027  -3.2992  -3.2549  -3.2267
    -3.2041  -3.1579  -3.1297  -3.1042  -3.1006  -3.0374  -2.9745  -2.9692
    -2.7573  -2.6796  -2.5369  -2.4997  -2.4559  -2.4509  -2.3456  -2.3232
    -2.1232  -2.1041  -1.9970  -1.9674  -1.8955  -1.7702  -1.6895  -1.6029
    -1.5335  -1.5153  -1.4214  -1.4126  -1.3221  -1.2944  -1.2623  -1.2477
    -1.2130  -1.1818  -1.0767  -1.0281  -0.9999  -0.8800  -0.7647  -0.7578
    -0.7141  -0.6651  -0.5012  -0.4830  -0.4458  -0.4001  -0.3295  -0.3038
    -0.2448  -0.1766  -0.0430   0.0214   0.0927   0.1394   0.1556   0.1731
     3.1159   3.1394   3.1768   3.2483   3.2658   3.3132   3.5634   3.6732
     3.6828   3.7448   3.8450   3.8847   3.9201   3.9604   4.0387   4.0659
     4.0908   4.1297   4.1429   4.1673   4.2918   4.3621   4.4412   4.4663
     4.5367   4.5393   4.6687   4.7089   4.8020

          k = 0.3333-1.0988 0.0000 (113996 PWs)   bands (ev):

   -56.0561 -56.0561 -55.9116 -55.9068 -55.8390 -55.8389 -55.8383 -55.8379
   -55.7560 -55.7537 -55.4457 -55.4445 -32.6723 -32.6720 -32.4631 -32.4587
   -32.4229 -32.4222 -32.4155 -32.4148 -32.3495 -32.3477 -32.2847 -32.2846
   -32.2688 -32.2656 -32.2211 -32.2207 -32.1026 -32.0978 -32.0879 -32.0865
   -32.0536 -32.0534 -32.0496 -32.0478 -32.0476 -32.0472 -32.0331 -32.0322
   -31.9847 -31.9829 -31.9603 -31.9577 -31.7142 -31.7128 -31.6739 -31.6722
   -16.2225 -16.2205 -16.0045 -15.9997 -15.9936 -15.9920 -15.9443 -15.9416
   -15.9023 -15.8992 -15.7943 -15.7554 -15.5414 -15.5376 -15.5196 -15.5151
   -15.4511 -15.4493 -15.4442 -15.4394 -15.3972 -15.3890 -14.9387 -14.9367
    -4.0235  -4.0136  -4.0076  -3.9422  -3.8763  -3.8300  -3.7076  -3.7048
    -3.7020  -3.6470  -3.4808  -3.2769  -3.2615  -3.2302  -3.1083  -3.0961
    -3.0612  -3.0599  -3.0549  -2.9810  -2.8512  -2.8510  -2.8480  -2.8437
    -2.6917  -2.6617  -2.4070  -2.3524  -2.3440  -2.2155  -2.1317  -2.0546
    -2.0426  -2.0394  -1.9775  -1.7908  -1.7741  -1.7646  -1.7627  -1.7303
    -1.6650  -1.6453  -1.6376  -1.5804  -1.4199  -1.4012  -1.1843  -1.0821
    -1.0728  -1.0248  -0.9881  -0.9033  -0.8003  -0.7499  -0.6578  -0.6275
    -0.6054  -0.5850  -0.5607  -0.5002  -0.4763  -0.4698  -0.4624  -0.3829
    -0.3377  -0.2841  -0.2745  -0.2276  -0.2267   0.0128   0.0678   0.1034
     3.0902   3.1015   3.1635   3.2246   3.3041   3.4399   3.4465   3.5164
     3.6812   3.7606   3.9578   3.9583   3.9929   4.0930   4.1170   4.1699
     4.2104   4.2125   4.2225   4.2395   4.3074   4.3115   4.4621   4.4645
     4.4777   4.6333   4.7745   4.7833   4.7995

     the Fermi energy is     1.8802 ev

!    total energy              =   -2155.90209589 Ry
     estimated scf accuracy    <          9.8E-09 Ry
     smearing contrib. (-TS)   =      -0.00000000 Ry
     internal energy E=F+TS    =   -2155.90209589 Ry

     The total energy is F=E-TS. E is the sum of the following terms:
     one-electron contribution =  -45927.56762481 Ry
     hartree contribution      =   23012.90151008 Ry
     xc contribution           =    -340.13436024 Ry
     ewald contribution        =   21098.89837908 Ry

     convergence has been achieved in   7 iterations

     Forces acting on atoms (cartesian axes, Ry/au):

     atom    1 type  1   force =     0.00000000    0.00000000   -0.00063675
     atom    2 type  1   force =     0.00000000    0.00000000    0.00033107
     atom    3 type  1   force =     0.00000000    0.00000000   -0.00046091
     atom    4 type  1   force =     0.00000000    0.00000000   -0.00025962
     atom    5 type  1   force =     0.00000000    0.00000000    0.00029214
     atom    6 type  1   force =     0.00000000    0.00000000    0.00015663
     atom    7 type  1   force =     0.00000000    0.00000000   -0.00048827
     atom    8 type  1   force =     0.00000000    0.00000000   -0.00027693
     atom    9 type  1   force =     0.00000000    0.00000000    0.00017235
     atom   10 type  1   force =     0.00000000    0.00000000    0.00004744
     atom   11 type  1   force =     0.00000000    0.00000000    0.00007119
     atom   12 type  1   force =     0.00000000    0.00000000   -0.00025057
     atom   13 type  2   force =     0.00000000    0.00000000    0.00036931
     atom   14 type  2   force =     0.00000000    0.00000000    0.00024058
     atom   15 type  2   force =     0.00000000    0.00000000    0.00010726
     atom   16 type  2   force =     0.00025655    0.00000000   -0.00102716
     atom   17 type  2   force =    -0.00025655    0.00000000   -0.00102716
     atom   18 type  2   force =     0.00000000    0.00000000   -0.00004749
     atom   19 type  2   force =     0.00000000    0.00000000   -0.00007054
     atom   20 type  2   force =     0.00008812    0.00000000   -0.00014850
     atom   21 type  2   force =    -0.00008812    0.00000000   -0.00014850
     atom   22 type  2   force =     0.00000000    0.00000000    0.00009577
     atom   23 type  2   force =     0.00000000    0.00000000   -0.00011310
     atom   24 type  2   force =     0.00006128    0.00000000    0.00044270
     atom   25 type  2   force =    -0.00006128    0.00000000    0.00044270
     atom   26 type  2   force =     0.00000000    0.00000000   -0.00024313
     atom   27 type  2   force =     0.00000000    0.00000000    0.00004488
     atom   28 type  2   force =     0.00002633    0.00000000   -0.00032266
     atom   29 type  2   force =    -0.00002633    0.00000000   -0.00032266
     atom   30 type  2   force =     0.00000000    0.00000000   -0.00004448
     atom   31 type  2   force =     0.00000000    0.00000000   -0.00012748
     atom   32 type  2   force =    -0.00012574    0.00000000    0.00098044
     atom   33 type  2   force =     0.00012574    0.00000000    0.00098044
     atom   34 type  2   force =     0.00000000    0.00000000   -0.00005244
     atom   35 type  2   force =     0.00018503    0.00000000    0.00064672
     atom   36 type  2   force =    -0.00018503    0.00000000    0.00064672

     Total force =     0.002721     Total SCF correction =     0.000566
     SCF correction compared to forces is large: reduce conv_thr to get better values


     Computing stress (Cartesian axis) and pressure

          total   stress  (Ry/bohr**3)                   (kbar)     P=        0.13
   0.00000065   0.00000000   0.00000000            0.10        0.00        0.00
   0.00000000   0.00000003   0.00000000            0.00        0.00        0.00
   0.00000000   0.00000000   0.00000193            0.00        0.00        0.28

     Energy error            =      1.2E-05 Ry
     Gradient error          =      1.0E-03 Ry/Bohr
     Cell gradient error     =      9.5E-02 kbar

     number of scf cycles    =   3
     number of bfgs steps    =   2

     enthalpy           old  =   -2155.9020842335 Ry
     enthalpy           new  =   -2155.9020958921 Ry

     CASE: enthalpy          _new < enthalpy          _old

     new trust radius        =       0.0022961308 bohr
     new conv_thr            =       0.0000000100 Ry

     new unit-cell volume =   5130.31925 a.u.^3 (   760.23488 Ang^3 )
     density =      2.09334 g/cm^3

CELL_PARAMETERS (angstrom)
   6.517320505   0.000000000   0.000000000
   0.000000000   2.965503068   0.000000000
   0.000000000   0.000000000  39.335106809

ATOMIC_POSITIONS (angstrom)
Ti            3.2586600582        0.0000000000       11.5697646609
Ti            0.0000000000        1.4827514463       11.0671302020
Ti            0.0000000000        0.0000000000       14.4052425752
Ti            3.2586600582        1.4827514463       14.8134771950
Ti            3.2586600582        0.0000000000       18.2036779513
Ti            0.0000000000        1.4827514463       17.8613323716
Ti            0.0000000000        0.0000000000       21.1342334976
Ti            3.2586600582        1.4827514463       21.4761347790
Ti            3.2586600582        0.0000000000       24.9300408785
Ti            0.0000000000        1.4827514463       24.5256792520
Ti            0.0000000000        0.0000000000       27.7714666763
Ti            3.2586600582        1.4827514463       28.2696677278
O             0.0000000000        0.0000000000       10.0018962326
O             3.2586600582        0.0000000000       13.3677630650
O             0.0000000000        0.0000000000       12.5838918179
O             2.0300988019        1.4827514463       11.2024189680
O             4.4872215091        1.4827514463       11.2024189680
O             0.0000000000        0.0000000000       16.7023416968
O             3.2586600582        0.0000000000       15.9567879177
O             5.2337808409        1.4827515345       14.6242609415
O             1.2835396636        1.4827515345       14.6242609415
O             3.2586600582        0.0000000000       20.0551882846
O             0.0000000000        0.0000000000       19.2824441390
O             1.9902058761        1.4827514463       18.0090388821
O             4.5271144348        1.4827514463       18.0090388821
O             0.0000000000        0.0000000000       23.3821939577
O             3.2586600582        0.0000000000       22.6349274742
O             5.2488994071        1.4827515345       21.3288644046
O             1.2684210974        1.4827515345       21.3288644046
O             3.2586600582        0.0000000000       26.7518981552
O             0.0000000000        0.0000000000       25.9722131757
O             1.9755599354        1.4827514463       24.7100804350
O             4.5417603756        1.4827514463       24.7100804350
O             3.2586600582        0.0000000000       29.3345927418
O             5.2891767589        1.4827515345       28.1399692327
O             1.2281437457        1.4827515345       28.1399692327



     Writing config-only to output data dir ./Out/pwscf.save/
     NEW-OLD atomic charge density approx. for the potential

     negative rho (up, down):  3.872E-06 0.000E+00
     extrapolated charge  288.00593, renormalised to  288.00000

     total cpu time spent up to now is      443.0 secs

     per-process dynamical memory:   262.1 Mb

     Self-consistent Calculation

     iteration #  1     ecut=   120.00 Ry     beta= 0.40
     Davidson diagonalization with overlap
     ethr =  1.00E-06,  avg # of iterations =  3.0

     Threshold (ethr) on eigenvalues was too large:
     Diagonalizing with lowered threshold

     Davidson diagonalization with overlap
     ethr =  3.72E-08,  avg # of iterations =  2.0

     negative rho (up, down):  2.222E-06 0.000E+00

     total cpu time spent up to now is      465.0 secs

     total energy              =   -2155.90201651 Ry
     estimated scf accuracy    <       0.00011913 Ry

     iteration #  2     ecut=   120.00 Ry     beta= 0.40
     Davidson diagonalization with overlap
     ethr =  4.14E-08,  avg # of iterations =  6.8

     negative rho (up, down):  1.965E-06 0.000E+00

     total cpu time spent up to now is      478.9 secs

     total energy              =   -2155.90205820 Ry
     estimated scf accuracy    <       0.00086941 Ry

     iteration #  3     ecut=   120.00 Ry     beta= 0.40
     Davidson diagonalization with overlap
     ethr =  4.14E-08,  avg # of iterations =  5.2

     negative rho (up, down):  1.538E-06 0.000E+00

     total cpu time spent up to now is      490.6 secs

     total energy              =   -2155.90210523 Ry
     estimated scf accuracy    <       0.00006836 Ry

     iteration #  4     ecut=   120.00 Ry     beta= 0.40
     Davidson diagonalization with overlap
     ethr =  2.37E-08,  avg # of iterations =  3.0

     negative rho (up, down):  9.933E-07 0.000E+00

     total cpu time spent up to now is      500.2 secs

     total energy              =   -2155.90210517 Ry
     estimated scf accuracy    <       0.00001956 Ry

     iteration #  5     ecut=   120.00 Ry     beta= 0.40
     Davidson diagonalization with overlap
     ethr =  6.79E-09,  avg # of iterations =  5.4

     negative rho (up, down):  7.691E-07 0.000E+00

     total cpu time spent up to now is      511.3 secs

     total energy              =   -2155.90210856 Ry
     estimated scf accuracy    <       0.00000051 Ry

     iteration #  6     ecut=   120.00 Ry     beta= 0.40
     Davidson diagonalization with overlap
     ethr =  1.78E-10,  avg # of iterations =  6.4

     negative rho (up, down):  3.818E-07 0.000E+00

     total cpu time spent up to now is      525.3 secs

     total energy              =   -2155.90210890 Ry
     estimated scf accuracy    <       0.00000020 Ry

     iteration #  7     ecut=   120.00 Ry     beta= 0.40
     Davidson diagonalization with overlap
     ethr =  7.10E-11,  avg # of iterations =  5.4

     negative rho (up, down):  2.247E-07 0.000E+00

     total cpu time spent up to now is      537.0 secs

     total energy              =   -2155.90210878 Ry
     estimated scf accuracy    <       0.00000054 Ry

     iteration #  8     ecut=   120.00 Ry     beta= 0.40
     Davidson diagonalization with overlap
     ethr =  7.10E-11,  avg # of iterations =  5.4

     negative rho (up, down):  1.033E-07 0.000E+00

     total cpu time spent up to now is      548.9 secs

     total energy              =   -2155.90210890 Ry
     estimated scf accuracy    <       0.00000006 Ry

     iteration #  9     ecut=   120.00 Ry     beta= 0.40
     Davidson diagonalization with overlap
     ethr =  2.01E-11,  avg # of iterations =  2.8

     negative rho (up, down):  4.132E-08 0.000E+00

     total cpu time spent up to now is      558.5 secs

     total energy              =   -2155.90210889 Ry
     estimated scf accuracy    <       0.00000008 Ry

     iteration # 10     ecut=   120.00 Ry     beta= 0.40
     Davidson diagonalization with overlap
     ethr =  2.01E-11,  avg # of iterations =  2.0

     negative rho (up, down):  1.556E-08 0.000E+00

     total cpu time spent up to now is      567.8 secs

     total energy              =   -2155.90210889 Ry
     estimated scf accuracy    <       0.00000002 Ry

     iteration # 11     ecut=   120.00 Ry     beta= 0.40
     Davidson diagonalization with overlap
     ethr =  5.73E-12,  avg # of iterations =  5.1

     total cpu time spent up to now is      578.6 secs

     End of self-consistent calculation

          k = 0.0000 0.0000 0.0000 (113903 PWs)   bands (ev):

   -56.0979 -56.0956 -55.9506 -55.9476 -55.8840 -55.8799 -55.8762 -55.8722
   -55.7945 -55.7935 -55.4877 -55.4875 -32.4143 -32.4122 -32.3032 -32.3012
   -32.2881 -32.2873 -32.2153 -32.2127 -32.2046 -32.2014 -32.1960 -32.1895
   -32.1875 -32.1794 -32.0975 -32.0921 -32.0378 -32.0357 -32.0344 -32.0343
   -32.0330 -32.0329 -32.0223 -32.0196 -31.9836 -31.9759 -31.9671 -31.9595
   -31.9033 -31.9022 -31.7713 -31.7712 -31.7413 -31.7413 -31.5505 -31.5503
   -17.0908 -17.0176 -16.8130 -16.6596 -16.5814 -16.5248 -16.4223 -16.3580
   -16.1209 -15.9830 -15.8283 -15.8263 -15.7650 -15.7618 -15.4390 -15.4008
   -15.3913 -15.3876 -15.3671 -15.3497 -15.3380 -15.3108 -15.0407 -15.0399
    -4.6483  -4.5623  -4.4749  -4.4633  -4.4353  -4.4340  -4.3615  -4.2972
    -3.9983  -3.9753  -3.6958  -3.5130  -3.2636  -3.2141  -3.2106  -3.0840
    -3.0771  -2.7600  -2.7545  -2.7306  -2.7252  -2.7047  -2.6799  -2.6789
    -2.6316  -2.6310  -2.4321  -2.4308  -2.3255  -2.2568  -2.1771  -1.8849
    -1.8053  -1.7148  -1.6747  -1.5627  -1.5447  -1.5432  -1.4790  -1.4724
    -1.3326  -1.2736  -1.1892  -1.1662  -1.0757  -1.0749  -0.9356  -0.8118
    -0.7864  -0.7773  -0.7411  -0.7082  -0.6776  -0.6653  -0.4146  -0.3936
    -0.3883  -0.3752  -0.1350  -0.1285  -0.1084  -0.1060  -0.0837  -0.0762
    -0.0526  -0.0484   0.3540   0.3974   0.4286   0.5787   0.7272   0.8604
     2.9262   2.9358   2.9741   3.0180   3.0487   3.0503   3.3363   3.3729
     3.3773   3.3798   3.5531   3.5670   3.5692   3.6246   3.6431   3.6950
     3.8703   3.8703   3.8766   3.8859   4.0016   4.1311   4.1857   4.2892
     4.3362   4.4818   4.5664   4.5687   4.6191

          k = 0.0000 0.3663 0.0000 (113949 PWs)   bands (ev):

   -56.0879 -56.0856 -55.9409 -55.9379 -55.8734 -55.8698 -55.8666 -55.8632
   -55.7850 -55.7839 -55.4773 -55.4771 -32.3907 -32.3885 -32.3409 -32.3390
   -32.2885 -32.2865 -32.2686 -32.2685 -32.1784 -32.1752 -32.1675 -32.1635
   -32.1617 -32.1559 -32.1331 -32.1305 -32.1161 -32.1141 -32.0866 -32.0790
   -32.0574 -32.0562 -32.0322 -32.0290 -32.0279 -32.0266 -32.0175 -32.0166
   -32.0086 -32.0074 -31.7630 -31.7630 -31.7350 -31.7350 -31.6616 -31.6613
   -16.8292 -16.7669 -16.5831 -16.4433 -16.3666 -16.3143 -16.2224 -16.1719
   -15.9746 -15.8695 -15.8220 -15.8143 -15.6429 -15.6415 -15.5288 -15.5029
   -15.4908 -15.4838 -15.4726 -15.4522 -15.4414 -15.4226 -15.1025 -15.1019
    -4.2875  -4.2320  -4.1760  -4.1608  -4.1166  -4.1151  -4.0819  -4.0149
    -3.7238  -3.7023  -3.4678  -3.4353  -3.3985  -3.3798  -3.2843  -3.2668
    -3.2617  -3.2208  -3.1853  -3.0756  -3.0739  -2.9994  -2.9666  -2.9032
    -2.6853  -2.5376  -2.4620  -2.1074  -2.1008  -2.0202  -1.9031  -1.7752
    -1.6389  -1.5946  -1.5926  -1.4931  -1.4854  -1.4195  -1.3388  -1.3216
    -1.2939  -1.2450  -1.1468  -1.1270  -1.1053  -1.0758  -1.0549  -1.0307
    -1.0016  -0.9915  -0.9753  -0.9654  -0.8863  -0.8730  -0.7569  -0.6670
    -0.6434  -0.5327  -0.4699  -0.4437  -0.4134  -0.3580  -0.3268  -0.2822
    -0.0941  -0.0733  -0.0524  -0.0347  -0.0301   0.5017   0.5831   0.6943
     3.0406   3.0420   3.1747   3.2640   3.2751   3.2775   3.3012   3.3020
     3.3513   3.4192   3.4605   3.6799   3.6985   3.7317   3.7586   3.8196
     4.0361   4.0803   4.1126   4.1492   4.2552   4.2832   4.3098   4.3446
     4.4327   4.4616   4.4673   4.5047   4.7419

          k = 0.0000 0.7325 0.0000 (113958 PWs)   bands (ev):

   -56.0678 -56.0655 -55.9213 -55.9183 -55.8516 -55.8494 -55.8476 -55.8456
   -55.7658 -55.7647 -55.4563 -55.4562 -32.5652 -32.5624 -32.3565 -32.3540
   -32.3283 -32.3267 -32.3168 -32.3150 -32.3014 -32.2995 -32.2602 -32.2591
   -32.2586 -32.2581 -32.2235 -32.2225 -32.1247 -32.1215 -32.1135 -32.1082
   -32.1045 -32.1009 -32.0588 -32.0563 -32.0263 -32.0249 -32.0107 -32.0093
   -31.9801 -31.9793 -31.9248 -31.9246 -31.7230 -31.7230 -31.6928 -31.6927
   -16.2435 -16.2314 -16.2065 -16.1484 -15.9448 -15.9254 -15.9243 -15.8475
   -15.8316 -15.8303 -15.7135 -15.7004 -15.6956 -15.6923 -15.6817 -15.6628
   -15.6477 -15.6418 -15.5806 -15.5579 -15.4141 -15.4113 -15.0848 -15.0845
    -3.7418  -3.6863  -3.6775  -3.6594  -3.6496  -3.6403  -3.5956  -3.5589
    -3.5034  -3.4996  -3.4290  -3.4117  -3.3911  -3.3773  -3.3364  -3.3300
    -3.2561  -3.2462  -3.2360  -3.1654  -3.1252  -3.0863  -3.0590  -2.8778
    -2.7231  -2.5372  -2.5232  -2.4631  -2.4121  -2.3625  -2.3229  -2.2779
    -2.2730  -2.2491  -2.0730  -2.0275  -2.0146  -1.6964  -1.6444  -1.5178
    -1.4542  -1.4176  -1.3744  -1.1995  -1.1697  -1.1653  -1.1039  -1.0793
    -1.0586  -1.0047  -0.9826  -0.9370  -0.8665  -0.7456  -0.7290  -0.7235
    -0.7225  -0.5253  -0.4695  -0.4657  -0.4655  -0.4005  -0.3866  -0.3831
    -0.1779  -0.1664  -0.1559  -0.1321  -0.0479   0.0103   0.0624   0.1344
     3.3474   3.3857   3.3982   3.4028   3.4736   3.5240   3.6404   3.6654
     3.7059   3.7336   3.8443   3.8532   3.8596   3.8824   3.9703   3.9839
     4.0248   4.0513   4.0566   4.1787   4.2406   4.3339   4.4663   4.5035
     4.5271   4.5590   4.5781   4.5822   4.6028

          k = 0.0000-1.0988 0.0000 (113876 PWs)   bands (ev):

   -56.0577 -56.0554 -55.9115 -55.9085 -55.8390 -55.8388 -55.8385 -55.8384
   -55.7561 -55.7551 -55.4459 -55.4457 -32.6734 -32.6705 -32.4604 -32.4578
   -32.4225 -32.4214 -32.4094 -32.4081 -32.3274 -32.3263 -32.2853 -32.2829
   -32.2682 -32.2669 -32.2466 -32.2444 -32.0972 -32.0940 -32.0891 -32.0864
   -32.0610 -32.0604 -32.0552 -32.0547 -32.0482 -32.0474 -32.0347 -32.0331
   -31.9856 -31.9845 -31.9606 -31.9598 -31.7174 -31.7174 -31.6738 -31.6738
   -16.2255 -16.2207 -15.9091 -15.9043 -15.8214 -15.8129 -15.7944 -15.7850
   -15.7713 -15.7509 -15.7480 -15.7354 -15.7244 -15.7227 -15.6975 -15.6804
   -15.6556 -15.6278 -15.5185 -15.5109 -15.4002 -15.3840 -14.9390 -14.9385
    -4.0900  -3.9881  -3.7439  -3.6841  -3.6671  -3.6213  -3.5719  -3.5450
    -3.4894  -3.4141  -3.3948  -3.3573  -3.2518  -3.2371  -3.2271  -3.2243
    -3.2197  -3.1284  -3.0812  -3.0631  -3.0589  -3.0275  -2.9433  -2.8610
    -2.8389  -2.7006  -2.6157  -2.5906  -2.4403  -2.4316  -2.4178  -2.4145
    -2.0613  -1.9736  -1.8326  -1.8284  -1.7842  -1.7839  -1.7486  -1.7291
    -1.7248  -1.6414  -1.5829  -1.4640  -1.4567  -1.3879  -1.3686  -1.3245
    -1.1626  -1.0668  -1.0092  -0.9761  -0.9154  -0.7895  -0.7090  -0.6459
    -0.6227  -0.5711  -0.4501  -0.3668  -0.2772  -0.2740  -0.2666  -0.2459
    -0.2458  -0.2450  -0.2261  -0.2089  -0.1159  -0.0783  -0.0585   0.0849
     3.1024   3.3871   3.6204   3.6289   3.6494   3.8230   3.8876   3.8901
     3.9029   3.9446   3.9879   3.9915   4.0851   4.0908   4.0943   4.1886
     4.2067   4.2451   4.2477   4.2493   4.2708   4.3139   4.3140   4.3702
     4.3807   4.4405   4.4407   4.4649   4.5685

          k = 0.3333 0.0000 0.0000 (113895 PWs)   bands (ev):

   -56.0979 -56.0956 -55.9506 -55.9476 -55.8821 -55.8786 -55.8775 -55.8741
   -55.7946 -55.7935 -55.4877 -55.4875 -32.4145 -32.4124 -32.2884 -32.2878
   -32.2871 -32.2852 -32.2151 -32.2126 -32.1972 -32.1940 -32.1872 -32.1821
   -32.1606 -32.1533 -32.0965 -32.0959 -32.0713 -32.0684 -32.0525 -32.0518
   -32.0338 -32.0324 -32.0222 -32.0196 -31.9799 -31.9740 -31.9690 -31.9632
   -31.9035 -31.9023 -31.7712 -31.7711 -31.7495 -31.7494 -31.5506 -31.5503
   -16.9423 -16.8882 -16.6563 -16.5262 -16.4854 -16.4458 -16.3834 -16.3379
   -16.2230 -16.0662 -15.9575 -15.9549 -15.7582 -15.7533 -15.5155 -15.5114
   -15.4808 -15.4537 -15.4314 -15.4170 -15.3996 -15.3773 -15.0368 -15.0363
    -4.4795  -4.4349  -4.1628  -4.0862  -4.0412  -4.0346  -4.0265  -4.0158
    -3.9436  -3.9267  -3.3515  -3.2490  -3.2177  -3.1238  -3.0860  -3.0792
    -2.9304  -2.7560  -2.7470  -2.6751  -2.6587  -2.6208  -2.6198  -2.5628
    -2.5625  -2.5612  -2.5500  -2.4544  -2.4316  -2.4305  -2.3370  -2.1784
    -2.0840  -2.0042  -1.8982  -1.8696  -1.7606  -1.7485  -1.6722  -1.5364
    -1.4920  -1.4300  -1.3761  -1.1965  -1.1373  -1.1298  -1.1214  -0.9599
    -0.8451  -0.8422  -0.7752  -0.7249  -0.7024  -0.6606  -0.6545  -0.6243
    -0.5568  -0.4966  -0.3502  -0.3315  -0.2612  -0.1915  -0.1875  -0.1842
    -0.1373  -0.1118  -0.0078  -0.0016   0.0474   0.3908   0.4826   0.6035
     3.2810   3.2916   3.3581   3.3834   3.4156   3.4317   3.4667   3.4675
     3.6127   3.6350   3.6390   3.6409   3.7161   3.7226   3.8378   3.8455
     3.9147   3.9667   4.1057   4.1140   4.1724   4.3204   4.3262   4.5112
     4.5210   4.5284   4.5553   4.5909   4.6048

          k = 0.3333 0.3663 0.0000 (113817 PWs)   bands (ev):

   -56.0879 -56.0856 -55.9409 -55.9379 -55.8717 -55.8687 -55.8678 -55.8648
   -55.7850 -55.7839 -55.4773 -55.4771 -32.3907 -32.3885 -32.3412 -32.3393
   -32.2794 -32.2773 -32.2689 -32.2688 -32.1728 -32.1696 -32.1627 -32.1581
   -32.1416 -32.1385 -32.1343 -32.1316 -32.1162 -32.1102 -32.0936 -32.0899
   -32.0584 -32.0578 -32.0471 -32.0463 -32.0311 -32.0303 -32.0255 -32.0243
   -32.0067 -32.0055 -31.7631 -31.7631 -31.7398 -31.7398 -31.6614 -31.6611
   -16.7014 -16.6573 -16.4476 -16.3124 -16.2914 -16.2461 -16.1839 -16.1499
   -16.0530 -15.9275 -15.8249 -15.8156 -15.7924 -15.7909 -15.6088 -15.6016
   -15.5649 -15.5484 -15.5182 -15.4909 -15.4538 -15.4495 -15.0980 -15.0974
    -4.1598  -4.1344  -3.8521  -3.8010  -3.7510  -3.7391  -3.7131  -3.7052
    -3.6424  -3.6354  -3.4418  -3.4362  -3.3023  -3.2876  -3.2452  -3.2410
    -3.1594  -3.1567  -3.0699  -2.9759  -2.9330  -2.9243  -2.7925  -2.7610
    -2.6610  -2.5462  -2.3772  -2.1761  -2.1043  -2.0612  -1.9842  -1.9452
    -1.9146  -1.8742  -1.8321  -1.7463  -1.7354  -1.7210  -1.6779  -1.6221
    -1.5192  -1.4377  -1.4296  -1.3533  -1.2954  -1.2951  -1.2768  -1.2555
    -1.2278  -1.1479  -1.1172  -1.0958  -1.0578  -1.0027  -0.9481  -0.9262
    -0.8290  -0.7034  -0.6190  -0.5107  -0.2800  -0.2768  -0.1091  -0.1086
    -0.0133   0.0054   0.0264   0.0542   0.1152   0.3652   0.4273   0.5140
     3.1482   3.1500   3.3280   3.3330   3.3906   3.4323   3.4733   3.5763
     3.6057   3.6223   3.6792   3.6826   3.7514   3.7550   3.8450   3.9082
     4.0834   4.1076   4.2299   4.2733   4.3108   4.3126   4.4240   4.4955
     4.5757   4.5976   4.6520   4.7023   4.7371

          k = 0.3333 0.7325 0.0000 (113872 PWs)   bands (ev):

   -56.0678 -56.0655 -55.9213 -55.9183 -55.8506 -55.8488 -55.8483 -55.8466
   -55.7658 -55.7647 -55.4564 -55.4562 -32.5655 -32.5627 -32.3589 -32.3564
   -32.3290 -32.3275 -32.3175 -32.3157 -32.3088 -32.3067 -32.2863 -32.2846
   -32.2590 -32.2585 -32.1935 -32.1920 -32.1237 -32.1204 -32.1126 -32.1097
   -32.0804 -32.0769 -32.0581 -32.0571 -32.0410 -32.0392 -32.0104 -32.0091
   -31.9835 -31.9828 -31.9240 -31.9238 -31.7224 -31.7224 -31.6927 -31.6926
   -16.2111 -16.2072 -16.1714 -16.1249 -15.9778 -15.9745 -15.9208 -15.9192
   -15.8663 -15.8350 -15.7859 -15.7728 -15.7012 -15.6975 -15.6718 -15.6645
   -15.6020 -15.5891 -15.5378 -15.5220 -15.4093 -15.4074 -15.0849 -15.0845
    -3.7018  -3.6861  -3.6564  -3.6476  -3.5520  -3.5477  -3.5376  -3.5141
    -3.4643  -3.4087  -3.3482  -3.3455  -3.3024  -3.2998  -3.2551  -3.2269
    -3.2044  -3.1581  -3.1307  -3.1054  -3.1013  -3.0379  -2.9754  -2.9698
    -2.7578  -2.6803  -2.5377  -2.5004  -2.4561  -2.4520  -2.3460  -2.3237
    -2.1240  -2.1048  -1.9973  -1.9675  -1.8957  -1.7705  -1.6901  -1.6034
    -1.5336  -1.5157  -1.4219  -1.4125  -1.3226  -1.2945  -1.2626  -1.2482
    -1.2132  -1.1829  -1.0773  -1.0285  -1.0005  -0.8800  -0.7648  -0.7586
    -0.7152  -0.6658  -0.5017  -0.4835  -0.4466  -0.4007  -0.3303  -0.3048
    -0.2457  -0.1771  -0.0439   0.0203   0.0921   0.1388   0.1546   0.1726
     3.1157   3.1390   3.1764   3.2475   3.2645   3.3129   3.5629   3.6726
     3.6822   3.7442   3.8447   3.8842   3.9195   3.9601   4.0383   4.0654
     4.0905   4.1294   4.1425   4.1670   4.2912   4.3616   4.4409   4.4661
     4.5360   4.5386   4.6684   4.7088   4.8001

          k = 0.3333-1.0988 0.0000 (113996 PWs)   bands (ev):

   -56.0577 -56.0554 -55.9115 -55.9085 -55.8390 -55.8388 -55.8385 -55.8384
   -55.7561 -55.7551 -55.4459 -55.4457 -32.6738 -32.6709 -32.4631 -32.4604
   -32.4232 -32.4223 -32.4159 -32.4152 -32.3499 -32.3487 -32.2862 -32.2837
   -32.2681 -32.2669 -32.2225 -32.2205 -32.1026 -32.0997 -32.0884 -32.0871
   -32.0536 -32.0532 -32.0497 -32.0496 -32.0479 -32.0471 -32.0335 -32.0326
   -31.9853 -31.9842 -31.9601 -31.9594 -31.7141 -31.7140 -31.6739 -31.6739
   -16.2237 -16.2192 -16.0045 -15.9997 -15.9938 -15.9930 -15.9433 -15.9424
   -15.9033 -15.9000 -15.7941 -15.7552 -15.5412 -15.5394 -15.5209 -15.5169
   -15.4510 -15.4498 -15.4445 -15.4396 -15.3983 -15.3902 -14.9389 -14.9385
    -4.0236  -4.0139  -4.0076  -3.9419  -3.8768  -3.8304  -3.7084  -3.7039
    -3.7035  -3.6478  -3.4815  -3.2770  -3.2611  -3.2320  -3.1088  -3.0960
    -3.0620  -3.0599  -3.0557  -2.9812  -2.8521  -2.8507  -2.8490  -2.8436
    -2.6920  -2.6616  -2.4068  -2.3524  -2.3446  -2.2155  -2.1319  -2.0555
    -2.0427  -2.0398  -1.9785  -1.7912  -1.7747  -1.7652  -1.7629  -1.7307
    -1.6654  -1.6463  -1.6378  -1.5812  -1.4203  -1.4016  -1.1846  -1.0828
    -1.0729  -1.0257  -0.9882  -0.9031  -0.8003  -0.7501  -0.6583  -0.6278
    -0.6067  -0.5868  -0.5621  -0.5005  -0.4765  -0.4710  -0.4633  -0.3833
    -0.3385  -0.2851  -0.2749  -0.2282  -0.2273   0.0122   0.0670   0.1029
     3.0898   3.1011   3.1630   3.2243   3.3038   3.4396   3.4457   3.5159
     3.6804   3.7600   3.9567   3.9595   3.9915   4.0918   4.1157   4.1688
     4.2102   4.2123   4.2225   4.2394   4.3078   4.3102   4.4621   4.4625
     4.4777   4.6328   4.7748   4.7831   4.7984

     the Fermi energy is     1.8799 ev

!    total energy              =   -2155.90210889 Ry
     estimated scf accuracy    <          5.2E-10 Ry
     smearing contrib. (-TS)   =      -0.00000000 Ry
     internal energy E=F+TS    =   -2155.90210889 Ry

     The total energy is F=E-TS. E is the sum of the following terms:
     one-electron contribution =  -45924.63123735 Ry
     hartree contribution      =   23011.42156317 Ry
     xc contribution           =    -340.13436588 Ry
     ewald contribution        =   21097.44193118 Ry

     convergence has been achieved in  11 iterations

     Forces acting on atoms (cartesian axes, Ry/au):

     atom    1 type  1   force =     0.00000000    0.00000000   -0.00064120
     atom    2 type  1   force =     0.00000000    0.00000000    0.00028750
     atom    3 type  1   force =     0.00000000    0.00000000   -0.00023120
     atom    4 type  1   force =     0.00000000    0.00000000   -0.00018551
     atom    5 type  1   force =     0.00000000    0.00000000    0.00019028
     atom    6 type  1   force =     0.00000000    0.00000000    0.00015595
     atom    7 type  1   force =     0.00000000    0.00000000   -0.00025409
     atom    8 type  1   force =     0.00000000    0.00000000   -0.00015040
     atom    9 type  1   force =     0.00000000    0.00000000    0.00027175
     atom   10 type  1   force =     0.00000000    0.00000000   -0.00011617
     atom   11 type  1   force =     0.00000000    0.00000000   -0.00003580
     atom   12 type  1   force =     0.00000000    0.00000000   -0.00025832
     atom   13 type  2   force =     0.00000000    0.00000000    0.00001769
     atom   14 type  2   force =     0.00000000    0.00000000   -0.00005503
     atom   15 type  2   force =     0.00000000    0.00000000    0.00020025
     atom   16 type  2   force =     0.00006962    0.00000000   -0.00090177
     atom   17 type  2   force =    -0.00006962    0.00000000   -0.00090177
     atom   18 type  2   force =     0.00000000    0.00000000   -0.00032267
     atom   19 type  2   force =     0.00000000    0.00000000   -0.00004162
     atom   20 type  2   force =     0.00006851    0.00000000   -0.00014844
     atom   21 type  2   force =    -0.00006851    0.00000000   -0.00014844
     atom   22 type  2   force =     0.00000000    0.00000000    0.00003006
     atom   23 type  2   force =     0.00000000    0.00000000    0.00010710
     atom   24 type  2   force =     0.00014292    0.00000000    0.00036711
     atom   25 type  2   force =    -0.00014292    0.00000000    0.00036711
     atom   26 type  2   force =     0.00000000    0.00000000   -0.00002381
     atom   27 type  2   force =     0.00000000    0.00000000    0.00021768
     atom   28 type  2   force =     0.00014966    0.00000000   -0.00036129
     atom   29 type  2   force =    -0.00014966    0.00000000   -0.00036129
     atom   30 type  2   force =     0.00000000    0.00000000    0.00022786
     atom   31 type  2   force =     0.00000000    0.00000000    0.00027163
     atom   32 type  2   force =    -0.00013397    0.00000000    0.00070840
     atom   33 type  2   force =     0.00013397    0.00000000    0.00070840
     atom   34 type  2   force =     0.00000000    0.00000000   -0.00000975
     atom   35 type  2   force =     0.00001765    0.00000000    0.00050990
     atom   36 type  2   force =    -0.00001765    0.00000000    0.00050990

     Total force =     0.002255     Total SCF correction =     0.000123


     Computing stress (Cartesian axis) and pressure

          total   stress  (Ry/bohr**3)                   (kbar)     P=        0.13
   0.00000039   0.00000000   0.00000000            0.06        0.00        0.00
   0.00000000   0.00000007   0.00000000            0.00        0.01        0.00
   0.00000000   0.00000000   0.00000220            0.00        0.00        0.32

     Energy error            =      1.3E-05 Ry
     Gradient error          =      9.0E-04 Ry/Bohr
     Cell gradient error     =      5.8E-02 kbar

     bfgs converged in   4 scf cycles and   3 bfgs steps
     (criteria: energy <  1.0E-04 Ry, force <  1.0E-03 Ry/Bohr, cell <  5.0E-01 kbar)

     End of BFGS Geometry Optimization

     Final enthalpy           =   -2155.9021088879 Ry

     File ./Out/pwscf.bfgs deleted, as requested
Begin final coordinates
     new unit-cell volume =   5130.31925 a.u.^3 (   760.23488 Ang^3 )
     density =      2.09334 g/cm^3

CELL_PARAMETERS (angstrom)
   6.517320505   0.000000000   0.000000000
   0.000000000   2.965503068   0.000000000
   0.000000000   0.000000000  39.335106809

ATOMIC_POSITIONS (angstrom)
Ti            3.2586600582        0.0000000000       11.5697646609
Ti            0.0000000000        1.4827514463       11.0671302020
Ti            0.0000000000        0.0000000000       14.4052425752
Ti            3.2586600582        1.4827514463       14.8134771950
Ti            3.2586600582        0.0000000000       18.2036779513
Ti            0.0000000000        1.4827514463       17.8613323716
Ti            0.0000000000        0.0000000000       21.1342334976
Ti            3.2586600582        1.4827514463       21.4761347790
Ti            3.2586600582        0.0000000000       24.9300408785
Ti            0.0000000000        1.4827514463       24.5256792520
Ti            0.0000000000        0.0000000000       27.7714666763
Ti            3.2586600582        1.4827514463       28.2696677278
O             0.0000000000        0.0000000000       10.0018962326
O             3.2586600582        0.0000000000       13.3677630650
O             0.0000000000        0.0000000000       12.5838918179
O             2.0300988019        1.4827514463       11.2024189680
O             4.4872215091        1.4827514463       11.2024189680
O             0.0000000000        0.0000000000       16.7023416968
O             3.2586600582        0.0000000000       15.9567879177
O             5.2337808409        1.4827515345       14.6242609415
O             1.2835396636        1.4827515345       14.6242609415
O             3.2586600582        0.0000000000       20.0551882846
O             0.0000000000        0.0000000000       19.2824441390
O             1.9902058761        1.4827514463       18.0090388821
O             4.5271144348        1.4827514463       18.0090388821
O             0.0000000000        0.0000000000       23.3821939577
O             3.2586600582        0.0000000000       22.6349274742
O             5.2488994071        1.4827515345       21.3288644046
O             1.2684210974        1.4827515345       21.3288644046
O             3.2586600582        0.0000000000       26.7518981552
O             0.0000000000        0.0000000000       25.9722131757
O             1.9755599354        1.4827514463       24.7100804350
O             4.5417603756        1.4827514463       24.7100804350
O             3.2586600582        0.0000000000       29.3345927418
O             5.2891767589        1.4827515345       28.1399692327
O             1.2281437457        1.4827515345       28.1399692327
End final coordinates



     Writing config-only to output data dir ./Out/pwscf.save/

     Final scf calculation at the relaxed structure.
     The G-vectors are recalculated for the final unit cell
     Results may differ from those at the preceding step.
 
     Parallelization info
     --------------------
     sticks:   dense  smooth     PW     G-vecs:    dense   smooth      PW
     Min          73      73     20                25295    25295    3688
     Max          74      74     21                25319    25319    3729
     Sum        2639    2639    733               911201   911201  133221
 
     Using Slab Decomposition
 


     bravais-lattice index     =            0
     lattice parameter (alat)  =      12.3151  a.u.
     unit-cell volume          =    5130.3193 (a.u.)^3
     number of atoms/cell      =           36
     number of atomic types    =            2
     number of electrons       =       288.00
     number of Kohn-Sham states=          173
     kinetic-energy cutoff     =     120.0000  Ry
     charge density cutoff     =     480.0000  Ry
     scf convergence threshold =      1.0E-08
     mixing beta               =       0.4000
     number of iterations used =           20  plain     mixing
     press convergence thresh. =      5.0E-01
     Exchange-correlation= PBE
                           (   1   4   3   4   0   0   0)

     celldm(1)=  12.315136  celldm(2)=   0.000000  celldm(3)=   0.000000
     celldm(4)=   0.000000  celldm(5)=   0.000000  celldm(6)=   0.000000

     crystal axes: (cart. coord. in units of alat)
               a(1) = (   1.000066   0.000000   0.000000 )  
               a(2) = (   0.000000   0.455049   0.000000 )  
               a(3) = (   0.000000   0.000000   6.035871 )  

     reciprocal axes: (cart. coord. in units 2 pi/alat)
               b(1) = (  0.999934  0.000000  0.000000 )  
               b(2) = (  0.000000  2.197566  0.000000 )  
               b(3) = (  0.000000  0.000000  0.165676 )  


     PseudoPot. # 1 for Ti read from file:
     /cm/shared/apps/KO/pseudo/sg15/Ti_ONCV_PBE-1.2.upf
     MD5 check sum: 1aea57736bd12dcfee93c97d0b9b5968
     Pseudo is Norm-conserving, Zval = 12.0
     Generated using ONCVPSP code by D. R. Hamann
     Using radial grid of  602 points,  6 beta functions with: 
                l(1) =   0
                l(2) =   0
                l(3) =   1
                l(4) =   1
                l(5) =   2
                l(6) =   2

     PseudoPot. # 2 for O  read from file:
     /cm/shared/apps/KO/pseudo/sg15/O_ONCV_PBE-1.2.upf
     MD5 check sum: e36c48deb68f4e355fffe4602be2c42c
     Pseudo is Norm-conserving, Zval =  6.0
     Generated using ONCVPSP code by D. R. Hamann
     Using radial grid of  602 points,  4 beta functions with: 
                l(1) =   0
                l(2) =   0
                l(3) =   1
                l(4) =   1

     atomic species   valence    mass     pseudopotential
        Ti            12.00    47.86700     Ti( 1.00)
        O              6.00    15.99900     O ( 1.00)

      4 Sym. Ops. (no inversion) found



   Cartesian axes

     site n.     atom                  positions (alat units)
         1           Ti  tau(   1) = (   0.5000330   0.0000000   1.7753508  )
         2           Ti  tau(   2) = (   0.0000000   0.2275244   1.6982228  )
         3           Ti  tau(   3) = (   0.0000000   0.0000000   2.2104476  )
         4           Ti  tau(   4) = (   0.5000330   0.2275244   2.2730901  )
         5           Ti  tau(   5) = (   0.5000330   0.0000000   2.7933078  )
         6           Ti  tau(   6) = (   0.0000000   0.2275244   2.7407757  )
         7           Ti  tau(   7) = (   0.0000000   0.0000000   3.2429940  )
         8           Ti  tau(   8) = (   0.5000330   0.2275244   3.2954579  )
         9           Ti  tau(   9) = (   0.5000330   0.0000000   3.8254509  )
        10           Ti  tau(  10) = (   0.0000000   0.2275244   3.7634027  )
        11           Ti  tau(  11) = (   0.0000000   0.0000000   4.2614604  )
        12           Ti  tau(  12) = (   0.5000330   0.2275244   4.3379081  )
        13           O   tau(  13) = (   0.0000000   0.0000000   1.5347654  )
        14           O   tau(  14) = (   0.5000330   0.0000000   2.0512490  )
        15           O   tau(  15) = (   0.0000000   0.0000000   1.9309660  )
        16           O   tau(  16) = (   0.3115135   0.2275244   1.7189825  )
        17           O   tau(  17) = (   0.6885526   0.2275244   1.7189825  )
        18           O   tau(  18) = (   0.0000000   0.0000000   2.5629316  )
        19           O   tau(  19) = (   0.5000330   0.0000000   2.4485282  )
        20           O   tau(  20) = (   0.8031103   0.2275244   2.2440554  )
        21           O   tau(  21) = (   0.1969559   0.2275244   2.2440554  )
        22           O   tau(  22) = (   0.5000330   0.0000000   3.0774173  )
        23           O   tau(  23) = (   0.0000000   0.0000000   2.9588417  )
        24           O   tau(  24) = (   0.3053920   0.2275244   2.7634409  )
        25           O   tau(  25) = (   0.6946741   0.2275244   2.7634409  )
        26           O   tau(  26) = (   0.0000000   0.0000000   3.5879378  )
        27           O   tau(  27) = (   0.5000330   0.0000000   3.4732716  )
        28           O   tau(  28) = (   0.8054302   0.2275244   3.2728596  )
        29           O   tau(  29) = (   0.1946360   0.2275244   3.2728596  )
        30           O   tau(  30) = (   0.5000330   0.0000000   4.1050103  )
        31           O   tau(  31) = (   0.0000000   0.0000000   3.9853696  )
        32           O   tau(  32) = (   0.3031446   0.2275244   3.7916986  )
        33           O   tau(  33) = (   0.6969215   0.2275244   3.7916986  )
        34           O   tau(  34) = (   0.5000330   0.0000000   4.5013181  )
        35           O   tau(  35) = (   0.8116106   0.2275244   4.3180062  )
        36           O   tau(  36) = (   0.1884555   0.2275244   4.3180062  )

     number of k points=     8  Gaussian smearing, width (Ry)=  0.0200
                       cart. coord. in units 2pi/alat
        k(    1) = (   0.0000000   0.0000000   0.0000000), wk =   0.1111111
        k(    2) = (   0.0000000   0.3662610   0.0000000), wk =   0.2222222
        k(    3) = (   0.0000000   0.7325221   0.0000000), wk =   0.2222222
        k(    4) = (   0.0000000  -1.0987831   0.0000000), wk =   0.1111111
        k(    5) = (   0.3333113   0.0000000   0.0000000), wk =   0.2222222
        k(    6) = (   0.3333113   0.3662610   0.0000000), wk =   0.4444444
        k(    7) = (   0.3333113   0.7325221   0.0000000), wk =   0.4444444
        k(    8) = (   0.3333113  -1.0987831   0.0000000), wk =   0.2222222

     Dense  grid:   911201 G-vectors     FFT dimensions: (  90,  40, 540)

     Estimated max dynamical RAM per process >     162.38 MB

     Estimated total dynamical RAM >       5.71 GB

     Initial potential from superposition of free atoms

     starting charge     286.6604, renormalised to     288.0000

     negative rho (up, down):  9.709E-04 0.000E+00
     Starting wfcs are random

     total cpu time spent up to now is      603.9 secs

     per-process dynamical memory:   254.1 Mb

     Self-consistent Calculation

     iteration #  1     ecut=   120.00 Ry     beta= 0.40
     Davidson diagonalization with overlap
     c_bands:  1 eigenvalues not converged
     c_bands:  1 eigenvalues not converged
     c_bands:  2 eigenvalues not converged
     c_bands:  2 eigenvalues not converged
     c_bands:  3 eigenvalues not converged
     c_bands:  1 eigenvalues not converged
     c_bands:  1 eigenvalues not converged
     ethr =  1.00E-06,  avg # of iterations = 59.9

     negative rho (up, down):  5.380E-04 0.000E+00

     total cpu time spent up to now is      715.0 secs

     total energy              =   -2151.07384050 Ry
     estimated scf accuracy    <      16.10377505 Ry

     iteration #  2     ecut=   120.00 Ry     beta= 0.40
     Davidson diagonalization with overlap
     ethr =  5.59E-03,  avg # of iterations =  4.5

     negative rho (up, down):  3.685E-04 0.000E+00

     total cpu time spent up to now is      726.8 secs

     total energy              =   -2153.65228739 Ry
     estimated scf accuracy    <       8.19773777 Ry

     iteration #  3     ecut=   120.00 Ry     beta= 0.40
     Davidson diagonalization with overlap
     ethr =  2.85E-03,  avg # of iterations =  7.4

     negative rho (up, down):  3.486E-04 0.000E+00

     total cpu time spent up to now is      738.5 secs

     total energy              =   -2151.26515212 Ry
     estimated scf accuracy    <     165.31894322 Ry

     iteration #  4     ecut=   120.00 Ry     beta= 0.40
     Davidson diagonalization with overlap
     ethr =  2.85E-03,  avg # of iterations =  2.5

     negative rho (up, down):  2.536E-04 0.000E+00

     total cpu time spent up to now is      747.3 secs

     total energy              =   -2155.80163552 Ry
     estimated scf accuracy    <       0.90628366 Ry

     iteration #  5     ecut=   120.00 Ry     beta= 0.40
     Davidson diagonalization with overlap
     c_bands:  3 eigenvalues not converged
     ethr =  3.15E-04,  avg # of iterations = 13.4

     negative rho (up, down):  1.158E-04 0.000E+00

     total cpu time spent up to now is      761.7 secs

     total energy              =   -2155.85725373 Ry
     estimated scf accuracy    <       0.20423616 Ry

     iteration #  6     ecut=   120.00 Ry     beta= 0.40
     Davidson diagonalization with overlap
     c_bands:  5 eigenvalues not converged
     ethr =  7.09E-05,  avg # of iterations = 11.2

     negative rho (up, down):  1.878E-05 0.000E+00

     total cpu time spent up to now is      775.2 secs

     total energy              =   -2155.89956374 Ry
     estimated scf accuracy    <       0.03332483 Ry

     iteration #  7     ecut=   120.00 Ry     beta= 0.40
     Davidson diagonalization with overlap
     c_bands:  3 eigenvalues not converged
     c_bands:  1 eigenvalues not converged
     c_bands:  1 eigenvalues not converged
     ethr =  1.16E-05,  avg # of iterations = 15.8

     negative rho (up, down):  3.344E-06 0.000E+00

     total cpu time spent up to now is      789.6 secs

     total energy              =   -2155.90078422 Ry
     estimated scf accuracy    <       0.02664922 Ry

     iteration #  8     ecut=   120.00 Ry     beta= 0.40
     Davidson diagonalization with overlap
     ethr =  9.25E-06,  avg # of iterations =  5.9

     negative rho (up, down):  1.212E-06 0.000E+00

     total cpu time spent up to now is      799.3 secs

     total energy              =   -2155.90168134 Ry
     estimated scf accuracy    <       0.00912689 Ry

     iteration #  9     ecut=   120.00 Ry     beta= 0.40
     Davidson diagonalization with overlap
     ethr =  3.17E-06,  avg # of iterations =  6.9

     negative rho (up, down):  3.613E-07 0.000E+00

     total cpu time spent up to now is      809.7 secs

     total energy              =   -2155.90254193 Ry
     estimated scf accuracy    <       0.00493943 Ry

     iteration # 10     ecut=   120.00 Ry     beta= 0.40
     Davidson diagonalization with overlap
     ethr =  1.72E-06,  avg # of iterations =  8.2

     negative rho (up, down):  3.212E-08 0.000E+00

     total cpu time spent up to now is      819.9 secs

     total energy              =   -2155.90253914 Ry
     estimated scf accuracy    <       0.00377988 Ry

     iteration # 11     ecut=   120.00 Ry     beta= 0.40
     Davidson diagonalization with overlap
     ethr =  1.31E-06,  avg # of iterations =  1.4

     total cpu time spent up to now is      828.3 secs

     total energy              =   -2155.90253204 Ry
     estimated scf accuracy    <       0.00300613 Ry

     iteration # 12     ecut=   120.00 Ry     beta= 0.40
     Davidson diagonalization with overlap
     ethr =  1.04E-06,  avg # of iterations =  1.0

     total cpu time spent up to now is      836.4 secs

     total energy              =   -2155.90243005 Ry
     estimated scf accuracy    <       0.00266594 Ry

     iteration # 13     ecut=   120.00 Ry     beta= 0.40
     Davidson diagonalization with overlap
     ethr =  9.26E-07,  avg # of iterations =  1.0

     total cpu time spent up to now is      844.5 secs

     total energy              =   -2155.90234809 Ry
     estimated scf accuracy    <       0.00210742 Ry

     iteration # 14     ecut=   120.00 Ry     beta= 0.40
     Davidson diagonalization with overlap
     ethr =  7.32E-07,  avg # of iterations =  1.4

     total cpu time spent up to now is      853.0 secs

     total energy              =   -2155.90227354 Ry
     estimated scf accuracy    <       0.00162047 Ry

     iteration # 15     ecut=   120.00 Ry     beta= 0.40
     Davidson diagonalization with overlap
     c_bands:  1 eigenvalues not converged
     ethr =  5.63E-07,  avg # of iterations =  7.9

     total cpu time spent up to now is      862.9 secs

     total energy              =   -2155.90220047 Ry
     estimated scf accuracy    <       0.00118691 Ry

     iteration # 16     ecut=   120.00 Ry     beta= 0.40
     Davidson diagonalization with overlap
     ethr =  4.12E-07,  avg # of iterations =  4.1

     negative rho (up, down):  2.813E-08 0.000E+00

     total cpu time spent up to now is      871.8 secs

     total energy              =   -2155.90207983 Ry
     estimated scf accuracy    <       0.00076779 Ry

     iteration # 17     ecut=   120.00 Ry     beta= 0.40
     Davidson diagonalization with overlap
     c_bands:  3 eigenvalues not converged
     c_bands:  1 eigenvalues not converged
     ethr =  2.67E-07,  avg # of iterations =  8.6

     negative rho (up, down):  2.531E-08 0.000E+00

     total cpu time spent up to now is      882.3 secs

     total energy              =   -2155.90209804 Ry
     estimated scf accuracy    <       0.00020716 Ry

     iteration # 18     ecut=   120.00 Ry     beta= 0.40
     Davidson diagonalization with overlap
     c_bands:  2 eigenvalues not converged
     ethr =  7.19E-08,  avg # of iterations =  7.9

     negative rho (up, down):  2.616E-08 0.000E+00

     total cpu time spent up to now is      892.9 secs

     total energy              =   -2155.90210986 Ry
     estimated scf accuracy    <       0.00008395 Ry

     iteration # 19     ecut=   120.00 Ry     beta= 0.40
     Davidson diagonalization with overlap
     c_bands:  4 eigenvalues not converged
     ethr =  2.91E-08,  avg # of iterations =  8.9

     negative rho (up, down):  2.617E-08 0.000E+00

     total cpu time spent up to now is      903.4 secs

     total energy              =   -2155.90211437 Ry
     estimated scf accuracy    <       0.00005261 Ry

     iteration # 20     ecut=   120.00 Ry     beta= 0.40
     Davidson diagonalization with overlap
     c_bands:  3 eigenvalues not converged
     ethr =  1.83E-08,  avg # of iterations =  3.8

     negative rho (up, down):  2.147E-08 0.000E+00

     total cpu time spent up to now is      912.4 secs

     total energy              =   -2155.90211166 Ry
     estimated scf accuracy    <       0.00005067 Ry

     iteration # 21     ecut=   120.00 Ry     beta= 0.40
     Davidson diagonalization with overlap
     c_bands:  1 eigenvalues not converged
     ethr =  1.76E-08,  avg # of iterations =  3.9

     total cpu time spent up to now is      921.4 secs

     total energy              =   -2155.90210610 Ry
     estimated scf accuracy    <       0.00003353 Ry

     iteration # 22     ecut=   120.00 Ry     beta= 0.40
     Davidson diagonalization with overlap
     ethr =  1.16E-08,  avg # of iterations =  8.5

     total cpu time spent up to now is      931.9 secs

     total energy              =   -2155.90210678 Ry
     estimated scf accuracy    <       0.00000745 Ry

     iteration # 23     ecut=   120.00 Ry     beta= 0.40
     Davidson diagonalization with overlap
     c_bands:  1 eigenvalues not converged
     ethr =  2.59E-09,  avg # of iterations =  9.4

     total cpu time spent up to now is      945.5 secs

     total energy              =   -2155.90210939 Ry
     estimated scf accuracy    <       0.00000220 Ry

     iteration # 24     ecut=   120.00 Ry     beta= 0.40
     Davidson diagonalization with overlap
     ethr =  7.64E-10,  avg # of iterations =  3.0

     total cpu time spent up to now is      954.7 secs

     total energy              =   -2155.90210930 Ry
     estimated scf accuracy    <       0.00000292 Ry

     iteration # 25     ecut=   120.00 Ry     beta= 0.40
     Davidson diagonalization with overlap
     ethr =  7.64E-10,  avg # of iterations =  1.0

     total cpu time spent up to now is      962.8 secs

     total energy              =   -2155.90210917 Ry
     estimated scf accuracy    <       0.00000199 Ry

     iteration # 26     ecut=   120.00 Ry     beta= 0.40
     Davidson diagonalization with overlap
     ethr =  6.92E-10,  avg # of iterations =  1.1

     total cpu time spent up to now is      971.2 secs

     total energy              =   -2155.90210914 Ry
     estimated scf accuracy    <       0.00000128 Ry

     iteration # 27     ecut=   120.00 Ry     beta= 0.40
     Davidson diagonalization with overlap
     ethr =  4.46E-10,  avg # of iterations =  1.0

     total cpu time spent up to now is      979.4 secs

     total energy              =   -2155.90210907 Ry
     estimated scf accuracy    <       0.00000104 Ry

     iteration # 28     ecut=   120.00 Ry     beta= 0.40
     Davidson diagonalization with overlap
     ethr =  3.61E-10,  avg # of iterations =  1.0

     total cpu time spent up to now is      987.6 secs

     total energy              =   -2155.90210904 Ry
     estimated scf accuracy    <       0.00000070 Ry

     iteration # 29     ecut=   120.00 Ry     beta= 0.40
     Davidson diagonalization with overlap
     ethr =  2.43E-10,  avg # of iterations =  1.0

     total cpu time spent up to now is      995.7 secs

     total energy              =   -2155.90210900 Ry
     estimated scf accuracy    <       0.00000051 Ry

     iteration # 30     ecut=   120.00 Ry     beta= 0.40
     Davidson diagonalization with overlap
     ethr =  1.77E-10,  avg # of iterations =  2.4

     total cpu time spent up to now is     1004.5 secs

     total energy              =   -2155.90210896 Ry
     estimated scf accuracy    <       0.00000027 Ry

     iteration # 31     ecut=   120.00 Ry     beta= 0.40
     Davidson diagonalization with overlap
     ethr =  9.54E-11,  avg # of iterations =  4.1

     total cpu time spent up to now is     1014.1 secs

     total energy              =   -2155.90210897 Ry
     estimated scf accuracy    <       0.00000007 Ry

     iteration # 32     ecut=   120.00 Ry     beta= 0.40
     Davidson diagonalization with overlap
     ethr =  2.29E-11,  avg # of iterations =  7.1

     total cpu time spent up to now is     1026.5 secs

     End of self-consistent calculation

          k = 0.0000 0.0000 0.0000 (113915 PWs)   bands (ev):

   -56.0979 -56.0955 -55.9506 -55.9477 -55.8839 -55.8798 -55.8761 -55.8721
   -55.7945 -55.7934 -55.4876 -55.4874 -32.4144 -32.4122 -32.3032 -32.3011
   -32.2881 -32.2873 -32.2153 -32.2126 -32.2046 -32.2015 -32.1959 -32.1894
   -32.1874 -32.1793 -32.0974 -32.0920 -32.0377 -32.0356 -32.0343 -32.0343
   -32.0329 -32.0328 -32.0223 -32.0197 -31.9835 -31.9757 -31.9670 -31.9594
   -31.9033 -31.9021 -31.7712 -31.7711 -31.7413 -31.7412 -31.5505 -31.5502
   -17.0907 -17.0176 -16.8129 -16.6596 -16.5814 -16.5247 -16.4222 -16.3580
   -16.1209 -15.9829 -15.8283 -15.8263 -15.7651 -15.7617 -15.4389 -15.4008
   -15.3913 -15.3875 -15.3671 -15.3497 -15.3380 -15.3107 -15.0408 -15.0399
    -4.6483  -4.5622  -4.4748  -4.4633  -4.4353  -4.4340  -4.3614  -4.2972
    -3.9983  -3.9752  -3.6958  -3.5130  -3.2635  -3.2141  -3.2106  -3.0840
    -3.0770  -2.7599  -2.7544  -2.7305  -2.7251  -2.7047  -2.6799  -2.6789
    -2.6316  -2.6310  -2.4321  -2.4308  -2.3254  -2.2567  -2.1771  -1.8848
    -1.8052  -1.7148  -1.6747  -1.5627  -1.5446  -1.5432  -1.4790  -1.4723
    -1.3325  -1.2735  -1.1892  -1.1662  -1.0757  -1.0749  -0.9355  -0.8117
    -0.7864  -0.7773  -0.7411  -0.7081  -0.6775  -0.6652  -0.4145  -0.3936
    -0.3883  -0.3752  -0.1349  -0.1285  -0.1083  -0.1059  -0.0837  -0.0761
    -0.0525  -0.0483   0.3541   0.3974   0.4286   0.5787   0.7272   0.8604
     2.9263   2.9358   2.9742   3.0181   3.0488   3.0503   3.3364   3.3729
     3.3773   3.3799   3.5532   3.5671   3.5693   3.6247   3.6431   3.6951
     3.8703   3.8704   3.8767   3.8860   4.0017   4.1311   4.1857   4.2892
     4.3362   4.4818   4.5664   4.5687   4.6191

          k = 0.0000 0.3663 0.0000 (113949 PWs)   bands (ev):

   -56.0879 -56.0855 -55.9409 -55.9379 -55.8733 -55.8697 -55.8665 -55.8631
   -55.7850 -55.7838 -55.4772 -55.4770 -32.3907 -32.3884 -32.3409 -32.3390
   -32.2885 -32.2864 -32.2686 -32.2685 -32.1784 -32.1752 -32.1674 -32.1634
   -32.1616 -32.1558 -32.1331 -32.1305 -32.1160 -32.1140 -32.0865 -32.0789
   -32.0574 -32.0561 -32.0321 -32.0289 -32.0279 -32.0265 -32.0175 -32.0165
   -32.0086 -32.0073 -31.7630 -31.7629 -31.7349 -31.7349 -31.6615 -31.6612
   -16.8292 -16.7669 -16.5830 -16.4433 -16.3666 -16.3142 -16.2223 -16.1719
   -15.9745 -15.8695 -15.8220 -15.8143 -15.6430 -15.6415 -15.5287 -15.5029
   -15.4908 -15.4837 -15.4725 -15.4522 -15.4414 -15.4225 -15.1025 -15.1019
    -4.2874  -4.2319  -4.1759  -4.1608  -4.1166  -4.1151  -4.0819  -4.0148
    -3.7238  -3.7023  -3.4678  -3.4353  -3.3985  -3.3797  -3.2842  -3.2668
    -3.2617  -3.2208  -3.1853  -3.0756  -3.0740  -2.9993  -2.9665  -2.9031
    -2.6853  -2.5376  -2.4620  -2.1074  -2.1008  -2.0202  -1.9030  -1.7752
    -1.6389  -1.5946  -1.5926  -1.4931  -1.4854  -1.4195  -1.3387  -1.3216
    -1.2939  -1.2450  -1.1468  -1.1269  -1.1053  -1.0757  -1.0548  -1.0306
    -1.0016  -0.9915  -0.9753  -0.9654  -0.8862  -0.8730  -0.7569  -0.6670
    -0.6434  -0.5326  -0.4698  -0.4437  -0.4134  -0.3579  -0.3267  -0.2822
    -0.0940  -0.0733  -0.0524  -0.0346  -0.0301   0.5018   0.5831   0.6944
     3.0407   3.0420   3.1748   3.2641   3.2751   3.2775   3.3012   3.3021
     3.3514   3.4192   3.4605   3.6800   3.6986   3.7318   3.7587   3.8197
     4.0361   4.0803   4.1127   4.1492   4.2552   4.2833   4.3099   4.3447
     4.4328   4.4616   4.4673   4.5047   4.7423

          k = 0.0000 0.7325 0.0000 (113958 PWs)   bands (ev):

   -56.0678 -56.0654 -55.9214 -55.9184 -55.8515 -55.8494 -55.8475 -55.8455
   -55.7658 -55.7646 -55.4563 -55.4561 -32.5652 -32.5623 -32.3565 -32.3540
   -32.3284 -32.3267 -32.3167 -32.3149 -32.3013 -32.2994 -32.2602 -32.2591
   -32.2586 -32.2580 -32.2236 -32.2224 -32.1248 -32.1216 -32.1134 -32.1081
   -32.1044 -32.1009 -32.0587 -32.0562 -32.0262 -32.0248 -32.0107 -32.0092
   -31.9801 -31.9792 -31.9247 -31.9245 -31.7229 -31.7229 -31.6927 -31.6926
   -16.2435 -16.2314 -16.2064 -16.1484 -15.9448 -15.9254 -15.9243 -15.8474
   -15.8316 -15.8302 -15.7134 -15.7003 -15.6955 -15.6922 -15.6816 -15.6627
   -15.6477 -15.6418 -15.5806 -15.5578 -15.4141 -15.4113 -15.0849 -15.0845
    -3.7417  -3.6863  -3.6775  -3.6594  -3.6496  -3.6403  -3.5955  -3.5589
    -3.5033  -3.4996  -3.4289  -3.4117  -3.3911  -3.3773  -3.3363  -3.3299
    -3.2561  -3.2461  -3.2360  -3.1653  -3.1252  -3.0863  -3.0590  -2.8778
    -2.7231  -2.5372  -2.5231  -2.4630  -2.4120  -2.3624  -2.3229  -2.2779
    -2.2729  -2.2491  -2.0729  -2.0274  -2.0145  -1.6964  -1.6444  -1.5178
    -1.4542  -1.4176  -1.3744  -1.1995  -1.1697  -1.1652  -1.1039  -1.0793
    -1.0585  -1.0047  -0.9826  -0.9370  -0.8665  -0.7455  -0.7289  -0.7235
    -0.7224  -0.5253  -0.4695  -0.4657  -0.4655  -0.4004  -0.3866  -0.3831
    -0.1779  -0.1664  -0.1558  -0.1320  -0.0478   0.0104   0.0624   0.1345
     3.3475   3.3858   3.3982   3.4028   3.4736   3.5241   3.6404   3.6654
     3.7059   3.7337   3.8444   3.8533   3.8597   3.8824   3.9704   3.9840
     4.0249   4.0515   4.0567   4.1787   4.2406   4.3340   4.4664   4.5035
     4.5272   4.5596   4.5786   4.6029   4.6971

          k = 0.0000-1.0988 0.0000 (113900 PWs)   bands (ev):

   -56.0577 -56.0553 -55.9115 -55.9086 -55.8389 -55.8386 -55.8385 -55.8383
   -55.7562 -55.7550 -55.4458 -55.4456 -32.6734 -32.6704 -32.4604 -32.4578
   -32.4224 -32.4214 -32.4093 -32.4079 -32.3274 -32.3262 -32.2853 -32.2828
   -32.2682 -32.2670 -32.2466 -32.2443 -32.0972 -32.0940 -32.0890 -32.0863
   -32.0609 -32.0603 -32.0551 -32.0546 -32.0481 -32.0473 -32.0346 -32.0330
   -31.9856 -31.9844 -31.9606 -31.9597 -31.7173 -31.7172 -31.6738 -31.6737
   -16.2256 -16.2207 -15.9091 -15.9043 -15.8213 -15.8129 -15.7944 -15.7850
   -15.7712 -15.7509 -15.7480 -15.7354 -15.7244 -15.7227 -15.6974 -15.6804
   -15.6556 -15.6277 -15.5184 -15.5109 -15.4002 -15.3840 -14.9391 -14.9385
    -4.0900  -3.9881  -3.7438  -3.6840  -3.6670  -3.6213  -3.5719  -3.5450
    -3.4894  -3.4140  -3.3947  -3.3572  -3.2518  -3.2371  -3.2271  -3.2242
    -3.2196  -3.1284  -3.0812  -3.0631  -3.0589  -3.0274  -2.9432  -2.8610
    -2.8388  -2.7005  -2.6157  -2.5906  -2.4403  -2.4316  -2.4178  -2.4144
    -2.0612  -1.9736  -1.8326  -1.8283  -1.7841  -1.7839  -1.7485  -1.7291
    -1.7247  -1.6413  -1.5830  -1.4640  -1.4567  -1.3879  -1.3685  -1.3245
    -1.1626  -1.0667  -1.0092  -0.9761  -0.9153  -0.7894  -0.7090  -0.6459
    -0.6227  -0.5710  -0.4501  -0.3667  -0.2773  -0.2740  -0.2666  -0.2459
    -0.2459  -0.2450  -0.2262  -0.2088  -0.1158  -0.0783  -0.0585   0.0850
     3.1025   3.3871   3.6204   3.6289   3.6494   3.8231   3.8876   3.8902
     3.9030   3.9447   3.9880   3.9915   4.0852   4.0908   4.0943   4.1887
     4.2068   4.2452   4.2477   4.2494   4.2708   4.3139   4.3141   4.3702
     4.3808   4.4406   4.4408   4.4650   4.5690

          k = 0.3333 0.0000 0.0000 (113895 PWs)   bands (ev):

   -56.0979 -56.0955 -55.9506 -55.9477 -55.8820 -55.8785 -55.8774 -55.8740
   -55.7946 -55.7934 -55.4876 -55.4874 -32.4146 -32.4124 -32.2884 -32.2878
   -32.2872 -32.2851 -32.2152 -32.2125 -32.1972 -32.1941 -32.1871 -32.1820
   -32.1605 -32.1532 -32.0964 -32.0958 -32.0712 -32.0683 -32.0525 -32.0517
   -32.0338 -32.0323 -32.0222 -32.0196 -31.9798 -31.9739 -31.9689 -31.9631
   -31.9035 -31.9022 -31.7711 -31.7710 -31.7494 -31.7493 -31.5505 -31.5503
   -16.9423 -16.8882 -16.6562 -16.5262 -16.4853 -16.4458 -16.3834 -16.3379
   -16.2229 -16.0661 -15.9576 -15.9549 -15.7582 -15.7533 -15.5155 -15.5114
   -15.4807 -15.4536 -15.4313 -15.4169 -15.3996 -15.3772 -15.0369 -15.0363
    -4.4795  -4.4349  -4.1627  -4.0861  -4.0412  -4.0346  -4.0265  -4.0158
    -3.9436  -3.9267  -3.3515  -3.2490  -3.2177  -3.1238  -3.0861  -3.0791
    -2.9303  -2.7559  -2.7470  -2.6750  -2.6585  -2.6208  -2.6198  -2.5628
    -2.5625  -2.5611  -2.5500  -2.4544  -2.4317  -2.4305  -2.3370  -2.1784
    -2.0840  -2.0041  -1.8981  -1.8696  -1.7606  -1.7485  -1.6721  -1.5364
    -1.4919  -1.4300  -1.3761  -1.1964  -1.1373  -1.1298  -1.1214  -0.9599
    -0.8451  -0.8422  -0.7752  -0.7249  -0.7023  -0.6606  -0.6544  -0.6242
    -0.5568  -0.4966  -0.3501  -0.3315  -0.2612  -0.1916  -0.1875  -0.1842
    -0.1373  -0.1118  -0.0078  -0.0016   0.0475   0.3909   0.4826   0.6036
     3.2810   3.2916   3.3582   3.3835   3.4157   3.4318   3.4667   3.4674
     3.6128   3.6351   3.6390   3.6410   3.7162   3.7226   3.8378   3.8455
     3.9147   3.9667   4.1057   4.1141   4.1725   4.3204   4.3263   4.5112
     4.5210   4.5285   4.5553   4.5906   4.6048

          k = 0.3333 0.3663 0.0000 (113821 PWs)   bands (ev):

   -56.0879 -56.0855 -55.9409 -55.9379 -55.8716 -55.8686 -55.8677 -55.8647
   -55.7850 -55.7839 -55.4772 -55.4770 -32.3907 -32.3884 -32.3412 -32.3393
   -32.2794 -32.2772 -32.2689 -32.2688 -32.1728 -32.1696 -32.1626 -32.1580
   -32.1415 -32.1384 -32.1343 -32.1317 -32.1161 -32.1101 -32.0935 -32.0898
   -32.0583 -32.0577 -32.0470 -32.0462 -32.0311 -32.0302 -32.0255 -32.0242
   -32.0067 -32.0054 -31.7630 -31.7630 -31.7398 -31.7397 -31.6613 -31.6610
   -16.7014 -16.6573 -16.4475 -16.3124 -16.2914 -16.2461 -16.1839 -16.1498
   -16.0530 -15.9274 -15.8249 -15.8155 -15.7924 -15.7909 -15.6088 -15.6016
   -15.5648 -15.5483 -15.5181 -15.4909 -15.4538 -15.4495 -15.0981 -15.0974
    -4.1598  -4.1344  -3.8521  -3.8009  -3.7509  -3.7391  -3.7131  -3.7052
    -3.6424  -3.6354  -3.4417  -3.4361  -3.3022  -3.2876  -3.2452  -3.2410
    -3.1594  -3.1566  -3.0698  -2.9759  -2.9330  -2.9243  -2.7925  -2.7610
    -2.6609  -2.5462  -2.3772  -2.1761  -2.1043  -2.0611  -1.9841  -1.9452
    -1.9145  -1.8741  -1.8320  -1.7462  -1.7354  -1.7209  -1.6778  -1.6221
    -1.5191  -1.4377  -1.4296  -1.3533  -1.2953  -1.2950  -1.2768  -1.2555
    -1.2278  -1.1479  -1.1172  -1.0957  -1.0578  -1.0027  -0.9481  -0.9262
    -0.8290  -0.7034  -0.6190  -0.5107  -0.2800  -0.2768  -0.1091  -0.1085
    -0.0133   0.0055   0.0264   0.0542   0.1152   0.3652   0.4273   0.5141
     3.1482   3.1500   3.3280   3.3331   3.3907   3.4324   3.4734   3.5763
     3.6057   3.6223   3.6792   3.6827   3.7514   3.7550   3.8451   3.9083
     4.0834   4.1076   4.2300   4.2734   4.3109   4.3127   4.4241   4.4956
     4.5759   4.5978   4.6527   4.7112   4.7529

          k = 0.3333 0.7325 0.0000 (113868 PWs)   bands (ev):

   -56.0678 -56.0654 -55.9213 -55.9184 -55.8505 -55.8487 -55.8482 -55.8465
   -55.7658 -55.7646 -55.4563 -55.4561 -32.5655 -32.5627 -32.3590 -32.3565
   -32.3290 -32.3274 -32.3174 -32.3157 -32.3087 -32.3066 -32.2864 -32.2846
   -32.2590 -32.2586 -32.1935 -32.1920 -32.1237 -32.1205 -32.1125 -32.1096
   -32.0803 -32.0768 -32.0580 -32.0570 -32.0409 -32.0391 -32.0104 -32.0090
   -31.9835 -31.9827 -31.9239 -31.9237 -31.7223 -31.7222 -31.6926 -31.6925
   -16.2111 -16.2071 -16.1714 -16.1249 -15.9777 -15.9744 -15.9208 -15.9192
   -15.8663 -15.8350 -15.7859 -15.7728 -15.7012 -15.6975 -15.6717 -15.6644
   -15.6019 -15.5890 -15.5377 -15.5219 -15.4094 -15.4074 -15.0850 -15.0846
    -3.7018  -3.6861  -3.6564  -3.6476  -3.5521  -3.5477  -3.5375  -3.5141
    -3.4642  -3.4087  -3.3482  -3.3454  -3.3024  -3.2998  -3.2551  -3.2269
    -3.2044  -3.1581  -3.1307  -3.1054  -3.1012  -3.0379  -2.9754  -2.9698
    -2.7578  -2.6802  -2.5377  -2.5004  -2.4561  -2.4520  -2.3460  -2.3237
    -2.1239  -2.1048  -1.9973  -1.9675  -1.8957  -1.7704  -1.6901  -1.6034
    -1.5336  -1.5157  -1.4218  -1.4124  -1.3226  -1.2944  -1.2626  -1.2482
    -1.2131  -1.1829  -1.0773  -1.0285  -1.0005  -0.8799  -0.7647  -0.7586
    -0.7151  -0.6657  -0.5017  -0.4835  -0.4466  -0.4006  -0.3303  -0.3048
    -0.2456  -0.1770  -0.0439   0.0203   0.0921   0.1388   0.1546   0.1727
     3.1158   3.1390   3.1764   3.2476   3.2645   3.3130   3.5629   3.6726
     3.6822   3.7442   3.8447   3.8843   3.9195   3.9601   4.0384   4.0655
     4.0906   4.1295   4.1426   4.1670   4.2912   4.3616   4.4410   4.4662
     4.5360   4.5387   4.6685   4.7092   4.7969

          k = 0.3333-1.0988 0.0000 (114000 PWs)   bands (ev):

   -56.0577 -56.0553 -55.9115 -55.9086 -55.8389 -55.8386 -55.8385 -55.8383
   -55.7562 -55.7550 -55.4458 -55.4456 -32.6738 -32.6709 -32.4631 -32.4605
   -32.4231 -32.4222 -32.4157 -32.4151 -32.3499 -32.3486 -32.2862 -32.2837
   -32.2682 -32.2669 -32.2225 -32.2204 -32.1026 -32.0998 -32.0883 -32.0870
   -32.0535 -32.0532 -32.0497 -32.0495 -32.0478 -32.0471 -32.0333 -32.0325
   -31.9853 -31.9841 -31.9601 -31.9593 -31.7140 -31.7139 -31.6738 -31.6738
   -16.2238 -16.2192 -16.0044 -15.9996 -15.9939 -15.9930 -15.9433 -15.9425
   -15.9033 -15.8999 -15.7940 -15.7552 -15.5412 -15.5394 -15.5209 -15.5169
   -15.4510 -15.4498 -15.4445 -15.4395 -15.3983 -15.3902 -14.9390 -14.9385
    -4.0235  -4.0139  -4.0075  -3.9419  -3.8767  -3.8303  -3.7083  -3.7038
    -3.7035  -3.6477  -3.4814  -3.2770  -3.2611  -3.2320  -3.1088  -3.0960
    -3.0619  -3.0598  -3.0556  -2.9811  -2.8521  -2.8507  -2.8490  -2.8436
    -2.6920  -2.6615  -2.4068  -2.3524  -2.3446  -2.2154  -2.1318  -2.0555
    -2.0427  -2.0397  -1.9785  -1.7912  -1.7747  -1.7652  -1.7628  -1.7306
    -1.6654  -1.6463  -1.6378  -1.5811  -1.4202  -1.4016  -1.1846  -1.0828
    -1.0729  -1.0256  -0.9881  -0.9030  -0.8002  -0.7501  -0.6582  -0.6277
    -0.6066  -0.5868  -0.5621  -0.5004  -0.4765  -0.4710  -0.4633  -0.3832
    -0.3385  -0.2850  -0.2749  -0.2282  -0.2274   0.0123   0.0670   0.1029
     3.0898   3.1011   3.1631   3.2244   3.3039   3.4396   3.4457   3.5159
     3.6805   3.7600   3.9567   3.9596   3.9915   4.0918   4.1157   4.1689
     4.2103   4.2124   4.2226   4.2395   4.3078   4.3103   4.4621   4.4626
     4.4777   4.6328   4.7768   4.7835   4.8007

     the Fermi energy is     1.8799 ev

!    total energy              =   -2155.90210898 Ry
     estimated scf accuracy    <          4.5E-09 Ry
     smearing contrib. (-TS)   =      -0.00000000 Ry
     internal energy E=F+TS    =   -2155.90210898 Ry

     The total energy is F=E-TS. E is the sum of the following terms:
     one-electron contribution =  -45924.62765310 Ry
     hartree contribution      =   23011.41797777 Ry
     xc contribution           =    -340.13436483 Ry
     ewald contribution        =   21097.44193118 Ry

     convergence has been achieved in  32 iterations

     Forces acting on atoms (cartesian axes, Ry/au):

     atom    1 type  1   force =     0.00000000    0.00000000   -0.00064157
     atom    2 type  1   force =     0.00000000    0.00000000    0.00028839
     atom    3 type  1   force =     0.00000000    0.00000000   -0.00022913
     atom    4 type  1   force =     0.00000000    0.00000000   -0.00018339
     atom    5 type  1   force =     0.00000000    0.00000000    0.00019688
     atom    6 type  1   force =     0.00000000    0.00000000    0.00016199
     atom    7 type  1   force =     0.00000000    0.00000000   -0.00025488
     atom    8 type  1   force =     0.00000000    0.00000000   -0.00015277
     atom    9 type  1   force =     0.00000000    0.00000000    0.00026816
     atom   10 type  1   force =     0.00000000    0.00000000   -0.00011912
     atom   11 type  1   force =     0.00000000    0.00000000   -0.00003997
     atom   12 type  1   force =     0.00000000    0.00000000   -0.00026135
     atom   13 type  2   force =     0.00000000    0.00000000    0.00001962
     atom   14 type  2   force =     0.00000000    0.00000000   -0.00005281
     atom   15 type  2   force =     0.00000000    0.00000000    0.00020106
     atom   16 type  2   force =     0.00007098    0.00000000   -0.00090200
     atom   17 type  2   force =    -0.00007098    0.00000000   -0.00090200
     atom   18 type  2   force =     0.00000000    0.00000000   -0.00032732
     atom   19 type  2   force =     0.00000000    0.00000000   -0.00004408
     atom   20 type  2   force =     0.00006845    0.00000000   -0.00015065
     atom   21 type  2   force =    -0.00006845    0.00000000   -0.00015065
     atom   22 type  2   force =     0.00000000    0.00000000    0.00002956
     atom   23 type  2   force =     0.00000000    0.00000000    0.00010118
     atom   24 type  2   force =     0.00014193    0.00000000    0.00036470
     atom   25 type  2   force =    -0.00014193    0.00000000    0.00036470
     atom   26 type  2   force =     0.00000000    0.00000000   -0.00002082
     atom   27 type  2   force =     0.00000000    0.00000000    0.00022002
     atom   28 type  2   force =     0.00014842    0.00000000   -0.00036032
     atom   29 type  2   force =    -0.00014842    0.00000000   -0.00036032
     atom   30 type  2   force =     0.00000000    0.00000000    0.00023187
     atom   31 type  2   force =     0.00000000    0.00000000    0.00027434
     atom   32 type  2   force =    -0.00013483    0.00000000    0.00071019
     atom   33 type  2   force =     0.00013483    0.00000000    0.00071019
     atom   34 type  2   force =     0.00000000    0.00000000   -0.00001061
     atom   35 type  2   force =     0.00001962    0.00000000    0.00051046
     atom   36 type  2   force =    -0.00001962    0.00000000    0.00051046

     Total force =     0.002259     Total SCF correction =     0.000331
     SCF correction compared to forces is large: reduce conv_thr to get better values


     Computing stress (Cartesian axis) and pressure

          total   stress  (Ry/bohr**3)                   (kbar)     P=        0.13
   0.00000040   0.00000000   0.00000000            0.06        0.00        0.00
   0.00000000   0.00000007   0.00000000            0.00        0.01        0.00
   0.00000000   0.00000000   0.00000218            0.00        0.00        0.32


     Writing all to output data dir ./Out/pwscf.save/
 
     init_run     :      6.59s CPU      7.21s WALL (       2 calls)
     electrons    :    918.98s CPU    927.94s WALL (       5 calls)
     update_pot   :      1.88s CPU      1.89s WALL (       3 calls)
     forces       :      7.48s CPU      7.57s WALL (       5 calls)
     stress       :    101.38s CPU    101.93s WALL (       5 calls)

     Called by init_run:
     wfcinit      :      5.62s CPU      6.05s WALL (       2 calls)
     potinit      :      0.29s CPU      0.30s WALL (       2 calls)
     hinit0       :      0.21s CPU      0.35s WALL (       2 calls)

     Called by electrons:
     c_bands      :    824.08s CPU    831.55s WALL (      72 calls)
     sum_band     :     91.72s CPU     92.46s WALL (      72 calls)
     v_of_rho     :      1.80s CPU      1.96s WALL (      74 calls)
     mix_rho      :      1.27s CPU      1.37s WALL (      72 calls)

     Called by c_bands:
     init_us_2    :      9.30s CPU      9.39s WALL (    1248 calls)
     init_us_2:cp :      9.29s CPU      9.39s WALL (    1248 calls)
     cegterg      :    793.63s CPU    800.55s WALL (     593 calls)

     Called by *egterg:
     cdiaghg      :     68.34s CPU     68.99s WALL (    4471 calls)
     h_psi        :    530.42s CPU    534.59s WALL (    4551 calls)
     g_psi        :      2.78s CPU      2.81s WALL (    3942 calls)

     Called by h_psi:
     h_psi:calbec :     57.04s CPU     57.44s WALL (    4551 calls)
     vloc_psi     :    411.53s CPU    414.11s WALL (    4551 calls)
     add_vuspsi   :     57.35s CPU     57.71s WALL (    4551 calls)

     General routines
     calbec       :     66.55s CPU     67.02s WALL (    4751 calls)
     fft          :      1.30s CPU      1.60s WALL (     781 calls)
     ffts         :      0.08s CPU      0.11s WALL (      72 calls)
     fftw         :    418.10s CPU    420.67s WALL (  675028 calls)
 
     Parallel routines
 
     PWSCF        :  17m17.96s CPU  17m32.10s WALL

 
   This run was terminated on:  15:59:25  17Jul2026            

=------------------------------------------------------------------------------=
   JOB DONE.
=------------------------------------------------------------------------------=
