Ti O  Ti O  Ti O  Ti O 
1.0
        4.5936999321         0.0000000000         0.0000000000
        0.0000000000         2.9586999416         0.0000000000
        0.0000000000         0.0000000000        37.4780197144
   Ti    O
    6   12
Cartesian
     0.000000000         0.000000000        14.593699820
     2.296849829         1.479349883        16.890549902
     0.000000000         0.000000000        19.187399985
     2.296849829         1.479349883        21.484247834
     0.000000000         0.000000000        23.781097917
     2.296849829         1.479349883        26.077948000
     0.896782071         1.479349971        13.696918447
     1.400067758         0.000000000        15.993767413
     3.193631764         0.000000000        17.787333509
     0.896782071         1.479349971        18.290618612
     3.696917587         1.479349971        15.490483426
     1.400067758         0.000000000        20.587465344
     3.193631764         0.000000000        22.381032558
     0.896782071         1.479349971        22.884319895
     3.696917587         1.479349971        20.084186943
     1.400067758         0.000000000        25.181165510
     3.193631764         0.000000000        26.974730489
     3.696917587         1.479349971        24.677882640
