Ti O  Ti O  Ti O  Ti O  Ti O 
1.0
        4.5936999321         0.0000000000         0.0000000000
        0.0000000000         2.9586999416         0.0000000000
        0.0000000000         0.0000000000        42.0717163086
   Ti    O
   20   78
Cartesian
     0.000000000         0.000000000        14.593698565
     0.000000000         2.958699942        14.593698565
     4.593699932         0.000000000        14.593698565
     4.593699932         2.958699942        14.593698565
     2.296849829         1.479349883        16.890549732
     0.000000000         0.000000000        19.187397138
     0.000000000         2.958699942        19.187397138
     4.593699932         0.000000000        19.187397138
     4.593699932         2.958699942        19.187397138
     2.296849829         1.479349883        21.484247051
     0.000000000         0.000000000        23.781096965
     0.000000000         2.958699942        23.781096965
     4.593699932         0.000000000        23.781096965
     4.593699932         2.958699942        23.781096965
     2.296849829         1.479349883        26.077946878
     0.000000000         0.000000000        28.374796792
     0.000000000         2.958699942        28.374796792
     4.593699932         0.000000000        28.374796792
     4.593699932         2.958699942        28.374796792
     2.296849829         1.479349883        30.671646705
     0.896782071         1.479349971        13.696917009
     1.400067758         0.000000000        15.993765669
     1.400067758         2.958699942        15.993765669
     3.193631764         0.000000000        17.787328780
     3.193631764         2.958699942        17.787328780
     0.896782071         1.479349971        18.290619344
     3.696917587         1.479349971        15.490481374
     1.400067758         0.000000000        20.587465496
     1.400067758         2.958699942        20.587465496
     3.193631764         0.000000000        22.381029861
     3.193631764         2.958699942        22.381029861
     0.896782071         1.479349971        22.884316663
     3.696917587         1.479349971        20.084184963
     1.400067758         0.000000000        25.181164069
     1.400067758         2.958699942        25.181164069
     3.193631764         0.000000000        26.974727180
     3.193631764         2.958699942        26.974727180
     0.896782071         1.479349971        27.478018998
     3.696917587         1.479349971        24.677879774
     1.400067758         0.000000000        29.774863896
     1.400067758         2.958699942        29.774863896
     3.193631764         0.000000000        31.568427007
     3.193631764         2.958699942        31.568427007
     3.696917587         1.479349971        29.271582109
    -0.896782345        -1.479349971        15.490481374
    -0.896782345         1.479349971        15.490481374
     0.896782071        -1.479349971        13.696917009
    -0.896782345         4.438049912        15.490481374
     0.896782071         4.438049912        13.696917009
     3.696917587        -1.479349971        15.490481374
     5.490482003        -1.479349971        13.696917009
     5.490482003         1.479349971        13.696917009
     5.993767690         0.000000000        15.993765669
     3.696917587         4.438049912        15.490481374
     5.490482003         4.438049912        13.696917009
     5.993767690         2.958699942        15.993765669
    -0.896782345        -1.479349971        20.084184963
    -1.400068169         0.000000000        17.787328780
    -0.896782345         1.479349971        20.084184963
     0.896782071        -1.479349971        18.290619344
    -1.400068169         2.958699942        17.787328780
    -0.896782345         4.438049912        20.084184963
     0.896782071         4.438049912        18.290619344
     3.696917587        -1.479349971        20.084184963
     5.490482003        -1.479349971        18.290619344
     5.490482003         1.479349971        18.290619344
     5.993767690         0.000000000        20.587465496
     3.696917587         4.438049912        20.084184963
     5.490482003         4.438049912        18.290619344
     5.993767690         2.958699942        20.587465496
    -0.896782345        -1.479349971        24.677879774
    -1.400068169         0.000000000        22.381029861
    -0.896782345         1.479349971        24.677879774
     0.896782071        -1.479349971        22.884316663
    -1.400068169         2.958699942        22.381029861
    -0.896782345         4.438049912        24.677879774
     0.896782071         4.438049912        22.884316663
     3.696917587        -1.479349971        24.677879774
     5.490482003        -1.479349971        22.884316663
     5.490482003         1.479349971        22.884316663
     5.993767690         0.000000000        25.181164069
     3.696917587         4.438049912        24.677879774
     5.490482003         4.438049912        22.884316663
     5.993767690         2.958699942        25.181164069
    -0.896782345        -1.479349971        29.271582109
    -1.400068169         0.000000000        26.974727180
    -0.896782345         1.479349971        29.271582109
     0.896782071        -1.479349971        27.478018998
    -1.400068169         2.958699942        26.974727180
    -0.896782345         4.438049912        29.271582109
     0.896782071         4.438049912        27.478018998
     3.696917587        -1.479349971        29.271582109
     5.490482003        -1.479349971        27.478018998
     5.490482003         1.479349971        27.478018998
     5.993767690         0.000000000        29.774863896
     3.696917587         4.438049912        29.271582109
     5.490482003         4.438049912        27.478018998
     5.993767690         2.958699942        29.774863896
