Ti O  Ti O  Ti O  Ti O  Ti O  Ti O 
1.0
        4.5936999321         0.0000000000         0.0000000000
        0.0000000000         2.9586999416         0.0000000000
        0.0000000000         0.0000000000        46.6654167175
   Ti    O
   10   20
Cartesian
     0.000000000         0.000000000        14.593698690
     2.296849829         1.479349883        16.890549441
     0.000000000         0.000000000        19.187398801
     2.296849829         1.479349883        21.484245380
     0.000000000         0.000000000        23.781096131
     2.296849829         1.479349883        26.077946882
     0.000000000         0.000000000        28.374794851
     2.296849829         1.479349883        30.671645602
     0.000000000         0.000000000        32.968496353
     2.296849829         1.479349883        35.265347103
     0.896782071         1.479349971        13.696918974
     1.400067758         0.000000000        15.993765553
     3.193631764         0.000000000        17.787330548
     0.896782071         1.479349971        18.290616304
     3.696917587         1.479349971        15.490482579
     1.400067758         0.000000000        20.587465664
     3.193631764         0.000000000        22.381032050
     0.896782071         1.479349971        22.884315024
     3.696917587         1.479349971        20.084182690
     1.400067758         0.000000000        25.181162993
     3.193631764         0.000000000        26.974727988
     0.896782071         1.479349971        27.478019307
     3.696917587         1.479349971        24.677880019
     1.400067758         0.000000000        29.774864495
     3.193631764         0.000000000        31.568429490
     0.896782071         1.479349971        32.071715246
     3.696917587         1.479349971        29.271581521
     1.400067758         0.000000000        34.368565997
     3.193631764         0.000000000        36.162128210
     3.696917587         1.479349971        33.865285804
