Ti O  Ti O  Ti O  Ti O  Ti O  Ti O  Ti O  Ti O 
1.0
        4.5936999321         0.0000000000         0.0000000000
        0.0000000000         2.9586999416         0.0000000000
        0.0000000000         0.0000000000        55.8528175354
   Ti    O
   14   28
Cartesian
     0.000000000         0.000000000        14.593698572
     2.296849829         1.479349883        16.890549123
     0.000000000         0.000000000        19.187399674
     2.296849829         1.479349883        21.484246896
     0.000000000         0.000000000        23.781097447
     2.296849829         1.479349883        26.077947998
     0.000000000         0.000000000        28.374796885
     2.296849829         1.479349883        30.671647436
     0.000000000         0.000000000        32.968494657
     2.296849829         1.479349883        35.265348537
     0.000000000         0.000000000        37.562195759
     2.296849829         1.479349883        39.859046310
     0.000000000         0.000000000        42.155896861
     2.296849829         1.479349883        44.452747412
     0.896782071         1.479349971        13.696917345
     1.400067758         0.000000000        15.993766231
     3.193631764         0.000000000        17.787330351
     0.896782071         1.479349971        18.290618447
     3.696917587         1.479349971        15.490483129
     1.400067758         0.000000000        20.587465669
     3.193631764         0.000000000        22.381031453
     0.896782071         1.479349971        22.884317884
     3.696917587         1.479349971        20.084182566
     1.400067758         0.000000000        25.181165106
     3.193631764         0.000000000        26.974729225
     0.896782071         1.479349971        27.478018986
     3.696917587         1.479349971        24.677883668
     1.400067758         0.000000000        29.774864544
     3.193631764         0.000000000        31.568426998
     0.896782071         1.479349971        32.071715095
     3.696917587         1.479349971        29.271586435
     1.400067758         0.000000000        34.368565646
     3.193631764         0.000000000        36.162128100
     0.896782071         1.479349971        36.665419526
     3.696917587         1.479349971        33.865287537
     1.400067758         0.000000000        38.962266748
     3.193631764         0.000000000        40.755829202
     0.896782071         1.479349971        41.259117299
     3.696917587         1.479349971        38.458981980
     1.400067758         0.000000000        43.555964520
     3.193631764         0.000000000        45.349530304
     3.696917587         1.479349971        43.052683082
