Ti O  Ti O  Ti O  Ti O  Ti O  Ti O  Ti O 
 1.0000000000000000
     4.5937000000000001    0.0000000000000000    0.0000000000000000
     0.0000000000000000    2.9586999999999999    0.0000000000000000
     0.0000000000000000    0.0000000000000000   51.2591178859999985
 Ti  O   Ti  O   Ti  O   Ti  O   Ti  O   Ti  O   Ti  O  
   2   4   2   4   2   4   2   4   2   4   2   4   2   4
Cartesian
  0.0000000000000000  0.0000000000000000  9.9999999999999982
  2.2968499999999983  1.4793499999999997 12.2968499999999992
  1.4000678859999995  0.0000000000000000 11.4000678860000004
  3.1936321139999984  0.0000000000000000 13.1936321139999979
  0.8967821139999996  1.4793499999999997 13.6969178859999996
  3.6969178859999987  1.4793499999999997 10.8967821139999987
  0.0000000000000000  0.0000000000000000 14.5937000000000001
  2.2968499999999983  1.4793499999999997 16.8905499999999975
  1.4000678859999995  0.0000000000000000 15.9937678859999988
  3.1936321139999984  0.0000000000000000 17.7873321139999980
  0.8967821139999996  1.4793499999999997 18.2906178859999997
  3.6969178859999987  1.4793499999999997 15.4904821139999989
  0.0000000000000000  0.0000000000000000 19.1873999999999967
  2.2968499999999983  1.4793499999999997 21.4842499999999994
  1.4000678859999995  0.0000000000000000 20.5874678859999989
  3.1936321139999984  0.0000000000000000 22.3810321139999999
  0.8967821139999996  1.4793499999999997 22.8843178859999981
  3.6969178859999987  1.4793499999999997 20.0841821140000008
  0.0000000000000000  0.0000000000000000 23.7810999999999986
  2.2968499999999983  1.4793499999999997 26.0779500000000013
  1.4000678859999995  0.0000000000000000 25.1811678860000008
  3.1936321139999984  0.0000000000000000 26.9747321139999983
  0.8967821139999996  1.4793499999999997 27.4780178859999964
  3.6969178859999987  1.4793499999999997 24.6778821139999991
  0.0000000000000000  0.0000000000000000 28.3748000000000005
  2.2968499999999983  1.4793499999999997 30.6716499999999996
  1.4000678859999995  0.0000000000000000 29.7748678859999956
  3.1936321139999984  0.0000000000000000 31.5684321139999966
  0.8967821139999996  1.4793499999999997 32.0717178860000018
  3.6969178859999987  1.4793499999999997 29.2715821139999974
  0.0000000000000000  0.0000000000000000 32.9684999999999988
  2.2968499999999983  1.4793499999999997 35.2653499999999980
  1.4000678859999995  0.0000000000000000 34.3685678859999939
  3.1936321139999984  0.0000000000000000 36.1621321139999949
  0.8967821139999996  1.4793499999999997 36.6654178860000002
  3.6969178859999987  1.4793499999999997 33.8652821139999958
  0.0000000000000000  0.0000000000000000 37.5621999999999971
  2.2968499999999983  1.4793499999999997 39.8590499999999963
  1.4000678859999995  0.0000000000000000 38.9622678859999994
  3.1936321139999984  0.0000000000000000 40.7558321140000075
  0.8967821139999996  1.4793499999999997 41.2591178859999985
  3.6969178859999987  1.4793499999999997 38.4589821140000083
