Ti O  Ti O  Ti O  Ti O  Ti O  Ti O  Ti O  Ti O  Ti O 
 1.0000000000000000
     4.5937000000000001    0.0000000000000000    0.0000000000000000
     0.0000000000000000    2.9586999999999999    0.0000000000000000
     0.0000000000000000    0.0000000000000000   60.4465178860000023
 Ti  O   Ti  O   Ti  O   Ti  O   Ti  O   Ti  O   Ti  O   Ti  O   Ti  O  
   2   4   2   4   2   4   2   4   2   4   2   4   2   4   2   4   2   4
Cartesian
  0.0000000000000000  0.0000000000000000 10.0000000000000000
  2.2968499999999983  1.4793499999999997 12.2968499999999992
  1.4000678859999995  0.0000000000000000 11.4000678860000004
  3.1936321139999984  0.0000000000000000 13.1936321140000015
  0.8967821139999996  1.4793499999999997 13.6969178860000014
  3.6969178859999987  1.4793499999999997 10.8967821140000005
  0.0000000000000000  0.0000000000000000 14.5937000000000001
  2.2968499999999983  1.4793499999999997 16.8905500000000011
  1.4000678859999995  0.0000000000000000 15.9937678860000005
  3.1936321139999984  0.0000000000000000 17.7873321139999980
  0.8967821139999996  1.4793499999999997 18.2906178859999997
  3.6969178859999987  1.4793499999999997 15.4904821140000024
  0.0000000000000000  0.0000000000000000 19.1874000000000002
  2.2968499999999983  1.4793499999999997 21.4842500000000030
  1.4000678859999995  0.0000000000000000 20.5874678860000024
  3.1936321139999984  0.0000000000000000 22.3810321139999999
  0.8967821139999996  1.4793499999999997 22.8843178860000016
  3.6969178859999987  1.4793499999999997 20.0841821140000043
  0.0000000000000000  0.0000000000000000 23.7811000000000021
  2.2968499999999983  1.4793499999999997 26.0779500000000048
  1.4000678859999995  0.0000000000000000 25.1811678860000008
  3.1936321139999984  0.0000000000000000 26.9747321139999983
  0.8967821139999996  1.4793499999999997 27.4780178859999999
  3.6969178859999987  1.4793499999999997 24.6778821139999991
  0.0000000000000000  0.0000000000000000 28.3748000000000005
  2.2968499999999983  1.4793499999999997 30.6716500000000032
  1.4000678859999995  0.0000000000000000 29.7748678859999991
  3.1936321139999984  0.0000000000000000 31.5684321140000037
  0.8967821139999996  1.4793499999999997 32.0717178860000018
  3.6969178859999987  1.4793499999999997 29.2715821140000010
  0.0000000000000000  0.0000000000000000 32.9685000000000059
  2.2968499999999983  1.4793499999999997 35.2653499999999980
  1.4000678859999995  0.0000000000000000 34.3685678859999939
  3.1936321139999984  0.0000000000000000 36.1621321140000092
  0.8967821139999996  1.4793499999999997 36.6654178860000002
  3.6969178859999987  1.4793499999999997 33.8652821139999958
  0.0000000000000000  0.0000000000000000 37.5622000000000043
  2.2968499999999983  1.4793499999999997 39.8590499999999963
  1.4000678859999995  0.0000000000000000 38.9622678859999994
  3.1936321139999984  0.0000000000000000 40.7558321140000004
  0.8967821139999996  1.4793499999999997 41.2591178859999985
  3.6969178859999987  1.4793499999999997 38.4589821140000012
  0.0000000000000000  0.0000000000000000 42.1559000000000026
  2.2968499999999983  1.4793499999999997 44.4527500000000018
  1.4000678859999995  0.0000000000000000 43.5559678860000048
  3.1936321139999984  0.0000000000000000 45.3495321139999987
  0.8967821139999996  1.4793499999999997 45.8528178860000111
  3.6969178859999987  1.4793499999999997 43.0526821139999996
  0.0000000000000000  0.0000000000000000 46.7496000000000009
  2.2968499999999983  1.4793499999999997 49.0464500000000001
  1.4000678859999995  0.0000000000000000 48.1496678860000102
  3.1936321139999984  0.0000000000000000 49.9432321139999971
  0.8967821139999996  1.4793499999999997 50.4465178860000023
  3.6969178859999987  1.4793499999999997 47.6463821139999979
