Ti O  Ti O  Ti O  Ti O  Ti O 
 1.0000000000000000
     4.5937000000000001    0.0000000000000000    0.0000000000000000
     0.0000000000000000    2.9586999999999999    0.0000000000000000
     0.0000000000000000    0.0000000000000000   42.0717178860000018
 Ti  O   Ti  O   Ti  O   Ti  O   Ti  O  
   2   4   2   4   2   4   2   4   2   4
Cartesian
  0.0000000000000000  0.0000000000000000 10.0000000000000000
  2.2968499999999983  1.4793499999999997 12.2968499999999974
  1.4000678859999995  0.0000000000000000 11.4000678860000004
  3.1936321139999984  0.0000000000000000 13.1936321139999997
  0.8967821139999996  1.4793499999999997 13.6969178860000014
  3.6969178859999987  1.4793499999999997 10.8967821140000005
  0.0000000000000000  0.0000000000000000 14.5936999999999983
  2.2968499999999983  1.4793499999999997 16.8905499999999975
  1.4000678859999995  0.0000000000000000 15.9937678859999988
  3.1936321139999984  0.0000000000000000 17.7873321140000016
  0.8967821139999996  1.4793499999999997 18.2906178859999997
  3.6969178859999987  1.4793499999999997 15.4904821140000006
  0.0000000000000000  0.0000000000000000 19.1874000000000002
  2.2968499999999983  1.4793499999999997 21.4842499999999959
  1.4000678859999995  0.0000000000000000 20.5874678859999989
  3.1936321139999984  0.0000000000000000 22.3810321139999999
  0.8967821139999996  1.4793499999999997 22.8843178860000052
  3.6969178859999987  1.4793499999999997 20.0841821140000008
  0.0000000000000000  0.0000000000000000 23.7810999999999986
  2.2968499999999983  1.4793499999999997 26.0779499999999977
  1.4000678859999995  0.0000000000000000 25.1811678860000043
  3.1936321139999984  0.0000000000000000 26.9747321139999983
  0.8967821139999996  1.4793499999999997 27.4780178859999964
  3.6969178859999987  1.4793499999999997 24.6778821139999991
  0.0000000000000000  0.0000000000000000 28.3748000000000005
  2.2968499999999983  1.4793499999999997 30.6716499999999996
  1.4000678859999995  0.0000000000000000 29.7748678859999991
  3.1936321139999984  0.0000000000000000 31.5684321140000002
  0.8967821139999996  1.4793499999999997 32.0717178859999947
  3.6969178859999987  1.4793499999999997 29.2715821140000010
