Ti O  Ti O  Ti O  Ti O 
 1.0000000000000000
     4.5937000000000001    0.0000000000000000    0.0000000000000000
     0.0000000000000000    2.9586999999999999    0.0000000000000000
     0.0000000000000000    0.0000000000000000   37.4780178859999893
 Ti  O   Ti  O   Ti  O   Ti  O  
   2   4   2   4   2   4   2   4
Cartesian
  0.0000000000000000  0.0000000000000000  9.9999999999999982
  2.2968499999999983  1.4793499999999997 12.2968499999999974
  1.4000678859999995  0.0000000000000000 11.4000678860000004
  3.1936321139999984  0.0000000000000000 13.1936321139999979
  0.8967821139999996  1.4793499999999997 13.6969178859999978
  3.6969178859999987  1.4793499999999997 10.8967821139999987
  0.0000000000000000  0.0000000000000000 14.5936999999999983
  2.2968499999999983  1.4793499999999997 16.8905499999999975
  1.4000678859999995  0.0000000000000000 15.9937678859999970
  3.1936321139999984  0.0000000000000000 17.7873321139999980
  0.8967821139999996  1.4793499999999997 18.2906178859999962
  3.6969178859999987  1.4793499999999997 15.4904821140000006
  0.0000000000000000  0.0000000000000000 19.1873999999999967
  2.2968499999999983  1.4793499999999997 21.4842499999999994
  1.4000678859999995  0.0000000000000000 20.5874678859999989
  3.1936321139999984  0.0000000000000000 22.3810321139999964
  0.8967821139999996  1.4793499999999997 22.8843178860000016
  3.6969178859999987  1.4793499999999997 20.0841821139999972
  0.0000000000000000  0.0000000000000000 23.7810999999999950
  2.2968499999999983  1.4793499999999997 26.0779499999999942
  1.4000678859999995  0.0000000000000000 25.1811678859999972
  3.1936321139999984  0.0000000000000000 26.9747321139999947
  0.8967821139999996  1.4793499999999997 27.4780178859999893
  3.6969178859999987  1.4793499999999997 24.6778821139999955
