
     Program PWSCF v.7.1 starts on 13Jul2026 at 13:58:19 

     This program is part of the open-source Quantum ESPRESSO suite
     for quantum simulation of materials; please cite
         "P. Giannozzi et al., J. Phys.:Condens. Matter 21 395502 (2009);
         "P. Giannozzi et al., J. Phys.:Condens. Matter 29 465901 (2017);
         "P. Giannozzi et al., J. Chem. Phys. 152 154105 (2020);
          URL http://www.quantum-espresso.org", 
     in publications or presentations arising from this work. More details at
     http://www.quantum-espresso.org/quote

     Parallel version (MPI), running on    36 processors

     MPI processes distributed on     1 nodes
     162258 MiB available memory on the printing compute node when the environment starts
 
     Waiting for input...
     Reading input from standard input

     Current dimensions of program PWSCF are:
     Max number of different atomic species (ntypx) = 10
     Max number of k-points (npk) =  40000
     Max angular momentum in pseudopotentials (lmaxx) =  4
     Message from routine setup:
     using ibrav=0 with symmetry is DISCOURAGED, use correct ibrav instead
 
     K-points division:     npool     =       3
     R & G space division:  proc/nbgrp/npool/nimage =      12
     Subspace diagonalization in iterative solution of the eigenvalue problem:
     a serial algorithm will be used

 
     Parallelization info
     --------------------
     sticks:   dense  smooth     PW     G-vecs:    dense   smooth      PW
     Min         114     114     34                 2214     2214     359
     Max         115     115     36                 2217     2217     360
     Sum        1369    1369    421                26589    26589    4315
 
     Using Slab Decomposition
 


     bravais-lattice index     =            0
     lattice parameter (alat)  =       8.4977  a.u.
     unit-cell volume          =     423.6931 (a.u.)^3
     number of atoms/cell      =            6
     number of atomic types    =            2
     number of electrons       =        56.00
     number of Kohn-Sham states=           28
     kinetic-energy cutoff     =      60.0000  Ry
     charge density cutoff     =     240.0000  Ry
     scf convergence threshold =      1.0E-06
     mixing beta               =       0.7000
     number of iterations used =            8  plain     mixing
     Exchange-correlation= PBE
                           (   1   4   3   4   0   0   0)

     celldm(1)=   8.497720  celldm(2)=   0.000000  celldm(3)=   0.000000
     celldm(4)=   0.000000  celldm(5)=   0.000000  celldm(6)=   0.000000

     crystal axes: (cart. coord. in units of alat)
               a(1) = (   1.000000   0.000000   0.000000 )  
               a(2) = (   0.000000   1.000000   0.000000 )  
               a(3) = (   0.000000   0.000000   0.690469 )  

     reciprocal axes: (cart. coord. in units 2 pi/alat)
               b(1) = (  1.000000  0.000000  0.000000 )  
               b(2) = (  0.000000  1.000000  0.000000 )  
               b(3) = (  0.000000  0.000000  1.448291 )  


     PseudoPot. # 1 for Ru read from file:
     ./Ru_ONCV_PBE-1.2.upf
     MD5 check sum: 197966c748556f6a714a34a8c7eb0781
     Pseudo is Norm-conserving, Zval = 16.0
     Generated using ONCVPSP code by D. R. Hamann
     Using radial grid of  602 points,  6 beta functions with: 
                l(1) =   0
                l(2) =   0
                l(3) =   1
                l(4) =   1
                l(5) =   2
                l(6) =   2

     PseudoPot. # 2 for O  read from file:
     ./O_ONCV_PBE-1.2.upf
     MD5 check sum: e36c48deb68f4e355fffe4602be2c42c
     Pseudo is Norm-conserving, Zval =  6.0
     Generated using ONCVPSP code by D. R. Hamann
     Using radial grid of  602 points,  4 beta functions with: 
                l(1) =   0
                l(2) =   0
                l(3) =   1
                l(4) =   1

     atomic species   valence    mass     pseudopotential
        Ru            16.00   101.07000     Ru( 1.00)
        O              6.00    15.99900     O ( 1.00)

     16 Sym. Ops., with inversion, found ( 8 have fractional translation)



   Cartesian axes

     site n.     atom                  positions (alat units)
         1           Ru  tau(   1) = (   0.0000000   0.0000000   0.0000000  )
         2           Ru  tau(   2) = (   0.5000000   0.5000000   0.3452344  )
         3           O   tau(   3) = (   0.3053000   0.3053000   0.0000000  )
         4           O   tau(   4) = (   0.6947000   0.6947000   0.0000000  )
         5           O   tau(   5) = (   0.8053000   0.1947000   0.3452344  )
         6           O   tau(   6) = (   0.1947000   0.8053000   0.3452344  )

     number of k points=    48
                       cart. coord. in units 2pi/alat
        k(    1) = (   0.0000000   0.0000000   0.0000000), wk =   0.0083333
        k(    2) = (   0.0000000   0.0000000   0.0965528), wk =   0.0166667
        k(    3) = (   0.0000000   0.0000000   0.1931055), wk =   0.0166667
        k(    4) = (   0.0000000   0.0000000   0.2896583), wk =   0.0166667
        k(    5) = (   0.0000000   0.0000000   0.3862110), wk =   0.0166667
        k(    6) = (   0.0000000   0.0000000   0.4827638), wk =   0.0166667
        k(    7) = (   0.0000000   0.0000000   0.5793166), wk =   0.0166667
        k(    8) = (   0.0000000   0.0000000   0.6758693), wk =   0.0166667
        k(    9) = (   0.0000000   0.2500000   0.0000000), wk =   0.0333333
        k(   10) = (   0.0000000   0.2500000   0.0965528), wk =   0.0666667
        k(   11) = (   0.0000000   0.2500000   0.1931055), wk =   0.0666667
        k(   12) = (   0.0000000   0.2500000   0.2896583), wk =   0.0666667
        k(   13) = (   0.0000000   0.2500000   0.3862110), wk =   0.0666667
        k(   14) = (   0.0000000   0.2500000   0.4827638), wk =   0.0666667
        k(   15) = (   0.0000000   0.2500000   0.5793166), wk =   0.0666667
        k(   16) = (   0.0000000   0.2500000   0.6758693), wk =   0.0666667
        k(   17) = (   0.0000000  -0.5000000   0.0000000), wk =   0.0166667
        k(   18) = (   0.0000000  -0.5000000   0.0965528), wk =   0.0333333
        k(   19) = (   0.0000000  -0.5000000   0.1931055), wk =   0.0333333
        k(   20) = (   0.0000000  -0.5000000   0.2896583), wk =   0.0333333
        k(   21) = (   0.0000000  -0.5000000   0.3862110), wk =   0.0333333
        k(   22) = (   0.0000000  -0.5000000   0.4827638), wk =   0.0333333
        k(   23) = (   0.0000000  -0.5000000   0.5793166), wk =   0.0333333
        k(   24) = (   0.0000000  -0.5000000   0.6758693), wk =   0.0333333
        k(   25) = (   0.2500000   0.2500000   0.0000000), wk =   0.0333333
        k(   26) = (   0.2500000   0.2500000   0.0965528), wk =   0.0666667
        k(   27) = (   0.2500000   0.2500000   0.1931055), wk =   0.0666667
        k(   28) = (   0.2500000   0.2500000   0.2896583), wk =   0.0666667
        k(   29) = (   0.2500000   0.2500000   0.3862110), wk =   0.0666667
        k(   30) = (   0.2500000   0.2500000   0.4827638), wk =   0.0666667
        k(   31) = (   0.2500000   0.2500000   0.5793166), wk =   0.0666667
        k(   32) = (   0.2500000   0.2500000   0.6758693), wk =   0.0666667
        k(   33) = (   0.2500000  -0.5000000   0.0000000), wk =   0.0333333
        k(   34) = (   0.2500000  -0.5000000   0.0965528), wk =   0.0666667
        k(   35) = (   0.2500000  -0.5000000   0.1931055), wk =   0.0666667
        k(   36) = (   0.2500000  -0.5000000   0.2896583), wk =   0.0666667
        k(   37) = (   0.2500000  -0.5000000   0.3862110), wk =   0.0666667
        k(   38) = (   0.2500000  -0.5000000   0.4827638), wk =   0.0666667
        k(   39) = (   0.2500000  -0.5000000   0.5793166), wk =   0.0666667
        k(   40) = (   0.2500000  -0.5000000   0.6758693), wk =   0.0666667
        k(   41) = (  -0.5000000  -0.5000000   0.0000000), wk =   0.0083333
        k(   42) = (  -0.5000000  -0.5000000   0.0965528), wk =   0.0166667
        k(   43) = (  -0.5000000  -0.5000000   0.1931055), wk =   0.0166667
        k(   44) = (  -0.5000000  -0.5000000   0.2896583), wk =   0.0166667
        k(   45) = (  -0.5000000  -0.5000000   0.3862110), wk =   0.0166667
        k(   46) = (  -0.5000000  -0.5000000   0.4827638), wk =   0.0166667
        k(   47) = (  -0.5000000  -0.5000000   0.5793166), wk =   0.0166667
        k(   48) = (  -0.5000000  -0.5000000   0.6758693), wk =   0.0166667

     Dense  grid:    26589 G-vectors     FFT dimensions: (  48,  48,  30)

     Estimated max dynamical RAM per process >       6.90 MB

     Estimated total dynamical RAM >     235.31 MB

     Initial potential from superposition of free atoms

     starting charge      55.8739, renormalised to      56.0000
     Starting wfcs are random

     total cpu time spent up to now is        0.1 secs

     per-process dynamical memory:   112.5 Mb

     Self-consistent Calculation

     iteration #  1     ecut=    60.00 Ry     beta= 0.70
     Davidson diagonalization with overlap
     ethr =  1.00E-02,  avg # of iterations = 10.3

     total cpu time spent up to now is        0.6 secs

     total energy              =    -504.25492413 Ry
     estimated scf accuracy    <       0.93498638 Ry

     iteration #  2     ecut=    60.00 Ry     beta= 0.70
     Davidson diagonalization with overlap
     ethr =  1.67E-03,  avg # of iterations =  6.7

     total cpu time spent up to now is        0.9 secs

     total energy              =    -504.21028606 Ry
     estimated scf accuracy    <       4.00022167 Ry

     iteration #  3     ecut=    60.00 Ry     beta= 0.70
     Davidson diagonalization with overlap
     ethr =  1.67E-03,  avg # of iterations =  6.0

     total cpu time spent up to now is        1.2 secs

     total energy              =    -504.87757940 Ry
     estimated scf accuracy    <       0.02160656 Ry

     iteration #  4     ecut=    60.00 Ry     beta= 0.70
     Davidson diagonalization with overlap
     c_bands:  1 eigenvalues not converged
     ethr =  3.86E-05,  avg # of iterations =  5.0

     total cpu time spent up to now is        1.4 secs

     total energy              =    -504.88922667 Ry
     estimated scf accuracy    <       0.01397380 Ry

     iteration #  5     ecut=    60.00 Ry     beta= 0.70
     Davidson diagonalization with overlap
     ethr =  2.50E-05,  avg # of iterations =  4.9

     total cpu time spent up to now is        1.6 secs

     total energy              =    -504.89290389 Ry
     estimated scf accuracy    <       0.00033988 Ry

     iteration #  6     ecut=    60.00 Ry     beta= 0.70
     Davidson diagonalization with overlap
     ethr =  6.07E-07,  avg # of iterations =  7.1

     total cpu time spent up to now is        1.9 secs

     total energy              =    -504.89488372 Ry
     estimated scf accuracy    <       0.00004930 Ry

     iteration #  7     ecut=    60.00 Ry     beta= 0.70
     Davidson diagonalization with overlap
     ethr =  8.80E-08,  avg # of iterations =  4.5

     total cpu time spent up to now is        2.1 secs

     total energy              =    -504.89488680 Ry
     estimated scf accuracy    <       0.00002325 Ry

     iteration #  8     ecut=    60.00 Ry     beta= 0.70
     Davidson diagonalization with overlap
     ethr =  4.15E-08,  avg # of iterations =  5.9

     total cpu time spent up to now is        2.4 secs

     End of self-consistent calculation

          k = 0.0000 0.0000 0.0000 (  3363 PWs)   bands (ev):

   -60.3143 -60.3075 -30.5892 -30.5892 -30.1615 -30.1615 -30.1593 -30.1350
    -7.0430  -6.0091  -5.0431  -5.0431   4.7079   4.8483   5.9651   6.3778
     6.3778   8.9445   8.9611   8.9611  10.4179  10.8488  10.8488  11.3822
    11.6447  11.7591  11.8478  11.8478

          k = 0.0000 0.0000 0.0966 (  3359 PWs)   bands (ev):

   -60.3138 -60.3071 -30.5885 -30.5885 -30.1670 -30.1603 -30.1603 -30.1433
    -7.0030  -5.9875  -5.0670  -5.0670   4.7546   4.9092   6.0114   6.3910
     6.3910   8.7968   9.0130   9.0130  10.1587  10.6207  10.6207  11.3421
    11.7520  11.8383  12.0708  12.0708

          k = 0.0000 0.0000 0.1931 (  3351 PWs)   bands (ev):

   -60.3123 -60.3061 -30.5866 -30.5866 -30.1888 -30.1668 -30.1568 -30.1568
    -6.8897  -5.9260  -5.1338  -5.1338   4.8843   5.0873   6.1518   6.4350
     6.4350   8.4315   9.1515   9.1515   9.6194  10.1898  10.1898  11.1571
    11.7922  12.1785  12.3396  12.4878

          k = 0.0000 0.0000 0.2897 (  3327 PWs)   bands (ev):

   -60.3100 -60.3045 -30.5839 -30.5839 -30.2206 -30.2012 -30.1517 -30.1517
    -6.7126  -5.8409  -5.2309  -5.2309   5.0814   5.3584   6.3816   6.5169
     6.5169   7.9624   9.0405   9.3180   9.3180   9.7586   9.7586  10.8087
    11.9214  12.3580  12.4863  12.9228

          k = 0.0000 0.0000 0.3862 (  3318 PWs)   bands (ev):

   -60.3074 -60.3028 -30.5807 -30.5807 -30.2566 -30.2408 -30.1458 -30.1458
    -6.4950  -5.7545  -5.3405  -5.3405   5.3137   5.6745   6.6375   6.6375
     6.6956   7.5167   8.4992   9.2040   9.2040   9.6314   9.6314  10.3405
    12.1216  12.3560  12.7088  13.3234

          k = 0.0000 0.0000 0.4828 (  3330 PWs)   bands (ev):

   -60.3047 -60.3013 -30.5777 -30.5777 -30.2905 -30.2788 -30.1402 -30.1402
    -6.2614  -5.6937  -5.4436  -5.4436   5.5400   5.9430   6.7902   6.7902
     7.0890   7.2085   8.0506   8.8368   8.8368   9.7656   9.7656   9.7979
    12.3589  12.3766  12.8176  13.6612

          k = 0.0000 0.0000 0.5793 (  3334 PWs)   bands (ev):

   -60.3024 -60.3003 -30.5753 -30.5753 -30.3162 -30.3090 -30.1358 -30.1358
    -6.0397  -5.6828  -5.5221  -5.5221   5.7247   6.0335   6.9532   6.9532
     7.1522   7.5532   7.7238   8.5181   8.5181   9.2206   9.8697   9.8697
    12.4042  12.6758  12.7977  13.6998

          k = 0.0000 0.0000 0.6759 (  3326 PWs)   bands (ev):

   -60.3009 -60.3001 -30.5740 -30.5740 -30.3291 -30.3266 -30.1333 -30.1333
    -5.8573  -5.7350  -5.5647  -5.5647   5.8592   5.9663   7.0728   7.0728
     7.2954   7.4888   8.0753   8.3229   8.3229   8.6385   9.9217   9.9217
    12.5155  12.6714  13.0062  13.3523

          k = 0.0000 0.2500 0.0000 (  3317 PWs)   bands (ev):

   -60.3133 -60.3085 -30.5879 -30.5878 -30.1636 -30.1635 -30.1557 -30.1386
    -6.8151  -5.9642  -5.3055  -5.1756   5.1526   5.3418   6.4017   6.4278
     6.4505   8.2393   8.3807   8.7995   9.6060   9.6944  10.4022  11.1382
    12.1622  12.3044  12.5020  12.5237

          k = 0.0000 0.2500 0.0966 (  3323 PWs)   bands (ev):

   -60.3128 -60.3081 -30.5874 -30.5873 -30.1648 -30.1626 -30.1609 -30.1464
    -6.7793  -5.9382  -5.3271  -5.1964   5.1943   5.3887   6.3269   6.4288
     6.5899   8.2850   8.4244   8.6323   9.3308   9.7952  10.3704  11.1083
    12.1656  12.3418  12.4015  12.7379

          k = 0.0000 0.2500 0.1931 (  3328 PWs)   bands (ev):

   -60.3114 -60.3070 -30.5858 -30.5857 -30.1858 -30.1715 -30.1580 -30.1569
    -6.6764  -5.8680  -5.3858  -5.2529   5.3149   5.5193   6.3074   6.4467
     6.8095   8.1704   8.3261   8.6077   8.9744   9.7983  10.2191  11.0080
    12.0252  12.4978  12.5738  12.8781

          k = 0.0000 0.2500 0.2897 (  3326 PWs)   bands (ev):

   -60.3092 -60.3053 -30.5836 -30.5835 -30.2176 -30.2044 -30.1526 -30.1523
    -6.5207  -5.7743  -5.4642  -5.3315   5.4864   5.6989   6.3712   6.5066
     7.0912   7.6947   8.0591   8.7853   8.9357   9.6824   9.9599  10.8766
    11.8369  12.7282  12.8194  12.9016

          k = 0.0000 0.2500 0.3862 (  3323 PWs)   bands (ev):

   -60.3067 -60.3035 -30.5811 -30.5810 -30.2538 -30.2430 -30.1464 -30.1462
    -6.3384  -5.7119  -5.5133  -5.4112   5.6637   5.8846   6.4414   6.6147
     7.3526   7.4458   7.6490   8.9033   9.0939   9.4702   9.7044  10.6706
    11.7627  12.8036  12.9528  12.9536

          k = 0.0000 0.2500 0.4828 (  3327 PWs)   bands (ev):

   -60.3042 -60.3018 -30.5788 -30.5786 -30.2879 -30.2799 -30.1404 -30.1402
    -6.1634  -5.7528  -5.4731  -5.4660   5.7939   6.0515   6.3237   6.6946
     7.4010   7.4059   7.8371   8.8379   9.1105   9.3456   9.5902  10.3241
    11.8713  12.6968  12.9456  12.9919

          k = 0.0000 0.2500 0.5793 (  3344 PWs)   bands (ev):

   -60.3021 -60.3006 -30.5770 -30.5769 -30.3139 -30.3090 -30.1356 -30.1356
    -6.0320  -5.8277  -5.4738  -5.4233   5.8450   6.0455   6.2702   6.6342
     7.4801   7.6902   8.1898   8.7036   8.8509   9.4194   9.5935   9.9065
    12.0908  12.5984  12.8312  12.8627

          k = 0.0000 0.2500 0.6759 (  3332 PWs)   bands (ev):

   -60.3007 -60.3002 -30.5761 -30.5760 -30.3272 -30.3255 -30.1330 -30.1330
    -5.9517  -5.8927  -5.4406  -5.4125   5.8546   5.9085   6.4052   6.5258
     7.7166   7.8882   8.2983   8.5539   8.9283   9.3136   9.6079   9.6290
    12.3529  12.5666  12.6458  12.6824

          k = 0.0000-0.5000 0.0000 (  3312 PWs)   bands (ev):

   -60.3109 -60.3109 -30.5866 -30.5866 -30.1655 -30.1655 -30.1471 -30.1471
    -6.2589  -6.2589  -5.4323  -5.4323   5.9414   5.9414   6.5054   6.5054
     7.4350   7.4350   7.7490   7.7490   8.9301   8.9301  10.6066  10.6066
    12.6931  12.6931  12.8832  12.8832

          k = 0.0000-0.5000 0.0966 (  3318 PWs)   bands (ev):

   -60.3105 -60.3105 -30.5861 -30.5861 -30.1650 -30.1650 -30.1541 -30.1541
    -6.2287  -6.2287  -5.4500  -5.4500   6.0033   6.0033   6.4411   6.4411
     7.5015   7.5015   7.7873   7.7873   8.7823   8.7823  10.6499  10.6499
    12.5959  12.5959  13.0138  13.0138

          k = 0.0000-0.5000 0.1931 (  3322 PWs)   bands (ev):

   -60.3092 -60.3092 -30.5849 -30.5849 -30.1791 -30.1791 -30.1584 -30.1584
    -6.1450  -6.1450  -5.4960  -5.4960   6.1841   6.1841   6.3265   6.3265
     7.4820   7.4820   7.9514   7.9514   8.5569   8.5569  10.6537  10.6537
    12.5258  12.5258  13.1415  13.1415

          k = 0.0000-0.5000 0.2897 (  3336 PWs)   bands (ev):

   -60.3073 -60.3073 -30.5832 -30.5832 -30.2111 -30.2111 -30.1532 -30.1532
    -6.0336  -6.0336  -5.5493  -5.5493   6.2423   6.2423   6.4565   6.4565
     7.2000   7.2000   8.1295   8.1295   8.6062   8.6062  10.5305  10.5305
    12.4484  12.4484  13.1946  13.1946

          k = 0.0000-0.5000 0.3862 (  3324 PWs)   bands (ev):

   -60.3051 -60.3051 -30.5813 -30.5813 -30.2481 -30.2481 -30.1467 -30.1467
    -5.9477  -5.9477  -5.5616  -5.5616   6.2025   6.2025   6.5997   6.5997
     7.0082   7.0082   8.2691   8.2691   8.8488   8.8488  10.3552  10.3552
    12.2637  12.2637  13.1704  13.1704

          k = 0.0000-0.5000 0.4828 (  3334 PWs)   bands (ev):

   -60.3030 -60.3030 -30.5797 -30.5797 -30.2831 -30.2831 -30.1404 -30.1404
    -5.9399  -5.9399  -5.4948  -5.4948   6.1045   6.1045   6.3823   6.3823
     7.3438   7.3438   8.4028   8.4028   9.0453   9.0453  10.2283  10.2283
    11.9994  11.9994  13.0248  13.0248

          k = 0.0000-0.5000 0.5793 (  3330 PWs)   bands (ev):

   -60.3014 -60.3014 -30.5786 -30.5786 -30.3102 -30.3102 -30.1355 -30.1355
    -5.9728  -5.9728  -5.3990  -5.3990   5.8620   5.8620   6.3662   6.3662
     7.7148   7.7148   8.5403   8.5403   9.0780   9.0780  10.2353  10.2353
    11.7234  11.7234  12.8194  12.8194

          k = 0.0000-0.5000 0.6759 (  3330 PWs)   bands (ev):

   -60.3005 -60.3005 -30.5781 -30.5781 -30.3249 -30.3249 -30.1327 -30.1327
    -5.9982  -5.9982  -5.3377  -5.3377   5.7054   5.7054   6.3917   6.3917
     7.9439   7.9439   8.7065   8.7065   8.9499   8.9499  10.3259  10.3259
    11.5242  11.5242  12.6707  12.6707

          k = 0.2500 0.2500 0.0000 (  3337 PWs)   bands (ev):

   -60.3126 -60.3092 -30.5903 -30.5866 -30.1655 -30.1615 -30.1532 -30.1411
    -6.6865  -6.0071  -5.4710  -5.1174   4.7794   6.0032   6.3325   6.5046
     6.7660   7.4829   8.7925   8.8098   9.5678   9.8109  10.0529  10.8656
    11.8148  11.8664  12.7793  12.9001

          k = 0.2500 0.2500 0.0966 (  3325 PWs)   bands (ev):

   -60.3121 -60.3088 -30.5896 -30.5861 -30.1654 -30.1603 -30.1600 -30.1489
    -6.6516  -5.9772  -5.4906  -5.1402   4.8322   6.0658   6.2840   6.4428
     6.8685   7.6048   8.5251   8.8337   9.4677   9.8932  10.0557  10.7253
    11.8827  11.9600  12.7134  13.0475

          k = 0.2500 0.2500 0.1931 (  3330 PWs)   bands (ev):

   -60.3107 -60.3076 -30.5876 -30.5849 -30.1838 -30.1731 -30.1583 -30.1569
    -6.5526  -5.8944  -5.5463  -5.2049   4.9819   6.2156   6.2368   6.3435
     7.0966   7.8222   8.0345   8.9400   9.0652   9.9602  10.0261  10.5553
    12.0381  12.0473  12.7255  13.1913

          k = 0.2500 0.2500 0.2897 (  3331 PWs)   bands (ev):

   -60.3086 -60.3059 -30.5848 -30.5832 -30.2159 -30.2061 -30.1532 -30.1519
    -6.4043  -5.7740  -5.6242  -5.2983   5.2148   6.1893   6.2322   6.5467
     7.3661   7.3885   8.2085   8.5643   9.0665   9.6797  10.0177  10.5916
    11.9520  12.2607  12.8135  13.3359

          k = 0.2500 0.2500 0.3862 (  3327 PWs)   bands (ev):

   -60.3062 -60.3040 -30.5815 -30.5813 -30.2525 -30.2442 -30.1467 -30.1461
    -6.2334  -5.7216  -5.6204  -5.4035   5.4996   6.1991   6.2146   6.6972
     7.0305   7.7235   8.0517   8.4974   9.0501   9.4976   9.9092  10.6555
    11.8060  12.4565  12.9208  13.3342

          k = 0.2500 0.2500 0.4828 (  3326 PWs)   bands (ev):

   -60.3039 -60.3022 -30.5797 -30.5783 -30.2872 -30.2804 -30.1405 -30.1404
    -6.0803  -5.7792  -5.5026  -5.4908   5.7848   6.1668   6.2809   6.3672
     7.1863   7.8366   8.0829   8.6508   8.8025   9.5698   9.7720  10.5546
    11.7725  12.5708  12.9552  13.3134

          k = 0.2500 0.2500 0.5793 (  3322 PWs)   bands (ev):

   -60.3019 -60.3009 -30.5786 -30.5759 -30.3141 -30.3086 -30.1361 -30.1355
    -6.0076  -5.7730  -5.5789  -5.3874   5.8570   6.1355   6.2951   6.3617
     7.0379   8.0921   8.3581   8.6575   8.6985   9.6495   9.6613  10.2884
    11.8743  12.6071  12.8247  13.1200

          k = 0.2500 0.2500 0.6759 (  3322 PWs)   bands (ev):

   -60.3007 -60.3003 -30.5781 -30.5745 -30.3288 -30.3239 -30.1338 -30.1327
    -6.0049  -5.7296  -5.6202  -5.3314   5.7254   6.2550   6.3245   6.4197
     6.8802   8.3195   8.4066   8.6440   8.8610   9.5653   9.6638  10.0625
    11.9853  12.6191  12.6814  12.9594

          k = 0.2500-0.5000 0.0000 (  3334 PWs)   bands (ev):

   -60.3109 -60.3109 -30.5890 -30.5890 -30.1635 -30.1635 -30.1471 -30.1471
    -6.3489  -6.3489  -5.3028  -5.3028   5.2367   5.2367   6.3887   6.3887
     7.7519   7.7519   8.7605   8.7605   9.2897   9.2897  10.0876  10.0876
    12.3699  12.3699  12.4160  12.4160

          k = 0.2500-0.5000 0.0966 (  3320 PWs)   bands (ev):

   -60.3104 -60.3104 -30.5884 -30.5884 -30.1628 -30.1628 -30.1545 -30.1545
    -6.3175  -6.3175  -5.3221  -5.3221   5.2845   5.2845   6.3594   6.3594
     7.8148   7.8148   8.8007   8.8007   9.1008   9.1008  10.1198  10.1198
    12.3044  12.3044  12.5822  12.5822

          k = 0.2500-0.5000 0.1931 (  3322 PWs)   bands (ev):

   -60.3092 -60.3092 -30.5868 -30.5868 -30.1784 -30.1784 -30.1577 -30.1577
    -6.2312  -6.2312  -5.3755  -5.3755   5.4182   5.4182   6.3073   6.3073
     7.9203   7.9203   8.6853   8.6853   8.9684   8.9684  10.0887  10.0887
    12.3601  12.3601  12.7682  12.7682

          k = 0.2500-0.5000 0.2897 (  3310 PWs)   bands (ev):

   -60.3073 -60.3073 -30.5844 -30.5844 -30.2109 -30.2109 -30.1526 -30.1526
    -6.1074  -6.1074  -5.4469  -5.4469   5.6075   5.6075   6.2880   6.2880
     7.8036   7.8036   8.5535   8.5535   9.0745   9.0745  10.0190  10.0190
    12.4615  12.4615  12.8773  12.8773

          k = 0.2500-0.5000 0.3862 (  3310 PWs)   bands (ev):

   -60.3051 -60.3051 -30.5818 -30.5818 -30.2483 -30.2483 -30.1465 -30.1465
    -5.9800  -5.9800  -5.5104  -5.5104   5.7926   5.7926   6.3171   6.3171
     7.4893   7.4893   8.6782   8.6782   9.0659   9.0659  10.0730  10.0730
    12.4592  12.4592  12.8871  12.8871

          k = 0.2500-0.5000 0.4828 (  3328 PWs)   bands (ev):

   -60.3030 -60.3030 -30.5794 -30.5794 -30.2838 -30.2838 -30.1406 -30.1406
    -5.9014  -5.9014  -5.5240  -5.5240   5.9074   5.9074   6.3413   6.3413
     7.3167   7.3167   8.7066   8.7066   9.0791   9.0791  10.2365  10.2365
    12.3179  12.3179  12.8273  12.8273

          k = 0.2500-0.5000 0.5793 (  3324 PWs)   bands (ev):

   -60.3014 -60.3014 -30.5775 -30.5775 -30.3113 -30.3113 -30.1360 -30.1360
    -5.8907  -5.8907  -5.4791  -5.4791   5.9161   5.9161   6.3349   6.3349
     7.3653   7.3653   8.5583   8.5583   9.2408   9.2408  10.3875  10.3875
    12.1351  12.1351  12.7365  12.7365

          k = 0.2500-0.5000 0.6759 (  3322 PWs)   bands (ev):

   -60.3005 -60.3005 -30.5766 -30.5766 -30.3262 -30.3262 -30.1335 -30.1335
    -5.9026  -5.9026  -5.4355  -5.4355   5.8721   5.8721   6.3450   6.3450
     7.4641   7.4641   8.4408   8.4408   9.3620   9.3620  10.4660  10.4660
    12.0118  12.0118  12.6682  12.6682

          k =-0.5000-0.5000 0.0000 (  3308 PWs)   bands (ev):

   -60.3109 -60.3109 -30.5914 -30.5914 -30.1614 -30.1614 -30.1471 -30.1471
    -6.4200  -6.4200  -5.1882  -5.1882   4.7893   4.7893   6.2874   6.2874
     8.5975   8.5975   8.6365   8.6365   9.7249   9.7249  10.2622  10.2622
    11.7657  11.7657  11.8864  11.8864

          k =-0.5000-0.5000 0.0966 (  3308 PWs)   bands (ev):

   -60.3104 -60.3104 -30.5907 -30.5907 -30.1603 -30.1603 -30.1551 -30.1551
    -6.3879  -6.3879  -5.2108  -5.2108   4.8409   4.8409   6.2576   6.2576
     8.6663   8.6663   8.6916   8.6916   9.5373   9.5373  10.1492  10.1492
    11.8792  11.8792  12.0016  12.0016

          k =-0.5000-0.5000 0.1931 (  3296 PWs)   bands (ev):

   -60.3091 -60.3091 -30.5886 -30.5886 -30.1776 -30.1776 -30.1569 -30.1569
    -6.2977  -6.2977  -5.2724  -5.2724   4.9918   4.9918   6.1978   6.1978
     8.7530   8.7530   8.9172   8.9172   9.0869   9.0869   9.9077   9.9077
    12.1151  12.1151  12.2683  12.2683

          k =-0.5000-0.5000 0.2897 (  3320 PWs)   bands (ev):

   -60.3073 -60.3073 -30.5857 -30.5857 -30.2107 -30.2107 -30.1520 -30.1520
    -6.1644  -6.1644  -5.3633  -5.3633   5.2241   5.2241   6.1426   6.1426
     8.5383   8.5383   8.8877   8.8877   9.0703   9.0703   9.7759   9.7759
    12.3408  12.3408  12.5772  12.5772

          k =-0.5000-0.5000 0.3862 (  3328 PWs)   bands (ev):

   -60.3051 -60.3051 -30.5823 -30.5823 -30.2485 -30.2485 -30.1463 -30.1463
    -6.0086  -6.0086  -5.4648  -5.4648   5.5133   5.5133   6.1177   6.1177
     7.9975   7.9975   8.9171   8.9171   9.0608   9.0608   9.9824   9.9824
    12.5069  12.5069  12.8708  12.8708

          k =-0.5000-0.5000 0.4828 (  3296 PWs)   bands (ev):

   -60.3030 -60.3030 -30.5790 -30.5790 -30.2844 -30.2844 -30.1408 -30.1408
    -5.8549  -5.8549  -5.5594  -5.5594   5.8175   5.8175   6.1259   6.1259
     7.5341   7.5341   8.6682   8.6682   9.2484   9.2484  10.2932  10.2932
    12.6064  12.6064  13.0833  13.0833

          k =-0.5000-0.5000 0.5793 (  3308 PWs)   bands (ev):

   -60.3014 -60.3014 -30.5765 -30.5765 -30.3123 -30.3123 -30.1365 -30.1365
    -5.7335  -5.7335  -5.6338  -5.6338   6.0833   6.0833   6.1511   6.1511
     7.1819   7.1819   8.4600   8.4600   9.4116   9.4116  10.5340  10.5340
    12.6507  12.6507  12.8535  12.8535

          k =-0.5000-0.5000 0.6759 (  3300 PWs)   bands (ev):

   -60.3005 -60.3005 -30.5751 -30.5751 -30.3276 -30.3276 -30.1342 -30.1342
    -5.6731  -5.6731  -5.6663  -5.6663   6.1736   6.1736   6.2539   6.2539
     6.9796   6.9796   8.3444   8.3444   9.5121   9.5121  10.6633  10.6633
    12.6634  12.6634  12.7195  12.7195

     highest occupied level (ev):    13.6998

!    total energy              =    -504.89489550 Ry
     estimated scf accuracy    <       0.00000046 Ry

     The total energy is the sum of the following terms:
     one-electron contribution =    -163.54099591 Ry
     hartree contribution      =     112.47778713 Ry
     xc contribution           =     -67.47515751 Ry
     ewald contribution        =    -386.35652921 Ry

     convergence has been achieved in   8 iterations

     Forces acting on atoms (cartesian axes, Ry/au):

     atom    1 type  1   force =     0.00000000    0.00000000    0.00000000
     atom    2 type  1   force =     0.00000000    0.00000000   -0.00000000
     atom    3 type  2   force =     0.00506310    0.00506310   -0.00000000
     atom    4 type  2   force =    -0.00506310   -0.00506310   -0.00000000
     atom    5 type  2   force =     0.00506310   -0.00506310    0.00000000
     atom    6 type  2   force =    -0.00506310    0.00506310    0.00000000

     Total force =     0.014321     Total SCF correction =     0.000364
 
     init_run     :      0.06s CPU      0.06s WALL (       1 calls)
     electrons    :      2.17s CPU      2.26s WALL (       1 calls)
     forces       :      0.02s CPU      0.02s WALL (       1 calls)

     Called by init_run:
     wfcinit      :      0.04s CPU      0.04s WALL (       1 calls)
     potinit      :      0.01s CPU      0.01s WALL (       1 calls)
     hinit0       :      0.01s CPU      0.01s WALL (       1 calls)

     Called by electrons:
     c_bands      :      2.01s CPU      2.09s WALL (       8 calls)
     sum_band     :      0.13s CPU      0.14s WALL (       8 calls)
     v_of_rho     :      0.02s CPU      0.02s WALL (       9 calls)
     mix_rho      :      0.00s CPU      0.00s WALL (       8 calls)

     Called by c_bands:
     init_us_2    :      0.02s CPU      0.02s WALL (     288 calls)
     init_us_2:cp :      0.02s CPU      0.02s WALL (     288 calls)
     cegterg      :      1.67s CPU      1.72s WALL (     128 calls)

     Called by *egterg:
     cdiaghg      :      0.57s CPU      0.58s WALL (     936 calls)
     h_psi        :      0.91s CPU      0.94s WALL (     952 calls)
     g_psi        :      0.01s CPU      0.01s WALL (     808 calls)

     Called by h_psi:
     h_psi:calbec :      0.06s CPU      0.06s WALL (     952 calls)
     vloc_psi     :      0.81s CPU      0.83s WALL (     952 calls)
     add_vuspsi   :      0.04s CPU      0.04s WALL (     952 calls)

     General routines
     calbec       :      0.06s CPU      0.07s WALL (    1016 calls)
     fft          :      0.01s CPU      0.01s WALL (      91 calls)
     ffts         :      0.00s CPU      0.00s WALL (       8 calls)
     fftw         :      0.79s CPU      0.82s WALL (   31008 calls)
 
     Parallel routines
 
     PWSCF        :      2.27s CPU      2.41s WALL

 
   This run was terminated on:  13:58:22  13Jul2026            

=------------------------------------------------------------------------------=
   JOB DONE.
=------------------------------------------------------------------------------=
