../relax_2L_RuO2_top_side_on-5-layer-R-TiO2_100.vasp/output final
1.0
   4.712418216   0.000000000   0.000000000
   0.000000000   2.962688321   0.000000000
   0.000000000   0.000000000  55.852817535
   Ti    O   Ru
   12   28   2
Cartesian
              0.1575893060        0.0000000000       14.6037840420
              2.4714335800        1.4813440160       16.8410372720
              0.0902555106        0.0000000000       19.1971462881
              2.4344216053        1.4813440160       21.4598060678
              0.0668619161        0.0000000000       23.7912904348
              2.4142036188        1.4813440160       26.0634672810
              0.0496022226        0.0000000000       28.3873427882
              2.4026065200        1.4813440160       30.6676602347
              0.0434040977        0.0000000000       32.9820971987
              2.3975654174        1.4813440160       35.2681129119
              0.0391036100        0.0000000000       37.5728725883
              2.3932861279        1.4813440160       39.8625765257
              0.6143938240        1.4813440160       13.6002705982
              1.4130684529        0.0000000000       15.9458654710
              3.2430345565        0.0000000000       17.7630686101
              0.8732355478        1.4813440160       18.2669394324
              3.6702286463        1.4813440160       15.4238982699
              1.4441807454        0.0000000000       20.5585075074
              3.2417522174        0.0000000000       22.3864238658
              0.8836308061        1.4813440160       22.8627567562
              3.7923184705        1.4813440160       20.0916437169
              1.4514569640        0.0000000000       25.1538990683
              3.2406965033        0.0000000000       26.9917178414
              0.8840706787        1.4813440160       27.4576213255
              3.8036959585        1.4813440160       24.6961673959
              1.4565515357        0.0000000000       29.7556599123
              3.2554625823        0.0000000000       31.5901523169
              0.9025541465        1.4813440160       32.0605328795
              3.8098358195        1.4813440160       29.2963598174
              1.4651491245        0.0000000000       34.3614801232
              3.2794007407        0.0000000000       36.1815927667
              0.9317625419        1.4813440160       36.6635815820
              3.8194696370        1.4813440160       33.8868547899
              1.4784104717        0.0000000000       38.9718348127
              3.2860523975        0.0000000000       40.7844980592
              0.9451038390        1.4813440160       41.2739492896
              3.8435173661        1.4813440160       38.4791000180
              1.3705291000        0.0000000000       43.5968540748
              2.9160539267        0.0000000000       45.5003316087
              3.7848423672        1.4813440160       43.1294848379
              0.0120177682        0.0000000000       42.2036168859
              2.4212615660        1.4813440160       44.4355226144
