
     Program PWSCF v.7.1 starts on 13Jul2026 at 13:58:33 

     This program is part of the open-source Quantum ESPRESSO suite
     for quantum simulation of materials; please cite
         "P. Giannozzi et al., J. Phys.:Condens. Matter 21 395502 (2009);
         "P. Giannozzi et al., J. Phys.:Condens. Matter 29 465901 (2017);
         "P. Giannozzi et al., J. Chem. Phys. 152 154105 (2020);
          URL http://www.quantum-espresso.org", 
     in publications or presentations arising from this work. More details at
     http://www.quantum-espresso.org/quote

     Parallel version (MPI), running on    36 processors

     MPI processes distributed on     1 nodes
     179270 MiB available memory on the printing compute node when the environment starts
 
     Waiting for input...
     Reading input from standard input

     Current dimensions of program PWSCF are:
     Max number of different atomic species (ntypx) = 10
     Max number of k-points (npk) =  40000
     Max angular momentum in pseudopotentials (lmaxx) =  4
     Message from routine setup:
     using ibrav=0 with symmetry is DISCOURAGED, use correct ibrav instead
 
     K-points division:     npool     =       3
     R & G space division:  proc/nbgrp/npool/nimage =      12
     Subspace diagonalization in iterative solution of the eigenvalue problem:
     a serial algorithm will be used

 
     Parallelization info
     --------------------
     sticks:   dense  smooth     PW     G-vecs:    dense   smooth      PW
     Min         114     114     33                 2214     2214     353
     Max         115     115     34                 2217     2217     356
     Sum        1369    1369    405                26589    26589    4251
 
     Using Slab Decomposition
 


     bravais-lattice index     =            0
     lattice parameter (alat)  =       8.4977  a.u.
     unit-cell volume          =     423.6931 (a.u.)^3
     number of atoms/cell      =            6
     number of atomic types    =            2
     number of electrons       =        56.00
     number of Kohn-Sham states=           28
     kinetic-energy cutoff     =      60.0000  Ry
     charge density cutoff     =     240.0000  Ry
     scf convergence threshold =      1.0E-06
     mixing beta               =       0.7000
     number of iterations used =            8  plain     mixing
     Exchange-correlation= PBE
                           (   1   4   3   4   0   0   0)

     celldm(1)=   8.497720  celldm(2)=   0.000000  celldm(3)=   0.000000
     celldm(4)=   0.000000  celldm(5)=   0.000000  celldm(6)=   0.000000

     crystal axes: (cart. coord. in units of alat)
               a(1) = (   1.000000   0.000000   0.000000 )  
               a(2) = (   0.000000   1.000000   0.000000 )  
               a(3) = (   0.000000   0.000000   0.690469 )  

     reciprocal axes: (cart. coord. in units 2 pi/alat)
               b(1) = (  1.000000  0.000000  0.000000 )  
               b(2) = (  0.000000  1.000000  0.000000 )  
               b(3) = (  0.000000  0.000000  1.448291 )  


     PseudoPot. # 1 for Ru read from file:
     ./Ru_ONCV_PBE-1.2.upf
     MD5 check sum: 197966c748556f6a714a34a8c7eb0781
     Pseudo is Norm-conserving, Zval = 16.0
     Generated using ONCVPSP code by D. R. Hamann
     Using radial grid of  602 points,  6 beta functions with: 
                l(1) =   0
                l(2) =   0
                l(3) =   1
                l(4) =   1
                l(5) =   2
                l(6) =   2

     PseudoPot. # 2 for O  read from file:
     ./O_ONCV_PBE-1.2.upf
     MD5 check sum: e36c48deb68f4e355fffe4602be2c42c
     Pseudo is Norm-conserving, Zval =  6.0
     Generated using ONCVPSP code by D. R. Hamann
     Using radial grid of  602 points,  4 beta functions with: 
                l(1) =   0
                l(2) =   0
                l(3) =   1
                l(4) =   1

     atomic species   valence    mass     pseudopotential
        Ru            16.00   101.07000     Ru( 1.00)
        O              6.00    15.99900     O ( 1.00)

     16 Sym. Ops., with inversion, found ( 8 have fractional translation)



   Cartesian axes

     site n.     atom                  positions (alat units)
         1           Ru  tau(   1) = (   0.0000000   0.0000000   0.0000000  )
         2           Ru  tau(   2) = (   0.5000000   0.5000000   0.3452344  )
         3           O   tau(   3) = (   0.3053000   0.3053000   0.0000000  )
         4           O   tau(   4) = (   0.6947000   0.6947000   0.0000000  )
         5           O   tau(   5) = (   0.8053000   0.1947000   0.3452344  )
         6           O   tau(   6) = (   0.1947000   0.8053000   0.3452344  )

     number of k points=    84
                       cart. coord. in units 2pi/alat
        k(    1) = (   0.0000000   0.0000000   0.0000000), wk =   0.0023613
        k(    2) = (   0.0000000   0.0000000   0.2068988), wk =   0.0047226
        k(    3) = (   0.0000000   0.0000000   0.4137975), wk =   0.0047226
        k(    4) = (   0.0000000   0.0000000   0.6206963), wk =   0.0047226
        k(    5) = (   0.0000000   0.0909091   0.0000000), wk =   0.0094451
        k(    6) = (   0.0000000   0.0909091   0.2068988), wk =   0.0188902
        k(    7) = (   0.0000000   0.0909091   0.4137975), wk =   0.0188902
        k(    8) = (   0.0000000   0.0909091   0.6206963), wk =   0.0188902
        k(    9) = (   0.0000000   0.1818182   0.0000000), wk =   0.0094451
        k(   10) = (   0.0000000   0.1818182   0.2068988), wk =   0.0188902
        k(   11) = (   0.0000000   0.1818182   0.4137975), wk =   0.0188902
        k(   12) = (   0.0000000   0.1818182   0.6206963), wk =   0.0188902
        k(   13) = (   0.0000000   0.2727273   0.0000000), wk =   0.0094451
        k(   14) = (   0.0000000   0.2727273   0.2068988), wk =   0.0188902
        k(   15) = (   0.0000000   0.2727273   0.4137975), wk =   0.0188902
        k(   16) = (   0.0000000   0.2727273   0.6206963), wk =   0.0188902
        k(   17) = (   0.0000000   0.3636364   0.0000000), wk =   0.0094451
        k(   18) = (   0.0000000   0.3636364   0.2068988), wk =   0.0188902
        k(   19) = (   0.0000000   0.3636364   0.4137975), wk =   0.0188902
        k(   20) = (   0.0000000   0.3636364   0.6206963), wk =   0.0188902
        k(   21) = (   0.0000000   0.4545455   0.0000000), wk =   0.0094451
        k(   22) = (   0.0000000   0.4545455   0.2068988), wk =   0.0188902
        k(   23) = (   0.0000000   0.4545455   0.4137975), wk =   0.0188902
        k(   24) = (   0.0000000   0.4545455   0.6206963), wk =   0.0188902
        k(   25) = (   0.0909091   0.0909091   0.0000000), wk =   0.0094451
        k(   26) = (   0.0909091   0.0909091   0.2068988), wk =   0.0188902
        k(   27) = (   0.0909091   0.0909091   0.4137975), wk =   0.0188902
        k(   28) = (   0.0909091   0.0909091   0.6206963), wk =   0.0188902
        k(   29) = (   0.0909091   0.1818182   0.0000000), wk =   0.0188902
        k(   30) = (   0.0909091   0.1818182   0.2068988), wk =   0.0377804
        k(   31) = (   0.0909091   0.1818182   0.4137975), wk =   0.0377804
        k(   32) = (   0.0909091   0.1818182   0.6206963), wk =   0.0377804
        k(   33) = (   0.0909091   0.2727273   0.0000000), wk =   0.0188902
        k(   34) = (   0.0909091   0.2727273   0.2068988), wk =   0.0377804
        k(   35) = (   0.0909091   0.2727273   0.4137975), wk =   0.0377804
        k(   36) = (   0.0909091   0.2727273   0.6206963), wk =   0.0377804
        k(   37) = (   0.0909091   0.3636364   0.0000000), wk =   0.0188902
        k(   38) = (   0.0909091   0.3636364   0.2068988), wk =   0.0377804
        k(   39) = (   0.0909091   0.3636364   0.4137975), wk =   0.0377804
        k(   40) = (   0.0909091   0.3636364   0.6206963), wk =   0.0377804
        k(   41) = (   0.0909091   0.4545455   0.0000000), wk =   0.0188902
        k(   42) = (   0.0909091   0.4545455   0.2068988), wk =   0.0377804
        k(   43) = (   0.0909091   0.4545455   0.4137975), wk =   0.0377804
        k(   44) = (   0.0909091   0.4545455   0.6206963), wk =   0.0377804
        k(   45) = (   0.1818182   0.1818182   0.0000000), wk =   0.0094451
        k(   46) = (   0.1818182   0.1818182   0.2068988), wk =   0.0188902
        k(   47) = (   0.1818182   0.1818182   0.4137975), wk =   0.0188902
        k(   48) = (   0.1818182   0.1818182   0.6206963), wk =   0.0188902
        k(   49) = (   0.1818182   0.2727273   0.0000000), wk =   0.0188902
        k(   50) = (   0.1818182   0.2727273   0.2068988), wk =   0.0377804
        k(   51) = (   0.1818182   0.2727273   0.4137975), wk =   0.0377804
        k(   52) = (   0.1818182   0.2727273   0.6206963), wk =   0.0377804
        k(   53) = (   0.1818182   0.3636364   0.0000000), wk =   0.0188902
        k(   54) = (   0.1818182   0.3636364   0.2068988), wk =   0.0377804
        k(   55) = (   0.1818182   0.3636364   0.4137975), wk =   0.0377804
        k(   56) = (   0.1818182   0.3636364   0.6206963), wk =   0.0377804
        k(   57) = (   0.1818182   0.4545455   0.0000000), wk =   0.0188902
        k(   58) = (   0.1818182   0.4545455   0.2068988), wk =   0.0377804
        k(   59) = (   0.1818182   0.4545455   0.4137975), wk =   0.0377804
        k(   60) = (   0.1818182   0.4545455   0.6206963), wk =   0.0377804
        k(   61) = (   0.2727273   0.2727273   0.0000000), wk =   0.0094451
        k(   62) = (   0.2727273   0.2727273   0.2068988), wk =   0.0188902
        k(   63) = (   0.2727273   0.2727273   0.4137975), wk =   0.0188902
        k(   64) = (   0.2727273   0.2727273   0.6206963), wk =   0.0188902
        k(   65) = (   0.2727273   0.3636364   0.0000000), wk =   0.0188902
        k(   66) = (   0.2727273   0.3636364   0.2068988), wk =   0.0377804
        k(   67) = (   0.2727273   0.3636364   0.4137975), wk =   0.0377804
        k(   68) = (   0.2727273   0.3636364   0.6206963), wk =   0.0377804
        k(   69) = (   0.2727273   0.4545455   0.0000000), wk =   0.0188902
        k(   70) = (   0.2727273   0.4545455   0.2068988), wk =   0.0377804
        k(   71) = (   0.2727273   0.4545455   0.4137975), wk =   0.0377804
        k(   72) = (   0.2727273   0.4545455   0.6206963), wk =   0.0377804
        k(   73) = (   0.3636364   0.3636364   0.0000000), wk =   0.0094451
        k(   74) = (   0.3636364   0.3636364   0.2068988), wk =   0.0188902
        k(   75) = (   0.3636364   0.3636364   0.4137975), wk =   0.0188902
        k(   76) = (   0.3636364   0.3636364   0.6206963), wk =   0.0188902
        k(   77) = (   0.3636364   0.4545455   0.0000000), wk =   0.0188902
        k(   78) = (   0.3636364   0.4545455   0.2068988), wk =   0.0377804
        k(   79) = (   0.3636364   0.4545455   0.4137975), wk =   0.0377804
        k(   80) = (   0.3636364   0.4545455   0.6206963), wk =   0.0377804
        k(   81) = (   0.4545455   0.4545455   0.0000000), wk =   0.0094451
        k(   82) = (   0.4545455   0.4545455   0.2068988), wk =   0.0188902
        k(   83) = (   0.4545455   0.4545455   0.4137975), wk =   0.0188902
        k(   84) = (   0.4545455   0.4545455   0.6206963), wk =   0.0188902

     Dense  grid:    26589 G-vectors     FFT dimensions: (  48,  48,  30)

     Estimated max dynamical RAM per process >       8.32 MB

     Estimated total dynamical RAM >     286.44 MB

     Initial potential from superposition of free atoms

     starting charge      55.8739, renormalised to      56.0000
     Starting wfcs are random

     total cpu time spent up to now is        1.9 secs

     per-process dynamical memory:   114.0 Mb

     Self-consistent Calculation

     iteration #  1     ecut=    60.00 Ry     beta= 0.70
     Davidson diagonalization with overlap
     ethr =  1.00E-02,  avg # of iterations = 10.2

     total cpu time spent up to now is        2.9 secs

     total energy              =    -504.25138575 Ry
     estimated scf accuracy    <       0.93085538 Ry

     iteration #  2     ecut=    60.00 Ry     beta= 0.70
     Davidson diagonalization with overlap
     ethr =  1.66E-03,  avg # of iterations =  6.4

     total cpu time spent up to now is        3.5 secs

     total energy              =    -504.21303267 Ry
     estimated scf accuracy    <       3.99835054 Ry

     iteration #  3     ecut=    60.00 Ry     beta= 0.70
     Davidson diagonalization with overlap
     ethr =  1.66E-03,  avg # of iterations =  6.0

     total cpu time spent up to now is        3.9 secs

     total energy              =    -504.88594359 Ry
     estimated scf accuracy    <       0.02624945 Ry

     iteration #  4     ecut=    60.00 Ry     beta= 0.70
     Davidson diagonalization with overlap
     ethr =  4.69E-05,  avg # of iterations =  5.1

     total cpu time spent up to now is        4.4 secs

     total energy              =    -504.89319464 Ry
     estimated scf accuracy    <       0.01236090 Ry

     iteration #  5     ecut=    60.00 Ry     beta= 0.70
     Davidson diagonalization with overlap
     ethr =  2.21E-05,  avg # of iterations =  5.1

     total cpu time spent up to now is        4.8 secs

     total energy              =    -504.89686137 Ry
     estimated scf accuracy    <       0.00085635 Ry

     iteration #  6     ecut=    60.00 Ry     beta= 0.70
     Davidson diagonalization with overlap
     ethr =  1.53E-06,  avg # of iterations =  5.7

     total cpu time spent up to now is        5.3 secs

     total energy              =    -504.89729849 Ry
     estimated scf accuracy    <       0.00001105 Ry

     iteration #  7     ecut=    60.00 Ry     beta= 0.70
     Davidson diagonalization with overlap
     ethr =  1.97E-08,  avg # of iterations =  9.5

     total cpu time spent up to now is        5.9 secs

     total energy              =    -504.89736994 Ry
     estimated scf accuracy    <       0.00002298 Ry

     iteration #  8     ecut=    60.00 Ry     beta= 0.70
     Davidson diagonalization with overlap
     ethr =  1.97E-08,  avg # of iterations =  1.6

     total cpu time spent up to now is        6.2 secs

     total energy              =    -504.89736529 Ry
     estimated scf accuracy    <       0.00001482 Ry

     iteration #  9     ecut=    60.00 Ry     beta= 0.70
     Davidson diagonalization with overlap
     ethr =  1.97E-08,  avg # of iterations =  3.5

     total cpu time spent up to now is        6.6 secs

     total energy              =    -504.89736511 Ry
     estimated scf accuracy    <       0.00000284 Ry

     iteration # 10     ecut=    60.00 Ry     beta= 0.70
     Davidson diagonalization with overlap
     ethr =  5.08E-09,  avg # of iterations =  6.2

     total cpu time spent up to now is        7.0 secs

     total energy              =    -504.89736672 Ry
     estimated scf accuracy    <       0.00000141 Ry

     iteration # 11     ecut=    60.00 Ry     beta= 0.70
     Davidson diagonalization with overlap
     ethr =  2.53E-09,  avg # of iterations =  2.1

     total cpu time spent up to now is        7.3 secs

     End of self-consistent calculation

          k = 0.0000 0.0000 0.0000 (  3363 PWs)   bands (ev):

   -60.3152 -60.3084 -30.5903 -30.5903 -30.1677 -30.1677 -30.1540 -30.1297
    -7.0447  -6.0109  -5.0452  -5.0452   4.7086   4.8479   5.9631   6.3762
     6.3762   8.9424   8.9596   8.9596  10.4152  10.8471  10.8471  11.3798
    11.6415  11.7549  11.8508  11.8508

          k = 0.0000 0.0000 0.2069 (  3351 PWs)   bands (ev):

   -60.3128 -60.3067 -30.5874 -30.5874 -30.1875 -30.1658 -30.1623 -30.1623
    -6.8697  -5.9167  -5.1484  -5.1484   4.9094   5.1205   6.1772   6.4429
     6.4429   8.3650   9.1740   9.1740   9.5337  10.1247  10.1247  11.1141
    11.8015  12.2235  12.3448  12.5518

          k = 0.0000 0.0000 0.4138 (  3326 PWs)   bands (ev):

   -60.3074 -60.3032 -30.5809 -30.5809 -30.2615 -30.2468 -30.1503 -30.1503
    -6.4304  -5.7352  -5.3738  -5.3738   5.3806   5.7611   6.6766   6.6766
     6.7982   7.4064   8.3568   9.1002   9.1002   9.6653   9.6653  10.1882
    12.1854  12.3563  12.7504  13.4281

          k = 0.0000 0.0000 0.6207 (  3342 PWs)   bands (ev):

   -60.3025 -60.3010 -30.5757 -30.5757 -30.3182 -30.3130 -30.1406 -30.1406
    -5.9578  -5.6987  -5.5475  -5.5475   5.7865   6.0141   7.0139   7.0139
     7.1983   7.6123   7.7677   8.4118   8.4118   8.9664   9.8964   9.8964
    12.4450  12.7529  12.8098  13.5470

          k = 0.0000 0.0909 0.0000 (  3347 PWs)   bands (ev):

   -60.3150 -60.3085 -30.5901 -30.5901 -30.1680 -30.1680 -30.1535 -30.1302
    -7.0130  -6.0021  -5.0856  -5.0640   4.7713   4.9209   6.0202   6.3840
     6.3882   8.8374   8.8892   8.9131  10.2751  10.6025  10.7130  11.3479
    11.7458  11.9118  11.9225  11.9919

          k = 0.0000 0.0909 0.2069 (  3346 PWs)   bands (ev):

   -60.3127 -60.3068 -30.5873 -30.5873 -30.1871 -30.1672 -30.1625 -30.1617
    -6.8408  -5.9066  -5.1859  -5.1651   4.9687   5.1814   6.1934   6.4449
     6.5030   8.3050   8.9820   9.1400   9.4839  10.0805  10.1013  11.1325
    11.7588  12.3003  12.4170  12.5805

          k = 0.0000 0.0909 0.4138 (  3325 PWs)   bands (ev):

   -60.3074 -60.3033 -30.5810 -30.5810 -30.2612 -30.2471 -30.1504 -30.1503
    -6.4112  -5.7317  -5.3938  -5.3819   5.4276   5.7854   6.5677   6.6713
     6.9737   7.3972   8.1765   9.1365   9.1991   9.5832   9.5903  10.2660
    12.0992  12.4333  12.7874  13.3525

          k = 0.0000 0.0909 0.6207 (  3325 PWs)   bands (ev):

   -60.3025 -60.3010 -30.5760 -30.5760 -30.3179 -30.3130 -30.1406 -30.1406
    -5.9642  -5.7363  -5.5338  -5.5121   5.8013   6.0189   6.7304   6.9208
     7.4426   7.6008   7.9121   8.4094   8.4867   9.0669   9.8451   9.8453
    12.4692  12.7152  12.7554  13.3978

          k = 0.0000 0.1818 0.0000 (  3323 PWs)   bands (ev):

   -60.3146 -60.3089 -30.5896 -30.5895 -30.1689 -30.1688 -30.1521 -30.1316
    -6.9216  -5.9801  -5.1968  -5.1177   4.9520   5.1263   6.1934   6.4045
     6.4192   8.5293   8.6591   8.8459   9.9583  10.0760  10.4953  11.2509
    11.9732  12.1149  12.2251  12.2919

          k = 0.0000 0.1818 0.2069 (  3329 PWs)   bands (ev):

   -60.3123 -60.3072 -30.5870 -30.5869 -30.1860 -30.1698 -30.1629 -30.1610
    -6.7560  -5.8798  -5.2902  -5.2126   5.1423   5.3554   6.2480   6.4505
     6.6683   8.1802   8.6112   8.9242   9.2281   9.9905  10.0898  11.0846
    11.8221  12.4702  12.5003  12.7266

          k = 0.0000 0.1818 0.4138 (  3326 PWs)   bands (ev):

   -60.3071 -60.3035 -30.5812 -30.5812 -30.2600 -30.2479 -30.1506 -30.1504
    -6.3536  -5.7218  -5.4520  -5.4059   5.5611   5.8546   6.4707   6.6575
     7.2353   7.4022   7.8260   9.0932   9.2873   9.4259   9.5265  10.4541
    11.9025  12.6195  12.8798  13.1613

          k = 0.0000 0.1818 0.6207 (  3334 PWs)   bands (ev):

   -60.3024 -60.3011 -30.5768 -30.5767 -30.3170 -30.3128 -30.1405 -30.1405
    -5.9816  -5.8065  -5.4979  -5.4537   5.8330   6.0176   6.4442   6.7246
     7.5779   7.6531   8.2331   8.4564   8.6227   9.3307   9.7106   9.7124
    12.4599  12.5293  12.7613  13.0682

          k = 0.0000 0.2727 0.0000 (  3319 PWs)   bands (ev):

   -60.3140 -60.3095 -30.5889 -30.5888 -30.1700 -30.1699 -30.1498 -30.1339
    -6.7759  -5.9647  -5.3447  -5.2007   5.2294   5.4194   6.4342   6.4588
     6.4838   8.1371   8.2727   8.7880   9.4365   9.6061  10.3864  11.0903
    12.2191  12.3750  12.5934  12.5967

          k = 0.0000 0.2727 0.2069 (  3334 PWs)   bands (ev):

   -60.3118 -60.3078 -30.5865 -30.5864 -30.1843 -30.1726 -30.1634 -30.1610
    -6.6206  -5.8519  -5.4361  -5.2854   5.4133   5.6119   6.3324   6.4496
     6.9092   8.0844   8.2114   8.5220   8.8382   9.6944  10.2250  10.9549
    12.0627  12.5388  12.6547  12.9369

          k = 0.0000 0.2727 0.4138 (  3327 PWs)   bands (ev):

   -60.3067 -60.3039 -30.5815 -30.5814 -30.2584 -30.2491 -30.1508 -30.1505
    -6.2622  -5.7167  -5.5315  -5.4426   5.7625   5.9650   6.4209   6.6434
     7.3272   7.4613   7.6290   8.8358   9.0563   9.3986   9.7085  10.6063
    11.7532  12.8231  12.9229  12.9893

          k = 0.0000 0.2727 0.6207 (  3337 PWs)   bands (ev):

   -60.3022 -60.3012 -30.5778 -30.5777 -30.3158 -30.3126 -30.1404 -30.1403
    -5.9977  -5.8754  -5.4527  -5.4037   5.8488   5.9532   6.3104   6.5513
     7.5776   7.8693   8.2314   8.7553   8.8570   9.3763   9.5740   9.8246
    12.1034  12.5796  12.6791  12.7667

          k = 0.0000 0.3636 0.0000 (  3323 PWs)   bands (ev):

   -60.3132 -60.3103 -30.5882 -30.5881 -30.1711 -30.1710 -30.1469 -30.1368
    -6.5868  -6.0085  -5.4556  -5.2985   5.5655   5.7327   6.4674   6.4910
     6.9018   7.7490   7.8247   8.7488   8.7793   9.2811  10.4078  10.8969
    12.4396  12.6361  12.7931  12.8170

          k = 0.0000 0.3636 0.2069 (  3319 PWs)   bands (ev):

   -60.3110 -60.3085 -30.5861 -30.5860 -30.1823 -30.1754 -30.1635 -30.1615
    -6.4424  -5.8779  -5.5477  -5.3735   5.7537   5.9044   6.4068   6.4289
     7.1683   7.8474   8.1088   8.1284   8.4291   9.2506  10.4018  10.8340
    12.3114  12.5606  12.8609  13.1094

          k = 0.0000 0.3636 0.4138 (  3328 PWs)   bands (ev):

   -60.3062 -60.3044 -30.5818 -30.5817 -30.2565 -30.2507 -30.1509 -30.1507
    -6.1436  -5.7580  -5.5831  -5.4863   5.9871   6.0976   6.4106   6.6415
     7.1539   7.2918   7.9436   8.6575   8.7383   9.2987   9.9570  10.5745
    11.8185  12.6263  13.0210  13.0836

          k = 0.0000 0.3636 0.6207 (  3341 PWs)   bands (ev):

   -60.3020 -60.3014 -30.5787 -30.5787 -30.3146 -30.3125 -30.1402 -30.1402
    -6.0054  -5.9329  -5.4090  -5.3729   5.8234   5.8454   6.3118   6.4521
     7.6312   8.0987   8.1359   8.8746   9.0985   9.1279   9.6757  10.1966
    11.7283  12.2002  12.6781  12.7663

          k = 0.0000 0.4545 0.0000 (  3327 PWs)   bands (ev):

   -60.3122 -60.3113 -30.5877 -30.5877 -30.1717 -30.1716 -30.1435 -30.1401
    -6.3708  -6.1585  -5.4626  -5.3951   5.8636   5.9373   6.4948   6.5061
     7.4338   7.4726   7.4956   8.0666   8.8538   9.0254  10.5227  10.6963
    12.6195  12.7437  12.8311  12.9016

          k = 0.0000 0.4545 0.2069 (  3320 PWs)   bands (ev):

   -60.3102 -60.3093 -30.5858 -30.5858 -30.1802 -30.1779 -30.1632 -30.1624
    -6.2377  -6.0298  -5.5392  -5.4642   6.1016   6.1617   6.3555   6.3679
     7.3674   7.5603   7.9412   8.0882   8.3485   8.7646  10.5674  10.7103
    12.4729  12.5470  13.0768  13.1789

          k = 0.0000 0.4545 0.4138 (  3319 PWs)   bands (ev):

   -60.3056 -60.3050 -30.5819 -30.5819 -30.2545 -30.2525 -30.1510 -30.1509
    -6.0086  -5.8712  -5.5695  -5.5310   6.1529   6.1916   6.4678   6.5978
     7.0335   7.1606   8.1894   8.4374   8.7754   9.0615  10.1987  10.4091
    12.0521  12.3376  13.1226  13.1363

          k = 0.0000 0.4545 0.6207 (  3327 PWs)   bands (ev):

   -60.3018 -60.3016 -30.5793 -30.5792 -30.3135 -30.3128 -30.1401 -30.1401
    -5.9977  -5.9738  -5.3770  -5.3642   5.7834   5.7846   6.3547   6.4006
     7.7547   7.9266   8.4413   8.7714   8.9850   9.0819  10.0917  10.3645
    11.5462  11.7799  12.7254  12.7544

          k = 0.0909 0.0909 0.0000 (  3327 PWs)   bands (ev):

   -60.3149 -60.3086 -30.5905 -30.5894 -30.1688 -30.1676 -30.1530 -30.1307
    -6.9830  -5.9936  -5.1471  -5.0561   4.7588   5.0632   6.0766   6.3697
     6.4183   8.6119   8.8838   8.9329  10.1916  10.4396  10.6398  11.3163
    11.7498  11.8537  12.0531  12.2105

          k = 0.0909 0.0909 0.2069 (  3340 PWs)   bands (ev):

   -60.3126 -60.3069 -30.5876 -30.5868 -30.1868 -30.1681 -30.1623 -30.1616
    -6.8136  -5.8967  -5.2413  -5.1597   4.9741   5.2907   6.1987   6.4946
     6.5214   8.2274   8.8649   9.1393   9.3221  10.0708  10.1483  11.1316
    11.7278  12.1997  12.6033  12.6396

          k = 0.0909 0.0909 0.4138 (  3333 PWs)   bands (ev):

   -60.3073 -60.3034 -30.5811 -30.5810 -30.2608 -30.2473 -30.1505 -30.1504
    -6.3924  -5.7282  -5.4201  -5.3834   5.4586   5.8191   6.4892   6.7036
     7.0676   7.3783   8.0944   9.0609   9.2155   9.5262   9.6402  10.3330
    12.0248  12.4628  12.8413  13.3204

          k = 0.0909 0.0909 0.6207 (  3320 PWs)   bands (ev):

   -60.3024 -60.3010 -30.5767 -30.5758 -30.3177 -30.3128 -30.1407 -30.1404
    -5.9728  -5.7473  -5.5563  -5.4668   5.8113   6.0312   6.6221   6.8340
     7.3677   7.7932   7.9818   8.4038   8.5671   9.1549   9.7088   9.8862
    12.4893  12.6214  12.7576  13.3585

          k = 0.0909 0.1818 0.0000 (  3328 PWs)   bands (ev):

   -60.3145 -60.3090 -30.5904 -30.5886 -30.1700 -30.1680 -30.1517 -30.1320
    -6.8977  -5.9739  -5.2635  -5.0917   4.8321   5.3507   6.2444   6.3722
     6.4570   8.2284   8.8131   8.8216   9.9603  10.0650  10.4161  11.2113
    11.8877  11.9503  12.3461  12.5033

          k = 0.0909 0.1818 0.2069 (  3330 PWs)   bands (ev):

   -60.3122 -60.3073 -30.5876 -30.5863 -30.1857 -30.1702 -30.1627 -30.1613
    -6.7333  -5.8714  -5.3506  -5.1912   5.0513   5.5401   6.2278   6.5076
     6.6853   8.0740   8.5408   8.8774   9.2391   9.9688  10.1608  11.0447
    11.8000  12.2380  12.6589  12.8147

          k = 0.0909 0.1818 0.4138 (  3332 PWs)   bands (ev):

   -60.3070 -60.3036 -30.5813 -30.5812 -30.2598 -30.2481 -30.1506 -30.1504
    -6.3370  -5.7200  -5.4771  -5.4025   5.5505   5.9180   6.4059   6.6883
     7.2753   7.3640   7.8799   8.9439   9.1228   9.5237   9.6647  10.4990
    11.8549  12.5598  12.9470  13.1889

          k = 0.0909 0.1818 0.6207 (  3331 PWs)   bands (ev):

   -60.3023 -60.3011 -30.5777 -30.5762 -30.3171 -30.3125 -30.1407 -30.1403
    -5.9908  -5.7897  -5.5412  -5.4155   5.8273   6.0508   6.4161   6.6725
     7.3247   7.9473   8.2430   8.4332   8.7264   9.3872   9.5282   9.8353
    12.3816  12.5407  12.7622  13.1221

          k = 0.0909 0.2727 0.0000 (  3328 PWs)   bands (ev):

   -60.3139 -60.3096 -30.5899 -30.5879 -30.1710 -30.1688 -30.1495 -30.1342
    -6.7612  -5.9660  -5.3936  -5.1667   5.0220   5.6828   6.3926   6.4903
     6.5311   7.8092   8.5115   8.7772   9.5418   9.6581  10.2681  11.0433
    12.1294  12.1834  12.6872  12.7519

          k = 0.0909 0.2727 0.2069 (  3321 PWs)   bands (ev):

   -60.3117 -60.3078 -30.5873 -30.5859 -30.1841 -30.1726 -30.1632 -30.1612
    -6.6055  -5.8489  -5.4811  -5.2572   5.2319   5.8501   6.2834   6.4916
     6.9303   7.9298   8.2020   8.4938   9.0535   9.7166  10.1824  10.8952
    12.0303  12.3842  12.7260  12.9807

          k = 0.0909 0.2727 0.4138 (  3333 PWs)   bands (ev):

   -60.3066 -60.3040 -30.5816 -30.5814 -30.2583 -30.2492 -30.1508 -30.1505
    -6.2493  -5.7181  -5.5483  -5.4376   5.6913   6.0614   6.3684   6.6359
     7.2261   7.6243   7.6594   8.6769   9.1789   9.3181   9.7970  10.6261
    11.7379  12.6974  12.9254  13.1159

          k = 0.0909 0.2727 0.6207 (  3329 PWs)   bands (ev):

   -60.3022 -60.3013 -30.5786 -30.5770 -30.3162 -30.3122 -30.1406 -30.1401
    -6.0045  -5.8499  -5.4945  -5.3783   5.8232   6.0141   6.3051   6.5226
     7.3571   8.0789   8.2451   8.6797   8.9275   9.3168   9.6280   9.8970
    12.0592  12.5961  12.7290  12.7736

          k = 0.0909 0.3636 0.0000 (  3324 PWs)   bands (ev):

   -60.3131 -60.3104 -30.5892 -30.5876 -30.1716 -30.1700 -30.1467 -30.1370
    -6.5831  -6.0248  -5.4694  -5.2648   5.3059   5.9315   6.4273   6.5058
     6.9354   7.5059   8.1037   8.7937   8.9080   9.3526  10.2934  10.8354
    12.3696  12.4652  12.7863  12.8883

          k = 0.0909 0.3636 0.2069 (  3325 PWs)   bands (ev):

   -60.3110 -60.3085 -30.5868 -30.5858 -30.1822 -30.1752 -30.1634 -30.1617
    -6.4391  -5.8943  -5.5574  -5.3454   5.5026   6.1388   6.3464   6.3986
     7.1982   7.7885   8.0285   8.2381   8.6879   9.2894  10.3137  10.7601
    12.2764  12.5092  12.8361  13.1463

          k = 0.0909 0.3636 0.4138 (  3334 PWs)   bands (ev):

   -60.3061 -60.3045 -30.5819 -30.5817 -30.2565 -30.2507 -30.1509 -30.1507
    -6.1363  -5.7664  -5.5847  -5.4811   5.8638   6.1775   6.4041   6.5782
     7.0934   7.4368   7.9573   8.5827   8.9274   9.2440   9.9579  10.5659
    11.8317  12.6333  12.9194  13.1505

          k = 0.0909 0.3636 0.6207 (  3337 PWs)   bands (ev):

   -60.3020 -60.3014 -30.5792 -30.5780 -30.3150 -30.3123 -30.1405 -30.1401
    -6.0055  -5.9093  -5.4420  -5.3627   5.7931   5.9096   6.3119   6.4369
     7.4642   8.0889   8.2628   8.8485   8.9100   9.3072   9.7375  10.2380
    11.7303  12.2724  12.6732  12.7641

          k = 0.0909 0.4545 0.0000 (  3321 PWs)   bands (ev):

   -60.3122 -60.3113 -30.5884 -30.5878 -30.1716 -30.1710 -30.1435 -30.1402
    -6.3803  -6.1781  -5.4487  -5.3669   5.6365   5.9090   6.4660   6.4961
     7.3227   7.5692   7.7670   8.2513   8.8971   9.0887  10.4269  10.6189
    12.5688  12.7125  12.7180  12.8746

          k = 0.0909 0.4545 0.2069 (  3324 PWs)   bands (ev):

   -60.3102 -60.3093 -30.5863 -30.5859 -30.1800 -30.1777 -30.1631 -30.1624
    -6.2470  -6.0505  -5.5236  -5.4402   5.8309   6.1519   6.3377   6.3826
     7.4276   7.6354   8.0117   8.2866   8.4045   8.8073  10.4757  10.6271
    12.4477  12.5274  13.0204  13.1709

          k = 0.0909 0.4545 0.4138 (  3319 PWs)   bands (ev):

   -60.3056 -60.3050 -30.5820 -30.5819 -30.2545 -30.2525 -30.1509 -30.1509
    -6.0074  -5.8767  -5.5657  -5.5258   6.0367   6.1614   6.5014   6.5417
     7.0503   7.2088   8.2532   8.5474   8.8036   9.0578  10.1657  10.3822
    12.0810  12.3682  13.0480  13.1332

          k = 0.0909 0.4545 0.6207 (  3339 PWs)   bands (ev):

   -60.3018 -60.3016 -30.5793 -30.5788 -30.3138 -30.3129 -30.1403 -30.1402
    -5.9900  -5.9573  -5.3976  -5.3694   5.7801   5.8193   6.3512   6.3925
     7.6449   7.8719   8.4782   8.6997   9.0100   9.1639  10.1290  10.3848
    11.5984  11.8495  12.7183  12.7486

          k = 0.1818 0.1818 0.0000 (  3343 PWs)   bands (ev):

   -60.3141 -60.3093 -30.5910 -30.5879 -30.1710 -30.1676 -30.1504 -30.1332
    -6.8281  -5.9643  -5.3740  -5.0895   4.7733   5.6923   6.3492   6.3986
     6.4929   7.8156   8.7816   8.8597   9.8811   9.9158  10.2985  11.1013
    11.8067  11.8615  12.6151  12.7446

          k = 0.1818 0.1818 0.2069 (  3326 PWs)   bands (ev):

   -60.3119 -60.3076 -30.5880 -30.5858 -30.1849 -30.1713 -30.1624 -30.1618
    -6.6676  -5.8526  -5.4572  -5.1895   5.0039   5.8503   6.2127   6.5483
     6.7994   7.9074   8.2259   9.0344   9.0441   9.9798  10.1717  10.8935
    11.8484  12.1115  12.7048  12.9818

          k = 0.1818 0.1818 0.4138 (  3318 PWs)   bands (ev):

   -60.3068 -60.3038 -30.5816 -30.5813 -30.2591 -30.2486 -30.1508 -30.1505
    -6.2878  -5.7157  -5.5285  -5.4095   5.5573   6.0580   6.3196   6.6689
     7.2436   7.4733   7.9363   8.6976   9.0065   9.5776   9.7975  10.6077
    11.7595  12.5144  12.9861  13.2683

          k = 0.1818 0.1818 0.6207 (  3333 PWs)   bands (ev):

   -60.3023 -60.3012 -30.5786 -30.5760 -30.3172 -30.3120 -30.1409 -30.1401
    -6.0053  -5.7683  -5.5806  -5.3778   5.8138   6.1216   6.3421   6.5569
     7.1279   8.2036   8.3049   8.4605   8.8487   9.3614   9.5740   9.8958
    12.1979  12.5693  12.7633  13.1596

          k = 0.1818 0.2727 0.0000 (  3331 PWs)   bands (ev):

   -60.3136 -60.3099 -30.5910 -30.5876 -30.1716 -30.1680 -30.1485 -30.1351
    -6.7165  -5.9845  -5.4587  -5.1302   4.8420   5.9613   6.3490   6.5069
     6.6683   7.5118   8.6989   8.7832   9.6453   9.7583  10.0742  10.9230
    11.9301  11.9606  12.7918  12.8850

          k = 0.1818 0.2727 0.2069 (  3327 PWs)   bands (ev):

   -60.3114 -60.3081 -30.5881 -30.5857 -30.1835 -30.1728 -30.1628 -30.1619
    -6.5627  -5.8584  -5.5458  -5.2274   5.0683   6.1461   6.2280   6.4418
     7.0378   7.8008   8.0284   8.7350   9.1310   9.8305  10.0885  10.6963
    12.0189  12.1749  12.7405  13.1309

          k = 0.1818 0.2727 0.4138 (  3327 PWs)   bands (ev):

   -60.3065 -60.3041 -30.5818 -30.5816 -30.2580 -30.2496 -30.1509 -30.1506
    -6.2115  -5.7291  -5.5766  -5.4341   5.6130   6.1778   6.2797   6.6036
     7.1282   7.7362   7.8648   8.5481   9.0562   9.4401   9.8717  10.6524
    11.7415  12.5553  12.9359  13.2562

          k = 0.1818 0.2727 0.6207 (  3324 PWs)   bands (ev):

   -60.3021 -60.3013 -30.5792 -30.5764 -30.3167 -30.3118 -30.1409 -30.1401
    -6.0087  -5.7936  -5.5616  -5.3597   5.7960   6.1298   6.2958   6.4473
     7.0784   8.2330   8.3312   8.6674   8.7946   9.4594   9.6772  10.0657
    11.9666  12.6084  12.7572  12.8978

          k = 0.1818 0.3636 0.0000 (  3320 PWs)   bands (ev):

   -60.3129 -60.3105 -30.5905 -30.5879 -30.1716 -30.1688 -30.1461 -30.1376
    -6.5709  -6.0768  -5.4659  -5.2076   5.0294   5.9321   6.3716   6.4929
     7.0248   7.5628   8.3523   8.8629   9.2510   9.5169  10.0122  10.6816
    12.1751  12.1979  12.7379  12.8804

          k = 0.1818 0.3636 0.2069 (  3328 PWs)   bands (ev):

   -60.3108 -60.3087 -30.5878 -30.5860 -30.1817 -30.1748 -30.1631 -30.1620
    -6.4265  -5.9490  -5.5466  -5.2977   5.2438   6.1805   6.2686   6.3306
     7.3238   7.8431   8.0609   8.4725   8.9823   9.4480  10.1038  10.5388
    12.2270  12.3494  12.7666  13.2074

          k = 0.1818 0.3636 0.4138 (  3329 PWs)   bands (ev):

   -60.3060 -60.3046 -30.5820 -30.5818 -30.2564 -30.2509 -30.1510 -30.1507
    -6.1140  -5.7916  -5.5827  -5.4713   5.7232   6.1517   6.3179   6.5645
     7.0538   7.6306   8.0693   8.6205   9.1281   9.1647   9.9344  10.5286
    11.9033  12.6117  12.8464  13.1703

          k = 0.1818 0.3636 0.6207 (  3323 PWs)   bands (ev):

   -60.3020 -60.3015 -30.5793 -30.5772 -30.3158 -30.3122 -30.1408 -30.1402
    -5.9945  -5.8523  -5.5044  -5.3655   5.7865   6.0104   6.3135   6.3998
     7.1889   8.0297   8.4026   8.6730   8.9027   9.4815   9.8702  10.3528
    11.7600  12.4575  12.6639  12.7554

          k = 0.1818 0.4545 0.0000 (  3322 PWs)   bands (ev):

   -60.3121 -60.3113 -30.5896 -30.5886 -30.1710 -30.1699 -30.1433 -30.1403
    -6.4033  -6.2295  -5.4022  -5.3060   5.3118   5.6462   6.4105   6.4554
     7.4055   7.7491   8.1793   8.6837   9.0265   9.2549  10.1726  10.4169
    12.4167  12.4817  12.6094  12.7317

          k = 0.1818 0.4545 0.2069 (  3323 PWs)   bands (ev):

   -60.3101 -60.3094 -30.5872 -30.5865 -30.1795 -30.1771 -30.1629 -30.1624
    -6.2680  -6.1015  -5.4780  -5.3868   5.5131   5.8443   6.3240   6.3637
     7.6009   7.8313   8.2867   8.4994   8.6843   8.9645  10.2381  10.3943
    12.3912  12.4545  12.8666  13.0636

          k = 0.1818 0.4545 0.4138 (  3316 PWs)   bands (ev):

   -60.3055 -60.3050 -30.5821 -30.5820 -30.2546 -30.2527 -30.1509 -30.1508
    -6.0032  -5.8912  -5.5544  -5.5138   5.8727   6.0302   6.3851   6.4864
     7.1502   7.3708   8.4185   8.7388   8.9046   9.0620  10.0822  10.3058
    12.1758  12.4533  12.9176  13.0544

          k = 0.1818 0.4545 0.6207 (  3329 PWs)   bands (ev):

   -60.3018 -60.3016 -30.5790 -30.5782 -30.3145 -30.3131 -30.1406 -30.1404
    -5.9620  -5.9128  -5.4438  -5.3948   5.8099   5.8866   6.3403   6.3726
     7.4234   7.7254   8.4969   8.5885   9.1044   9.3067  10.2213  10.4440
    11.7540  12.0424  12.7011  12.7328

          k = 0.2727 0.2727 0.0000 (  3327 PWs)   bands (ev):

   -60.3132 -60.3103 -30.5916 -30.5879 -30.1716 -30.1676 -30.1470 -30.1366
    -6.6437  -6.0495  -5.4696  -5.1295   4.7811   5.9477   6.3250   6.4909
     6.9052   7.5596   8.7670   8.8559   9.4906   9.7882   9.9655  10.7768
    11.8100  11.8722  12.7437  12.8820

          k = 0.2727 0.2727 0.2069 (  3331 PWs)   bands (ev):

   -60.3111 -60.3084 -30.5885 -30.5860 -30.1824 -30.1733 -30.1626 -30.1624
    -6.4939  -5.9221  -5.5518  -5.2286   5.0133   6.1952   6.2045   6.3304
     7.2635   7.8586   8.0516   8.9279   8.9917   9.9128   9.9651  10.4175
    12.0666  12.0926  12.7269  13.2225

          k = 0.2727 0.2727 0.4138 (  3332 PWs)   bands (ev):

   -60.3062 -60.3044 -30.5820 -30.5818 -30.2573 -30.2503 -30.1510 -30.1506
    -6.1533  -5.7670  -5.5858  -5.4443   5.5887   6.1642   6.2060   6.5975
     7.0567   7.9310   7.9441   8.6005   8.9891   9.4715   9.8592  10.6057
    11.8496  12.4928  12.9330  13.2968

          k = 0.2727 0.2727 0.6207 (  3330 PWs)   bands (ev):

   -60.3020 -60.3014 -30.5793 -30.5763 -30.3168 -30.3118 -30.1411 -30.1402
    -5.9965  -5.7480  -5.6114  -5.3642   5.7888   6.1987   6.3231   6.3465
     6.9151   8.1579   8.3631   8.6236   8.8279   9.6591   9.7451  10.2916
    11.8751  12.6218  12.7494  12.9946

          k = 0.2727 0.3636 0.0000 (  3321 PWs)   bands (ev):

   -60.3127 -60.3108 -30.5916 -30.5888 -30.1710 -30.1679 -30.1451 -30.1385
    -6.5452  -6.1613  -5.4187  -5.1696   4.8474   5.6564   6.3263   6.4487
     7.2352   7.9090   8.5891   9.0093   9.4410   9.6791   9.7464  10.5335
    11.9277  11.9713  12.6201  12.7372

          k = 0.2727 0.3636 0.2069 (  3323 PWs)   bands (ev):

   -60.3106 -60.3089 -30.5886 -30.5867 -30.1808 -30.1746 -30.1629 -30.1623
    -6.4009  -6.0352  -5.4960  -5.2652   5.0755   5.8547   6.2154   6.3597
     7.5572   8.0483   8.3063   8.7103   9.0558   9.6982   9.8890  10.2041
    12.1476  12.2174  12.6883  13.0628

          k = 0.2727 0.3636 0.4138 (  3325 PWs)   bands (ev):

   -60.3059 -60.3047 -30.5822 -30.5820 -30.2561 -30.2514 -30.1510 -30.1507
    -6.0794  -5.8319  -5.5693  -5.4676   5.6298   6.0308   6.1974   6.5004
     7.1525   7.8001   8.2341   8.7780   9.0333   9.3180   9.8580  10.4498
    12.0691  12.5312  12.8773  13.1190

          k = 0.2727 0.3636 0.6207 (  3328 PWs)   bands (ev):

   -60.3019 -60.3015 -30.5790 -30.5767 -30.3162 -30.3125 -30.1411 -30.1404
    -5.9641  -5.7798  -5.5796  -5.3928   5.8084   6.1167   6.2947   6.3652
     6.9694   7.8700   8.3963   8.5580   9.0340   9.5702  10.0532  10.4955
    11.8497  12.6351  12.7109  12.7474

          k = 0.2727 0.4545 0.0000 (  3328 PWs)   bands (ev):

   -60.3120 -60.3114 -30.5909 -30.5899 -30.1699 -30.1688 -30.1429 -30.1407
    -6.4266  -6.2944  -5.3337  -5.2433   5.0326   5.3163   6.3515   6.3962
     7.6162   7.9820   8.6363   9.1065   9.2241   9.4660   9.8748  10.1977
    12.1785  12.2080  12.4259  12.4904

          k = 0.2727 0.4545 0.2069 (  3323 PWs)   bands (ev):

   -60.3100 -60.3095 -30.5882 -30.5875 -30.1787 -30.1765 -30.1627 -30.1625
    -6.2888  -6.1637  -5.4145  -5.3316   5.2492   5.5191   6.2554   6.3133
     7.8599   8.0937   8.6112   8.7048   8.9574   9.2951   9.9295  10.0561
    12.3144  12.3354  12.6710  12.8288

          k = 0.2727 0.4545 0.4138 (  3313 PWs)   bands (ev):

   -60.3055 -60.3051 -30.5822 -30.5821 -30.2546 -30.2529 -30.1509 -30.1508
    -5.9965  -5.9115  -5.5373  -5.5006   5.7305   5.8731   6.2473   6.3543
     7.3582   7.5873   8.5697   8.8670   9.0207   9.1379   9.9806  10.2154
    12.3424  12.5600  12.7978  12.9142

          k = 0.2727 0.4545 0.6207 (  3315 PWs)   bands (ev):

   -60.3018 -60.3016 -30.5783 -30.5775 -30.3151 -30.3137 -30.1410 -30.1407
    -5.9127  -5.8478  -5.5091  -5.4428   5.8691   5.9769   6.3130   6.3467
     7.2067   7.5264   8.4522   8.5091   9.2355   9.4202  10.3420  10.5226
    11.9970  12.3189  12.6810  12.7102

          k = 0.3636 0.3636 0.0000 (  3327 PWs)   bands (ev):

   -60.3123 -60.3111 -30.5922 -30.5900 -30.1699 -30.1676 -30.1439 -30.1397
    -6.5017  -6.2598  -5.3436  -5.1662   4.7859   5.3183   6.3025   6.3905
     7.5445   8.2968   8.6860   9.2188   9.4513   9.5507   9.7415  10.4493
    11.7879  11.8823  12.4269  12.4936

          k = 0.3636 0.3636 0.2069 (  3318 PWs)   bands (ev):

   -60.3103 -60.3092 -30.5891 -30.5876 -30.1794 -30.1750 -30.1627 -30.1624
    -6.3587  -6.1307  -5.4241  -5.2632   5.0177   5.5217   6.1944   6.3115
     7.8569   8.2855   8.7009   8.8297   9.0291   9.6798   9.8002   9.9201
    12.0569  12.2506  12.5937  12.8046

          k = 0.3636 0.3636 0.4138 (  3317 PWs)   bands (ev):

   -60.3057 -60.3049 -30.5823 -30.5821 -30.2554 -30.2522 -30.1509 -30.1507
    -6.0358  -5.8809  -5.5458  -5.4747   5.5981   5.8744   6.1441   6.3522
     7.3650   7.8702   8.4156   8.9388   9.0276   9.3232   9.8074  10.3341
    12.3092  12.4974  12.8662  13.0322

          k = 0.3636 0.3636 0.6207 (  3323 PWs)   bands (ev):

   -60.3018 -60.3016 -30.5784 -30.5766 -30.3161 -30.3134 -30.1413 -30.1408
    -5.9132  -5.7200  -5.6391  -5.4423   5.8633   6.1855   6.2222   6.3466
     6.9206   7.6080   8.3813   8.5029   9.1982   9.5579  10.2690  10.5933
    12.0253  12.6459  12.7112  12.8624

          k = 0.3636 0.4545 0.0000 (  3334 PWs)   bands (ev):

   -60.3119 -60.3115 -30.5920 -30.5912 -30.1688 -30.1679 -30.1425 -30.1411
    -6.4381  -6.3558  -5.2640  -5.2002   4.8508   5.0346   6.3058   6.3377
     7.9087   8.2716   8.8442   9.2158   9.4499   9.6500   9.7853  10.1954
    11.9098  11.9797  12.1720  12.2137

          k = 0.3636 0.4545 0.2069 (  3303 PWs)   bands (ev):

   -60.3099 -60.3096 -30.5890 -30.5885 -30.1778 -30.1762 -30.1626 -30.1625
    -6.2982  -6.2209  -5.3508  -5.2932   5.0788   5.2530   6.2073   6.2503
     8.1754   8.4086   8.7782   8.9142   9.2086   9.4796   9.6870   9.7974
    12.1630  12.2928  12.4946  12.5408

          k = 0.3636 0.4545 0.4138 (  3308 PWs)   bands (ev):

   -60.3054 -60.3052 -30.5823 -30.5823 -30.2545 -30.2533 -30.1509 -30.1508
    -5.9862  -5.9335  -5.5180  -5.4925   5.6348   5.7325   6.1543   6.2249
     7.5901   7.7780   8.6697   8.9108   9.0883   9.2036   9.9396  10.1580
    12.5516  12.5717  12.7424  12.8558

          k = 0.3636 0.4545 0.6207 (  3316 PWs)   bands (ev):

   -60.3018 -60.3017 -30.5776 -30.5770 -30.3155 -30.3144 -30.1413 -30.1411
    -5.8459  -5.7698  -5.5876  -5.5098   5.9542   6.0764   6.2590   6.3070
     7.0671   7.3196   8.4070   8.4522   9.3493   9.4752  10.4652  10.5867
    12.2942  12.6143  12.6694  12.6862

          k = 0.4545 0.4545 0.0000 (  3318 PWs)   bands (ev):

   -60.3118 -60.3116 -30.5925 -30.5922 -30.1679 -30.1676 -30.1420 -30.1415
    -6.4308  -6.4029  -5.2107  -5.1875   4.7895   4.8519   6.2877   6.2990
     8.2557   8.5822   8.6403   8.9594   9.6426   9.7237  10.0768  10.2815
    11.7667  11.8886  11.9006  11.9828

          k = 0.4545 0.4545 0.2069 (  3309 PWs)   bands (ev):

   -60.3098 -60.3097 -30.5894 -30.5892 -30.1769 -30.1764 -30.1625 -30.1624
    -6.2913  -6.2651  -5.3041  -5.2836   5.0199   5.0794   6.1878   6.2033
     8.5095   8.7593   8.7738   9.0014   9.1492   9.2020   9.7555   9.8746
    12.1154  12.2537  12.3081  12.3752

          k = 0.4545 0.4545 0.4138 (  3315 PWs)   bands (ev):

   -60.3053 -60.3052 -30.5824 -30.5824 -30.2542 -30.2538 -30.1508 -30.1508
    -5.9726  -5.9547  -5.5020  -5.4926   5.6005   5.6358   6.1192   6.1433
     7.7770   7.8541   8.7757   8.8921   9.0966   9.1556  10.0147  10.1058
    12.5336  12.5956  12.8100  12.9531

          k = 0.4545 0.4545 0.6207 (  3313 PWs)   bands (ev):

   -60.3017 -60.3017 -30.5770 -30.5768 -30.3155 -30.3151 -30.1414 -30.1414
    -5.7673  -5.7014  -5.6554  -5.5888   6.0594   6.1676   6.1741   6.2495
     7.0480   7.1453   8.3946   8.4128   9.4298   9.4749  10.5633  10.6068
    12.5999  12.6574  12.6666  12.7873

     highest occupied level (ev):    13.5470

!    total energy              =    -504.89736596 Ry
     estimated scf accuracy    <       0.00000096 Ry

     The total energy is the sum of the following terms:
     one-electron contribution =    -163.54250099 Ry
     hartree contribution      =     112.47527723 Ry
     xc contribution           =     -67.47361299 Ry
     ewald contribution        =    -386.35652921 Ry

     convergence has been achieved in  11 iterations

     Forces acting on atoms (cartesian axes, Ry/au):

     atom    1 type  1   force =     0.00000000    0.00000000   -0.00000000
     atom    2 type  1   force =     0.00000000    0.00000000    0.00000000
     atom    3 type  2   force =     0.00295992    0.00295992   -0.00000000
     atom    4 type  2   force =    -0.00295992   -0.00295992   -0.00000000
     atom    5 type  2   force =     0.00295992   -0.00295992   -0.00000000
     atom    6 type  2   force =    -0.00295992    0.00295992   -0.00000000

     Total force =     0.008372     Total SCF correction =     0.000213
 
     init_run     :      0.09s CPU      1.01s WALL (       1 calls)
     electrons    :      4.97s CPU      5.39s WALL (       1 calls)
     forces       :      0.03s CPU      0.06s WALL (       1 calls)

     Called by init_run:
     wfcinit      :      0.07s CPU      0.49s WALL (       1 calls)
     potinit      :      0.00s CPU      0.06s WALL (       1 calls)
     hinit0       :      0.00s CPU      0.35s WALL (       1 calls)

     Called by electrons:
     c_bands      :      4.61s CPU      4.92s WALL (      11 calls)
     sum_band     :      0.33s CPU      0.34s WALL (      11 calls)
     v_of_rho     :      0.02s CPU      0.06s WALL (      12 calls)
     mix_rho      :      0.00s CPU      0.05s WALL (      11 calls)

     Called by c_bands:
     init_us_2    :      0.04s CPU      0.04s WALL (     672 calls)
     init_us_2:cp :      0.04s CPU      0.04s WALL (     672 calls)
     cegterg      :      3.72s CPU      3.91s WALL (     308 calls)

     Called by *egterg:
     cdiaghg      :      1.23s CPU      1.67s WALL (    2017 calls)
     h_psi        :      2.06s CPU      2.20s WALL (    2045 calls)
     g_psi        :      0.01s CPU      0.01s WALL (    1709 calls)

     Called by h_psi:
     h_psi:calbec :      0.13s CPU      0.20s WALL (    2045 calls)
     vloc_psi     :      1.84s CPU      1.91s WALL (    2045 calls)
     add_vuspsi   :      0.08s CPU      0.08s WALL (    2045 calls)

     General routines
     calbec       :      0.13s CPU      0.20s WALL (    2157 calls)
     fft          :      0.01s CPU      0.29s WALL (     121 calls)
     ffts         :      0.00s CPU      0.00s WALL (      11 calls)
     fftw         :      1.82s CPU      1.88s WALL (   69680 calls)
 
     Parallel routines
 
     PWSCF        :      5.10s CPU      7.43s WALL

 
   This run was terminated on:  13:58:40  13Jul2026            

=------------------------------------------------------------------------------=
   JOB DONE.
=------------------------------------------------------------------------------=
