
     Program PWSCF v.7.2 starts on 26Jul2026 at 14:53:49 
        Git branch: krg.prod
        Last git commit: daa121e36ad33d2e2c57a5cfc9f193e3f68d7ebf
        Last git commit date: Wed Feb 25 11:53:28 2026 -0600
        Last git commit subject: use krg software repo instead

     This program is part of the open-source Quantum ESPRESSO suite
     for quantum simulation of materials; please cite
         "P. Giannozzi et al., J. Phys.:Condens. Matter 21 395502 (2009);
         "P. Giannozzi et al., J. Phys.:Condens. Matter 29 465901 (2017);
         "P. Giannozzi et al., J. Chem. Phys. 152 154105 (2020);
          URL http://www.quantum-espresso.org", 
     in publications or presentations arising from this work. More details at
     http://www.quantum-espresso.org/quote

     Serial multi-threaded version, running on    8 processor cores
     174612 MiB available memory on the printing compute node when the environment starts
 
     Waiting for input...
     Reading input from standard input
Warning: card &FCP ignored
Warning: card / ignored
Warning: card &RISM ignored
Warning: card / ignored

     Current dimensions of program PWSCF are:
     Max number of different atomic species (ntypx) = 10
     Max number of k-points (npk) =  40000
     Max angular momentum in pseudopotentials (lmaxx) =  4
     Message from routine setup:
     using ibrav=0 with symmetry is DISCOURAGED, use correct ibrav instead
 
 
     G-vector sticks info
     --------------------
     sticks:   dense  smooth     PW     G-vecs:    dense   smooth      PW
     Sum        1913    1913    537               859135   859135  126533
 
     Using Slab Decomposition
 


     bravais-lattice index     =            0
     lattice parameter (alat)  =       8.9226  a.u.
     unit-cell volume          =    4836.7879 (a.u.)^3
     number of atoms/cell      =           36
     number of atomic types    =            2
     number of electrons       =       288.00
     number of Kohn-Sham states=          173
     kinetic-energy cutoff     =     120.0000  Ry
     charge density cutoff     =     480.0000  Ry
     scf convergence threshold =      1.0E-06
     mixing beta               =       0.4000
     number of iterations used =           20  plain     mixing
     energy convergence thresh.=      1.0E-04
     force convergence thresh. =      1.0E-03
     press convergence thresh. =      5.0E-01
     Exchange-correlation= PBE
                           (   1   4   3   4   0   0   0)
     nstep                     =          500


     GPU acceleration is ACTIVE.


     celldm(1)=   8.922608  celldm(2)=   0.000000  celldm(3)=   0.000000
     celldm(4)=   0.000000  celldm(5)=   0.000000  celldm(6)=   0.000000

     crystal axes: (cart. coord. in units of alat)
               a(1) = (   1.000000   0.000000   0.000000 )  
               a(2) = (   0.000000   0.627196   0.000000 )  
               a(3) = (   0.000000   0.000000  10.856208 )  

     reciprocal axes: (cart. coord. in units 2 pi/alat)
               b(1) = (  1.000000  0.000000  0.000000 )  
               b(2) = (  0.000000  1.594397  0.000000 )  
               b(3) = (  0.000000  0.000000  0.092113 )  


     PseudoPot. # 1 for Ti read from file:
     /cm/shared/apps/KO/pseudo/sg15/Ti_ONCV_PBE-1.2.upf
     MD5 check sum: 1aea57736bd12dcfee93c97d0b9b5968
     Pseudo is Norm-conserving, Zval = 12.0
     Generated using ONCVPSP code by D. R. Hamann
     Using radial grid of  602 points,  6 beta functions with: 
                l(1) =   0
                l(2) =   0
                l(3) =   1
                l(4) =   1
                l(5) =   2
                l(6) =   2

     PseudoPot. # 2 for O  read from file:
     /cm/shared/apps/KO/pseudo/sg15/O_ONCV_PBE-1.2.upf
     MD5 check sum: e36c48deb68f4e355fffe4602be2c42c
     Pseudo is Norm-conserving, Zval =  6.0
     Generated using ONCVPSP code by D. R. Hamann
     Using radial grid of  602 points,  4 beta functions with: 
                l(1) =   0
                l(2) =   0
                l(3) =   1
                l(4) =   1

     atomic species   valence    mass     pseudopotential
     Ti               12.00    47.86700     Ti( 1.00)
     O                 6.00    15.99900     O ( 1.00)

      2 Sym. Ops. (no inversion) found



   Cartesian axes

     site n.     atom                  positions (alat units)
         1        Ti     tau(   1) = (   0.0339501   0.0000000   3.0937374  )
         2        Ti     tau(   2) = (   0.5248804   0.3135981   3.5665994  )
         3        Ti     tau(   3) = (   0.0199745   0.0000000   4.0663430  )
         4        Ti     tau(   4) = (   0.5182053   0.3135981   4.5454220  )
         5        Ti     tau(   5) = (   0.0169857   0.0000000   5.0405801  )
         6        Ti     tau(   6) = (   0.5159081   0.3135981   5.5197309  )
         7        Ti     tau(   7) = (   0.0158873   0.0000000   6.0124860  )
         8        Ti     tau(   8) = (   0.5170074   0.3135981   6.4918091  )
         9        Ti     tau(   9) = (   0.0182287   0.0000000   6.9872242  )
        10        Ti     tau(  10) = (   0.5200167   0.3135981   7.4662532  )
        11        Ti     tau(  11) = (   0.0249212   0.0000000   7.9662361  )
        12        Ti     tau(  12) = (   0.5339444   0.3135981   8.4390518  )
        13        O      tau(  13) = (   0.1312085   0.3135981   2.8816887  )
        14        O      tau(  14) = (   0.3009109   0.0000000   3.3767657  )
        15        O      tau(  15) = (   0.6868845   0.0000000   3.7630171  )
        16        O      tau(  16) = (   0.1836640   0.3135981   3.8682272  )
        17        O      tau(  17) = (   0.7799939   0.3135981   3.2679832  )
        18        O      tau(  18) = (   0.3068852   0.0000000   4.3540676  )
        19        O      tau(  19) = (   0.6867724   0.0000000   4.7429799  )
        20        O      tau(  20) = (   0.1868972   0.3135981   4.8434186  )
        21        O      tau(  21) = (   0.8054578   0.3135981   4.2565765  )
        22        O      tau(  22) = (   0.3081704   0.0000000   5.3277398  )
        23        O      tau(  23) = (   0.6851636   0.0000000   5.7177554  )
        24        O      tau(  24) = (   0.1851231   0.3135981   5.8144027  )
        25        O      tau(  25) = (   0.8080607   0.3135981   5.2327315  )
        26        O      tau(  26) = (   0.3079171   0.0000000   6.2996624  )
        27        O      tau(  27) = (   0.6869240   0.0000000   6.6890012  )
        28        O      tau(  28) = (   0.1868746   0.3135981   6.7898397  )
        29        O      tau(  29) = (   0.8080237   0.3135981   6.2044404  )
        30        O      tau(  30) = (   0.3053839   0.0000000   7.2761040  )
        31        O      tau(  31) = (   0.6838804   0.0000000   7.6641732  )
        32        O      tau(  32) = (   0.1871159   0.3135981   7.7700374  )
        33        O      tau(  33) = (   0.8068382   0.3135981   7.1784875  )
        34        O      tau(  34) = (   0.2797717   0.0000000   8.2651101  )
        35        O      tau(  35) = (   0.6313943   0.0000000   8.6510061  )
        36        O      tau(  36) = (   0.8007732   0.3135981   8.1559185  )

     number of k points=    20  Gaussian smearing, width (Ry)=  0.0200
                       cart. coord. in units 2pi/alat
        k(    1) = (   0.0000000   0.0000000   0.0000000), wk =   0.0370370
        k(    2) = (   0.0000000   0.1771553   0.0000000), wk =   0.0740741
        k(    3) = (   0.0000000   0.3543106   0.0000000), wk =   0.0740741
        k(    4) = (   0.0000000   0.5314658   0.0000000), wk =   0.0740741
        k(    5) = (   0.0000000   0.7086211   0.0000000), wk =   0.0740741
        k(    6) = (   0.1666667   0.0000000   0.0000000), wk =   0.0740741
        k(    7) = (   0.1666667   0.1771553   0.0000000), wk =   0.1481481
        k(    8) = (   0.1666667   0.3543106   0.0000000), wk =   0.1481481
        k(    9) = (   0.1666667   0.5314658   0.0000000), wk =   0.1481481
        k(   10) = (   0.1666667   0.7086211   0.0000000), wk =   0.1481481
        k(   11) = (   0.3333333   0.0000000   0.0000000), wk =   0.0740741
        k(   12) = (   0.3333333   0.1771553   0.0000000), wk =   0.1481481
        k(   13) = (   0.3333333   0.3543106   0.0000000), wk =   0.1481481
        k(   14) = (   0.3333333   0.5314658   0.0000000), wk =   0.1481481
        k(   15) = (   0.3333333   0.7086211   0.0000000), wk =   0.1481481
        k(   16) = (  -0.5000000   0.0000000   0.0000000), wk =   0.0370370
        k(   17) = (  -0.5000000   0.1771553   0.0000000), wk =   0.0740741
        k(   18) = (  -0.5000000   0.3543106   0.0000000), wk =   0.0740741
        k(   19) = (  -0.5000000   0.5314658   0.0000000), wk =   0.0740741
        k(   20) = (  -0.5000000   0.7086211   0.0000000), wk =   0.0740741

     Dense  grid:   859135 G-vectors     FFT dimensions: (  64,  40, 675)

     Estimated max dynamical RAM per process >       8.38 GB

     Initial potential from superposition of free atoms

     starting charge     286.6604, renormalised to     288.0000

     negative rho (up, down):  7.309E-04 0.000E+00
     Starting wfcs are random

     total cpu time spent up to now is       13.5 secs

     Self-consistent Calculation

     iteration #  1     ecut=   120.00 Ry     beta= 0.40
     Davidson diagonalization with overlap
     ethr =  1.00E-02,  avg # of iterations = 16.2

     negative rho (up, down):  1.004E-06 0.000E+00

     total cpu time spent up to now is       38.5 secs

     total energy              =   -2151.85919318 Ry
     estimated scf accuracy    <      14.09147464 Ry

     iteration #  2     ecut=   120.00 Ry     beta= 0.40
     Davidson diagonalization with overlap
     ethr =  4.89E-03,  avg # of iterations =  4.2

     total cpu time spent up to now is       48.8 secs

     total energy              =   -2154.81405741 Ry
     estimated scf accuracy    <       2.94500572 Ry

     iteration #  3     ecut=   120.00 Ry     beta= 0.40
     Davidson diagonalization with overlap
     ethr =  1.02E-03,  avg # of iterations =  8.6

     total cpu time spent up to now is       60.7 secs

     total energy              =   -2152.98083033 Ry
     estimated scf accuracy    <     137.27741218 Ry

     iteration #  4     ecut=   120.00 Ry     beta= 0.40
     Davidson diagonalization with overlap
     c_bands:  1 eigenvalues not converged
     ethr =  1.02E-03,  avg # of iterations = 15.3

     total cpu time spent up to now is       73.3 secs

     total energy              =   -2155.79465793 Ry
     estimated scf accuracy    <       0.78738733 Ry

     iteration #  5     ecut=   120.00 Ry     beta= 0.40
     Davidson diagonalization with overlap
     ethr =  2.73E-04,  avg # of iterations =  4.6

     total cpu time spent up to now is       82.8 secs

     total energy              =   -2155.86119176 Ry
     estimated scf accuracy    <       0.11466736 Ry

     iteration #  6     ecut=   120.00 Ry     beta= 0.40
     Davidson diagonalization with overlap
     c_bands:  1 eigenvalues not converged
     ethr =  3.98E-05,  avg # of iterations = 11.1

     total cpu time spent up to now is       95.6 secs

     total energy              =   -2155.88920935 Ry
     estimated scf accuracy    <       0.10168071 Ry

     iteration #  7     ecut=   120.00 Ry     beta= 0.40
     Davidson diagonalization with overlap
     c_bands:  3 eigenvalues not converged
     c_bands:  4 eigenvalues not converged
     ethr =  3.53E-05,  avg # of iterations =  9.5

     total cpu time spent up to now is      106.2 secs

     total energy              =   -2155.88764092 Ry
     estimated scf accuracy    <       0.04136679 Ry

     iteration #  8     ecut=   120.00 Ry     beta= 0.40
     Davidson diagonalization with overlap
     c_bands:  1 eigenvalues not converged
     c_bands:  2 eigenvalues not converged
     c_bands:  3 eigenvalues not converged
     ethr =  1.44E-05,  avg # of iterations = 12.5

     total cpu time spent up to now is      118.5 secs

     total energy              =   -2155.89493816 Ry
     estimated scf accuracy    <       0.01585724 Ry

     iteration #  9     ecut=   120.00 Ry     beta= 0.40
     Davidson diagonalization with overlap
     c_bands:  1 eigenvalues not converged
     ethr =  5.51E-06,  avg # of iterations =  5.8

     total cpu time spent up to now is      128.3 secs

     total energy              =   -2155.89432321 Ry
     estimated scf accuracy    <       0.01189362 Ry

     iteration # 10     ecut=   120.00 Ry     beta= 0.40
     Davidson diagonalization with overlap
     c_bands:  2 eigenvalues not converged
     c_bands:  1 eigenvalues not converged
     ethr =  4.13E-06,  avg # of iterations =  9.2

     total cpu time spent up to now is      139.0 secs

     total energy              =   -2155.89447263 Ry
     estimated scf accuracy    <       0.00751236 Ry

     iteration # 11     ecut=   120.00 Ry     beta= 0.40
     Davidson diagonalization with overlap
     c_bands:  2 eigenvalues not converged
     c_bands:  1 eigenvalues not converged
     c_bands:  2 eigenvalues not converged
     c_bands:  1 eigenvalues not converged
     ethr =  2.61E-06,  avg # of iterations =  9.9

     total cpu time spent up to now is      149.7 secs

     total energy              =   -2155.89452573 Ry
     estimated scf accuracy    <       0.00571666 Ry

     iteration # 12     ecut=   120.00 Ry     beta= 0.40
     Davidson diagonalization with overlap
     c_bands:  1 eigenvalues not converged
     ethr =  1.98E-06,  avg # of iterations =  4.5

     total cpu time spent up to now is      159.1 secs

     total energy              =   -2155.89446540 Ry
     estimated scf accuracy    <       0.00469329 Ry

     iteration # 13     ecut=   120.00 Ry     beta= 0.40
     Davidson diagonalization with overlap
     ethr =  1.63E-06,  avg # of iterations =  1.1

     total cpu time spent up to now is      167.7 secs

     total energy              =   -2155.89440962 Ry
     estimated scf accuracy    <       0.00385160 Ry

     iteration # 14     ecut=   120.00 Ry     beta= 0.40
     Davidson diagonalization with overlap
     ethr =  1.34E-06,  avg # of iterations =  1.9

     total cpu time spent up to now is      176.6 secs

     total energy              =   -2155.89428418 Ry
     estimated scf accuracy    <       0.00330695 Ry

     iteration # 15     ecut=   120.00 Ry     beta= 0.40
     Davidson diagonalization with overlap
     c_bands:  2 eigenvalues not converged
     c_bands:  3 eigenvalues not converged
     c_bands:  1 eigenvalues not converged
     c_bands:  2 eigenvalues not converged
     c_bands:  2 eigenvalues not converged
     ethr =  1.15E-06,  avg # of iterations = 11.0

     total cpu time spent up to now is      187.6 secs

     total energy              =   -2155.89425677 Ry
     estimated scf accuracy    <       0.00239842 Ry

     iteration # 16     ecut=   120.00 Ry     beta= 0.40
     Davidson diagonalization with overlap
     c_bands:  2 eigenvalues not converged
     ethr =  8.33E-07,  avg # of iterations =  3.5

     total cpu time spent up to now is      196.8 secs

     total energy              =   -2155.89416270 Ry
     estimated scf accuracy    <       0.00204815 Ry

     iteration # 17     ecut=   120.00 Ry     beta= 0.40
     Davidson diagonalization with overlap
     c_bands:  1 eigenvalues not converged
     ethr =  7.11E-07,  avg # of iterations =  6.0

     total cpu time spent up to now is      206.6 secs

     total energy              =   -2155.89406356 Ry
     estimated scf accuracy    <       0.00143437 Ry

     iteration # 18     ecut=   120.00 Ry     beta= 0.40
     Davidson diagonalization with overlap
     ethr =  4.98E-07,  avg # of iterations =  3.8

     total cpu time spent up to now is      216.0 secs

     total energy              =   -2155.89404213 Ry
     estimated scf accuracy    <       0.00081426 Ry

     iteration # 19     ecut=   120.00 Ry     beta= 0.40
     Davidson diagonalization with overlap
     c_bands:  1 eigenvalues not converged
     c_bands:  4 eigenvalues not converged
     c_bands:  2 eigenvalues not converged
     ethr =  2.83E-07,  avg # of iterations =  7.1

     total cpu time spent up to now is      226.1 secs

     total energy              =   -2155.89397223 Ry
     estimated scf accuracy    <       0.00057481 Ry

     iteration # 20     ecut=   120.00 Ry     beta= 0.40
     Davidson diagonalization with overlap
     c_bands:  4 eigenvalues not converged
     c_bands:  1 eigenvalues not converged
     c_bands:  1 eigenvalues not converged
     ethr =  2.00E-07,  avg # of iterations =  8.0

     total cpu time spent up to now is      236.4 secs

     total energy              =   -2155.89396834 Ry
     estimated scf accuracy    <       0.00017967 Ry

     iteration # 21     ecut=   120.00 Ry     beta= 0.40
     Davidson diagonalization with overlap
     c_bands:  3 eigenvalues not converged
     c_bands:  1 eigenvalues not converged
     ethr =  6.24E-08,  avg # of iterations = 10.5

     total cpu time spent up to now is      247.9 secs

     total energy              =   -2155.89399174 Ry
     estimated scf accuracy    <       0.00001984 Ry

     iteration # 22     ecut=   120.00 Ry     beta= 0.40
     Davidson diagonalization with overlap
     ethr =  6.89E-09,  avg # of iterations =  6.7

     total cpu time spent up to now is      258.6 secs

     total energy              =   -2155.89399565 Ry
     estimated scf accuracy    <       0.00000761 Ry

     iteration # 23     ecut=   120.00 Ry     beta= 0.40
     Davidson diagonalization with overlap
     ethr =  2.64E-09,  avg # of iterations =  1.4

     total cpu time spent up to now is      267.4 secs

     total energy              =   -2155.89399605 Ry
     estimated scf accuracy    <       0.00000956 Ry

     iteration # 24     ecut=   120.00 Ry     beta= 0.40
     Davidson diagonalization with overlap
     ethr =  2.64E-09,  avg # of iterations =  1.0

     total cpu time spent up to now is      276.0 secs

     total energy              =   -2155.89399118 Ry
     estimated scf accuracy    <       0.00001157 Ry

     iteration # 25     ecut=   120.00 Ry     beta= 0.40
     Davidson diagonalization with overlap
     ethr =  2.64E-09,  avg # of iterations =  5.8

     total cpu time spent up to now is      286.5 secs

     total energy              =   -2155.89399451 Ry
     estimated scf accuracy    <       0.00000500 Ry

     iteration # 26     ecut=   120.00 Ry     beta= 0.40
     Davidson diagonalization with overlap
     ethr =  1.74E-09,  avg # of iterations =  1.1

     total cpu time spent up to now is      295.1 secs

     total energy              =   -2155.89399395 Ry
     estimated scf accuracy    <       0.00000292 Ry

     iteration # 27     ecut=   120.00 Ry     beta= 0.40
     Davidson diagonalization with overlap
     ethr =  1.01E-09,  avg # of iterations =  3.5

     total cpu time spent up to now is      304.3 secs

     End of self-consistent calculation

          k = 0.0000 0.0000 0.0000 (107453 PWs)   bands (ev):

   -55.5797 -55.5778 -55.5733 -55.5691 -55.5637 -55.5613 -55.5452 -55.5435
   -55.5221 -55.5203 -55.0842 -55.0811 -31.8736 -31.8728 -31.8615 -31.8609
   -31.8464 -31.8459 -31.8265 -31.8249 -31.8213 -31.8200 -31.7742 -31.7654
   -31.7580 -31.7540 -31.7420 -31.7399 -31.7339 -31.7294 -31.7236 -31.7218
   -31.6745 -31.6727 -31.6670 -31.6587 -31.6477 -31.6437 -31.6430 -31.6412
   -31.6248 -31.6230 -31.4800 -31.4770 -31.3463 -31.3432 -31.1259 -31.1228
   -16.7007 -16.6374 -16.5412 -16.4040 -16.2412 -16.0249 -15.8573 -15.7205
   -15.6365 -15.6083 -15.5613 -15.5588 -15.1955 -15.1921 -15.1404 -15.1172
   -15.0723 -15.0491 -15.0120 -14.9952 -14.9567 -14.9299 -14.5889 -14.5857
    -4.2798  -4.1686  -4.0112  -3.8378  -3.8267  -3.7690  -3.6771  -3.6678
    -3.5744  -3.5309  -3.3522  -3.2304  -3.0651  -2.9757  -2.9203  -2.7146
    -2.4611  -2.4589  -2.3894  -2.3808  -2.3776  -2.3635  -2.3589  -2.3483
    -2.3429  -2.3260  -2.3239  -1.9794  -1.9544  -1.9513  -1.8236  -1.7434
    -1.6040  -1.5980  -1.5393  -1.4352  -1.3750  -1.3066  -1.2693  -1.2100
    -1.1970  -0.8352  -0.7450  -0.6345  -0.5747  -0.5721  -0.5480  -0.4942
    -0.4151  -0.2845  -0.2655  -0.1980  -0.1358  -0.1030  -0.0903   0.0184
     0.1773   0.2148   0.3368   0.4246   0.4525   0.4747   0.4936   0.5005
     0.6334   0.6550   0.6839   0.7778   0.9300   1.0668   1.1752   1.2451
     3.3440   3.4367   3.5520   3.6077   3.6742   3.7264   3.7920   3.8549
     3.8935   3.9054   3.9223   3.9255   3.9302   3.9877   4.0358   4.0504
     4.0830   4.0927   4.1466   4.1784   4.2500   4.2798   4.4062   4.4100
     4.5213   4.5854   5.0008   5.0146   5.1068

          k = 0.0000 0.1772 0.0000 (107533 PWs)   bands (ev):

   -55.5750 -55.5730 -55.5684 -55.5644 -55.5593 -55.5570 -55.5406 -55.5389
   -55.5175 -55.5157 -55.0793 -55.0762 -31.8610 -31.8603 -31.8495 -31.8490
   -31.8355 -31.8346 -31.8165 -31.8137 -31.8107 -31.8092 -31.7758 -31.7655
   -31.7592 -31.7537 -31.7447 -31.7395 -31.7366 -31.7274 -31.7207 -31.7194
   -31.7189 -31.7176 -31.7134 -31.7037 -31.6968 -31.6960 -31.6954 -31.6938
   -31.6757 -31.6740 -31.4752 -31.4722 -31.3380 -31.3349 -31.1821 -31.1789
   -16.5767 -16.5168 -16.4253 -16.2947 -16.1390 -15.9319 -15.7702 -15.6351
   -15.5558 -15.5345 -15.4854 -15.4829 -15.2312 -15.2289 -15.1831 -15.1681
   -15.1169 -15.0995 -15.0622 -15.0458 -15.0095 -14.9859 -14.6213 -14.6180
    -4.1062  -4.0028  -3.8541  -3.7036  -3.6770  -3.6323  -3.5344  -3.5180
    -3.4249  -3.3816  -3.2302  -3.1418  -3.0268  -2.9399  -2.8817  -2.7825
    -2.6683  -2.6329  -2.6030  -2.5930  -2.5743  -2.5613  -2.5376  -2.4826
    -2.4020  -2.2877  -2.1307  -1.9574  -1.9483  -1.7076  -1.6711  -1.5946
    -1.4729  -1.4123  -1.3270  -1.2873  -1.1911  -1.1829  -1.1701  -1.0933
    -1.0507  -1.0172  -1.0098  -0.9067  -0.8833  -0.7144  -0.6888  -0.6719
    -0.6547  -0.5379  -0.4419  -0.3985  -0.3450  -0.2829  -0.1992  -0.1220
    -0.0694  -0.0408   0.0836   0.2975   0.4063   0.4215   0.4522   0.4998
     0.5112   0.5402   0.6855   0.7783   0.8994   1.0168   1.1205   1.1941
     3.5150   3.5833   3.6751   3.7118   3.7598   3.7632   3.8234   3.8725
     3.8925   3.9511   3.9639   4.0126   4.0528   4.0586   4.0619   4.1009
     4.1501   4.1676   4.2234   4.2766   4.3127   4.4076   4.4077   4.4618
     4.5506   4.6633   4.6946   4.7421   5.0479

          k = 0.0000 0.3543 0.0000 (107373 PWs)   bands (ev):

   -55.5629 -55.5608 -55.5558 -55.5524 -55.5482 -55.5463 -55.5288 -55.5271
   -55.5058 -55.5039 -55.0668 -55.0637 -31.8693 -31.8673 -31.8635 -31.8585
   -31.8470 -31.8421 -31.8403 -31.8392 -31.8250 -31.8228 -31.8212 -31.8203
   -31.8130 -31.8085 -31.8014 -31.7954 -31.7836 -31.7814 -31.7709 -31.7688
   -31.7410 -31.7397 -31.7330 -31.7303 -31.7255 -31.7237 -31.7217 -31.7184
   -31.7107 -31.7089 -31.4661 -31.4631 -31.3505 -31.3474 -31.2862 -31.2832
   -16.2468 -16.1984 -16.1237 -16.0172 -15.8894 -15.7274 -15.5992 -15.4682
   -15.3672 -15.3625 -15.3485 -15.3434 -15.2905 -15.2795 -15.2505 -15.2373
   -15.2265 -15.2039 -15.1728 -15.1697 -15.1383 -15.1224 -14.6890 -14.6857
    -3.6477  -3.5729  -3.4602  -3.3729  -3.3193  -3.2960  -3.1812  -3.1798
    -3.0613  -3.0560  -2.9574  -2.9535  -2.9356  -2.9015  -2.8353  -2.8002
    -2.7975  -2.7940  -2.7591  -2.7499  -2.7356  -2.7273  -2.6394  -2.4713
    -2.3782  -2.2268  -2.1941  -1.9338  -1.8592  -1.8079  -1.7859  -1.7855
    -1.7518  -1.7476  -1.6981  -1.5752  -1.5325  -1.3746  -1.3442  -1.3374
    -1.3170  -1.1614  -1.1181  -0.9883  -0.9252  -0.9234  -0.8057  -0.7663
    -0.6421  -0.6254  -0.5565  -0.5434  -0.4440  -0.4170  -0.3213  -0.1668
    -0.1021  -0.0407   0.0015   0.0371   0.0496   0.0631   0.1585   0.2053
     0.2428   0.3545   0.6069   0.6648   0.7625   0.8501   0.9179   0.9618
     3.5698   3.5993   3.6676   3.7579   3.8348   3.8431   3.8775   3.8862
     3.9501   3.9954   4.0878   4.0967   4.1497   4.2553   4.2638   4.2904
     4.3853   4.3980   4.4268   4.4579   4.5496   4.5631   4.6003   4.6642
     4.6879   4.6911   4.7627   4.8648   4.9250

          k = 0.0000 0.5315 0.0000 (107408 PWs)   bands (ev):

   -55.5491 -55.5469 -55.5411 -55.5386 -55.5358 -55.5344 -55.5155 -55.5138
   -55.4924 -55.4906 -55.0527 -55.0496 -32.0101 -32.0081 -32.0008 -31.9991
   -31.9908 -31.9860 -31.9824 -31.9805 -31.9685 -31.9669 -31.7845 -31.7838
   -31.7765 -31.7760 -31.7670 -31.7657 -31.7537 -31.7529 -31.7412 -31.7395
   -31.7304 -31.7289 -31.7231 -31.7211 -31.7181 -31.7174 -31.7158 -31.7139
   -31.7019 -31.7001 -31.5033 -31.5002 -31.4448 -31.4418 -31.2720 -31.2689
   -15.8241 -15.8047 -15.7731 -15.7286 -15.6774 -15.6463 -15.6073 -15.5299
   -15.4585 -15.3873 -15.3179 -15.2948 -15.2865 -15.2686 -15.2392 -15.2178
   -15.1910 -15.1880 -15.1632 -15.1572 -15.0946 -15.0921 -14.6932 -14.6899
    -3.1754  -3.1421  -3.1297  -3.1114  -3.0876  -3.0636  -3.0488  -3.0254
    -3.0183  -2.9966  -2.9234  -2.9212  -2.8878  -2.8677  -2.8506  -2.7991
    -2.7538  -2.7408  -2.6946  -2.6756  -2.6630  -2.6165  -2.5969  -2.5117
    -2.3385  -2.3317  -2.3074  -2.2569  -2.2321  -2.0898  -2.0061  -1.9986
    -1.9120  -1.8806  -1.8787  -1.7694  -1.5714  -1.4321  -1.3483  -1.3466
    -1.3212  -1.1969  -1.1723  -1.0574  -0.9153  -0.8443  -0.7873  -0.7327
    -0.7227  -0.6962  -0.6712  -0.6269  -0.4168  -0.4093  -0.3377  -0.3306
    -0.2733  -0.2457  -0.2276  -0.1703  -0.1301  -0.0987  -0.0259   0.0909
     0.1386   0.1772   0.4147   0.4574   0.4721   0.5107   0.5540   0.5694
     3.4856   3.5032   3.5369   3.6086   3.7624   3.7652   3.8955   4.0745
     4.1265   4.1929   4.2293   4.2502   4.3679   4.3886   4.4018   4.4371
     4.5254   4.5794   4.5992   4.6042   4.6626   4.7098   4.8054   4.8144
     4.8727   4.9323   4.9921   5.0268   5.0576

          k = 0.0000 0.7086 0.0000 (107368 PWs)   bands (ev):

   -55.5401 -55.5378 -55.5307 -55.5293 -55.5282 -55.5271 -55.5067 -55.5050
   -55.4837 -55.4818 -55.0434 -55.0403 -32.1027 -32.1008 -32.0916 -32.0907
   -32.0847 -32.0828 -32.0763 -32.0744 -32.0630 -32.0614 -31.7510 -31.7494
   -31.7487 -31.7472 -31.7420 -31.7413 -31.7372 -31.7366 -31.7284 -31.7266
   -31.7241 -31.7231 -31.7194 -31.7183 -31.7127 -31.7107 -31.7063 -31.7044
   -31.6990 -31.6972 -31.5936 -31.5906 -31.4430 -31.4399 -31.2536 -31.2506
   -15.7029 -15.6973 -15.6559 -15.6466 -15.6066 -15.5869 -15.5513 -15.5146
   -15.4843 -15.4422 -15.4259 -15.3357 -15.2596 -15.2271 -15.1905 -15.1781
   -15.1247 -15.1084 -15.0655 -15.0445 -15.0176 -15.0077 -14.6130 -14.6098
    -3.5385  -3.4714  -3.4608  -3.3792  -3.3369  -3.2571  -3.1813  -3.1252
    -3.0697  -3.0379  -2.8569  -2.8546  -2.7597  -2.7446  -2.7019  -2.6962
    -2.6182  -2.6070  -2.5833  -2.5602  -2.5474  -2.5178  -2.4989  -2.4886
    -2.1761  -2.1173  -2.1058  -2.0711  -2.0097  -1.9802  -1.8528  -1.7972
    -1.6958  -1.6609  -1.4883  -1.4716  -1.4028  -1.3871  -1.3764  -1.3380
    -1.3089  -1.2970  -1.2511  -1.2011  -1.1329  -1.0616  -1.0505  -1.0375
    -0.8830  -0.7424  -0.6457  -0.6350  -0.4650  -0.4622  -0.4399  -0.3657
    -0.3257  -0.2602  -0.2411  -0.2108  -0.1843  -0.1526  -0.1308  -0.1241
    -0.0274  -0.0116   0.0950   0.1175   0.2470   0.2820   0.4069   0.4351
     3.3749   3.4817   3.5380   3.6581   3.7479   3.8509   3.9873   4.0070
     4.0444   4.2275   4.4068   4.4211   4.4407   4.4805   4.5101   4.5209
     4.5502   4.5730   4.6178   4.6248   4.6266   4.6287   4.8811   4.8838
     5.0049   5.0428   5.0644   5.1039   5.1214

          k = 0.1667 0.0000 0.0000 (107405 PWs)   bands (ev):

   -55.5794 -55.5774 -55.5726 -55.5689 -55.5642 -55.5621 -55.5452 -55.5435
   -55.5222 -55.5204 -55.0842 -55.0811 -31.8761 -31.8752 -31.8638 -31.8627
   -31.8480 -31.8471 -31.8271 -31.8266 -31.8217 -31.8203 -31.7694 -31.7689
   -31.7573 -31.7537 -31.7408 -31.7383 -31.7311 -31.7294 -31.7229 -31.7212
   -31.6735 -31.6716 -31.6660 -31.6584 -31.6486 -31.6452 -31.6427 -31.6408
   -31.6256 -31.6238 -31.4798 -31.4768 -31.3462 -31.3431 -31.1259 -31.1228
   -16.6160 -16.5626 -16.4810 -16.3635 -16.2244 -16.0373 -15.8900 -15.7653
   -15.6754 -15.6322 -15.5724 -15.5699 -15.2133 -15.2108 -15.1315 -15.1305
   -15.0807 -15.0740 -15.0372 -15.0118 -14.9699 -14.9441 -14.5935 -14.5903
    -4.1509  -4.1268  -4.0651  -3.9661  -3.8399  -3.7335  -3.6422  -3.6405
    -3.5260  -3.5245  -3.1912  -3.0986  -3.0063  -2.9511  -2.8456  -2.6184
    -2.4674  -2.4653  -2.4000  -2.3958  -2.3716  -2.3686  -2.3522  -2.3482
    -2.3252  -2.3245  -2.3225  -2.0289  -1.9584  -1.9552  -1.7507  -1.7049
    -1.6855  -1.5862  -1.4884  -1.3626  -1.3134  -1.2495  -1.2085  -1.1911
    -0.9657  -0.8162  -0.7601  -0.5704  -0.5560  -0.5507  -0.5168  -0.4459
    -0.3519  -0.3450  -0.2897  -0.2124  -0.1615  -0.1365  -0.0363   0.0186
     0.0709   0.1765   0.2019   0.2289   0.2718   0.2740   0.2987   0.3545
     0.4202   0.4539   0.5550   0.6348   0.8112   0.9587   1.0703   1.1395
     3.4028   3.4137   3.4918   3.5720   3.6804   3.7704   3.8078   3.8597
     3.8994   3.9177   3.9325   3.9355   3.9924   4.0188   4.0713   4.0780
     4.0826   4.1853   4.2167   4.2940   4.3538   4.4062   4.4306   4.4356
     4.5460   4.7114   4.9971   5.0094   5.0431

          k = 0.1667 0.1772 0.0000 (107424 PWs)   bands (ev):

   -55.5747 -55.5726 -55.5677 -55.5642 -55.5597 -55.5578 -55.5406 -55.5389
   -55.5176 -55.5157 -55.0793 -55.0762 -31.8634 -31.8625 -31.8518 -31.8507
   -31.8367 -31.8361 -31.8166 -31.8159 -31.8107 -31.8094 -31.7706 -31.7702
   -31.7587 -31.7537 -31.7424 -31.7396 -31.7316 -31.7297 -31.7201 -31.7184
   -31.7179 -31.7164 -31.7126 -31.7038 -31.6980 -31.6961 -31.6952 -31.6935
   -31.6762 -31.6745 -31.4751 -31.4720 -31.3379 -31.3348 -31.1820 -31.1789
   -16.4962 -16.4455 -16.3677 -16.2554 -16.1220 -15.9428 -15.8013 -15.6790
   -15.5916 -15.5528 -15.4912 -15.4887 -15.2519 -15.2493 -15.1777 -15.1763
   -15.1302 -15.1215 -15.0877 -15.0628 -15.0229 -14.9984 -14.6254 -14.6222
    -3.9891  -3.9714  -3.9136  -3.8188  -3.6943  -3.5959  -3.4982  -3.4963
    -3.3737  -3.3726  -3.1136  -3.0597  -2.9940  -2.9321  -2.8707  -2.7949
    -2.7202  -2.6689  -2.6129  -2.5847  -2.5571  -2.5354  -2.4703  -2.4558
    -2.3738  -2.2326  -2.0416  -1.9459  -1.9188  -1.6923  -1.5906  -1.5562
    -1.5022  -1.4216  -1.3534  -1.2235  -1.2207  -1.1570  -1.0803  -1.0398
    -0.9691  -0.9579  -0.9282  -0.9178  -0.8920  -0.7756  -0.7736  -0.5652
    -0.5645  -0.4467  -0.4384  -0.3698  -0.3664  -0.3176  -0.2902  -0.1826
    -0.1609  -0.0872   0.1064   0.2390   0.2762   0.3124   0.3133   0.3542
     0.3774   0.4336   0.5116   0.6208   0.7554   0.8846   0.9981   1.0776
     3.5453   3.5462   3.6092   3.6946   3.7883   3.8315   3.8609   3.8674
     3.9462   3.9479   4.0083   4.0129   4.0494   4.0694   4.0865   4.1037
     4.1601   4.2340   4.3296   4.3700   4.3941   4.4116   4.4294   4.5055
     4.6215   4.6767   4.7000   4.7796   5.0664

          k = 0.1667 0.3543 0.0000 (107361 PWs)   bands (ev):

   -55.5627 -55.5606 -55.5553 -55.5522 -55.5485 -55.5469 -55.5289 -55.5272
   -55.5058 -55.5040 -55.0668 -55.0637 -31.8684 -31.8666 -31.8611 -31.8601
   -31.8468 -31.8426 -31.8419 -31.8405 -31.8265 -31.8251 -31.8225 -31.8219
   -31.8122 -31.8114 -31.7995 -31.7979 -31.7830 -31.7821 -31.7712 -31.7694
   -31.7406 -31.7396 -31.7321 -31.7310 -31.7250 -31.7222 -31.7190 -31.7182
   -31.7100 -31.7082 -31.4660 -31.4630 -31.3506 -31.3475 -31.2861 -31.2831
   -16.1810 -16.1395 -16.0745 -15.9809 -15.8691 -15.7268 -15.6148 -15.5017
   -15.4046 -15.3625 -15.3458 -15.3427 -15.2947 -15.2854 -15.2740 -15.2624
   -15.2388 -15.2299 -15.2060 -15.1810 -15.1501 -15.1318 -14.6918 -14.6885
    -3.5797  -3.5754  -3.5269  -3.4481  -3.3380  -3.2647  -3.1798  -3.1559
    -3.0682  -3.0572  -3.0161  -3.0144  -2.9870  -2.9773  -2.9495  -2.8773
    -2.8352  -2.8172  -2.7844  -2.7331  -2.6766  -2.6546  -2.3817  -2.3307
    -2.2401  -2.1575  -2.0749  -2.0021  -1.9952  -1.8677  -1.7776  -1.7547
    -1.7444  -1.6188  -1.6097  -1.4930  -1.4413  -1.3943  -1.3218  -1.2623
    -1.2527  -1.2033  -1.0535  -1.0032  -0.9396  -0.8800  -0.8085  -0.7878
    -0.6632  -0.6627  -0.5585  -0.5568  -0.4094  -0.3821  -0.3082  -0.2120
    -0.1445  -0.0776  -0.0384   0.0099   0.0558   0.1032   0.1393   0.2026
     0.2429   0.2700   0.4873   0.5707   0.6758   0.7675   0.8395   0.8902
     3.5509   3.5912   3.6671   3.7614   3.8294   3.8470   3.9277   3.9466
     3.9827   4.0304   4.1053   4.1415   4.2259   4.2484   4.2685   4.2850
     4.3208   4.3645   4.4438   4.4573   4.5351   4.5452   4.6662   4.6731
     4.6785   4.7363   4.7974   4.8964   4.9198

          k = 0.1667 0.5315 0.0000 (107403 PWs)   bands (ev):

   -55.5490 -55.5468 -55.5407 -55.5384 -55.5360 -55.5348 -55.5155 -55.5138
   -55.4924 -55.4906 -55.0527 -55.0496 -32.0099 -32.0079 -31.9999 -31.9991
   -31.9901 -31.9876 -31.9823 -31.9804 -31.9689 -31.9672 -31.7859 -31.7853
   -31.7782 -31.7767 -31.7674 -31.7666 -31.7538 -31.7533 -31.7413 -31.7397
   -31.7300 -31.7289 -31.7228 -31.7217 -31.7180 -31.7156 -31.7147 -31.7134
   -31.7016 -31.6998 -31.5034 -31.5003 -31.4447 -31.4417 -31.2720 -31.2690
   -15.7972 -15.7786 -15.7475 -15.7041 -15.6571 -15.6270 -15.5836 -15.5066
   -15.4420 -15.3911 -15.3526 -15.3512 -15.3033 -15.2922 -15.2722 -15.2246
   -15.1951 -15.1891 -15.1646 -15.1635 -15.1011 -15.0987 -14.6932 -14.6899
    -3.2267  -3.1860  -3.1497  -3.1481  -3.1391  -3.1281  -3.0967  -3.0679
    -3.0423  -2.9848  -2.9631  -2.9560  -2.9416  -2.9000  -2.8693  -2.8562
    -2.8353  -2.8244  -2.7550  -2.7499  -2.6977  -2.6461  -2.6434  -2.5775
    -2.3849  -2.3390  -2.2652  -2.1190  -2.1175  -1.9779  -1.8973  -1.8618
    -1.8323  -1.8236  -1.7721  -1.6844  -1.5273  -1.4075  -1.3569  -1.3036
    -1.2440  -1.2064  -1.1239  -1.0410  -0.9370  -0.8601  -0.7821  -0.7421
    -0.7356  -0.6935  -0.6739  -0.6470  -0.3712  -0.3666  -0.3035  -0.2855
    -0.2498  -0.2443  -0.2129  -0.1954  -0.1510  -0.0691   0.0261   0.1153
     0.1643   0.2245   0.4511   0.4621   0.4966   0.5209   0.5722   0.5815
     3.5018   3.5036   3.5381   3.5731   3.7611   3.7668   3.9864   4.1489
     4.2094   4.2108   4.2724   4.2981   4.3652   4.3786   4.4438   4.4493
     4.4891   4.5248   4.5443   4.5533   4.6216   4.6250   4.7206   4.7355
     4.8058   4.8424   4.8806   4.9749   5.0041

          k = 0.1667 0.7086 0.0000 (107394 PWs)   bands (ev):

   -55.5400 -55.5378 -55.5306 -55.5293 -55.5282 -55.5272 -55.5067 -55.5050
   -55.4837 -55.4818 -55.0434 -55.0403 -32.1026 -32.1006 -32.0913 -32.0908
   -32.0843 -32.0834 -32.0763 -32.0744 -32.0631 -32.0614 -31.7514 -31.7507
   -31.7491 -31.7475 -31.7422 -31.7416 -31.7373 -31.7366 -31.7283 -31.7265
   -31.7243 -31.7228 -31.7192 -31.7182 -31.7133 -31.7113 -31.7058 -31.7039
   -31.6992 -31.6974 -31.5936 -31.5905 -31.4431 -31.4400 -31.2537 -31.2507
   -15.7044 -15.7020 -15.6540 -15.6466 -15.6052 -15.5954 -15.5489 -15.5327
   -15.4686 -15.4479 -15.3516 -15.3289 -15.2914 -15.2495 -15.1869 -15.1667
   -15.1274 -15.1017 -15.0645 -15.0547 -15.0150 -15.0135 -14.6097 -14.6065
    -3.5307  -3.5176  -3.4542  -3.4282  -3.3435  -3.3187  -3.2048  -3.1761
    -3.0547  -3.0271  -2.8857  -2.8818  -2.7801  -2.7786  -2.7699  -2.7583
    -2.7359  -2.7163  -2.6774  -2.6393  -2.6243  -2.6165  -2.5367  -2.5342
    -2.4117  -2.3931  -2.2067  -2.2050  -1.9256  -1.8647  -1.7451  -1.6807
    -1.5775  -1.5336  -1.4438  -1.4208  -1.3858  -1.3464  -1.3444  -1.3271
    -1.2207  -1.1858  -1.1622  -1.1355  -1.1238  -1.1085  -1.0045  -0.9321
    -0.7926  -0.6475  -0.5491  -0.4863  -0.4182  -0.4124  -0.3462  -0.2914
    -0.2602  -0.2598  -0.2116  -0.1964  -0.1355  -0.1251  -0.1035  -0.0859
     0.0336   0.0352   0.1333   0.1601   0.3041   0.3210   0.4227   0.4605
     3.4455   3.4837   3.5979   3.6477   3.7448   3.8326   3.9261   3.9852
     4.1445   4.2500   4.3569   4.3732   4.4560   4.4731   4.4961   4.5255
     4.5472   4.5685   4.5972   4.6068   4.6138   4.6224   4.8283   4.8295
     4.8644   4.8697   4.9690   4.9912   5.1121

          k = 0.3333 0.0000 0.0000 (107365 PWs)   bands (ev):

   -55.5788 -55.5766 -55.5708 -55.5683 -55.5654 -55.5641 -55.5453 -55.5436
   -55.5224 -55.5205 -55.0842 -55.0811 -31.8807 -31.8800 -31.8676 -31.8671
   -31.8505 -31.8501 -31.8289 -31.8284 -31.8225 -31.8212 -31.7687 -31.7679
   -31.7548 -31.7525 -31.7383 -31.7372 -31.7286 -31.7272 -31.7209 -31.7194
   -31.6716 -31.6694 -31.6626 -31.6575 -31.6510 -31.6494 -31.6416 -31.6397
   -31.6273 -31.6256 -31.4794 -31.4764 -31.3460 -31.3429 -31.1260 -31.1229
   -16.3826 -16.3586 -16.3182 -16.2538 -16.1775 -16.0657 -15.9713 -15.8887
   -15.8158 -15.7676 -15.6417 -15.6388 -15.2297 -15.2274 -15.1389 -15.1342
   -15.1076 -15.0732 -15.0492 -15.0265 -15.0042 -15.0020 -14.6035 -14.6004
    -4.0676  -4.0656  -3.9910  -3.9680  -3.8560  -3.8498  -3.7139  -3.6164
    -3.5115  -3.5011  -2.9933  -2.9902  -2.6617  -2.5872  -2.4814  -2.4794
    -2.4626  -2.4218  -2.4201  -2.3880  -2.3850  -2.3650  -2.3566  -2.3286
    -2.3218  -2.2747  -2.0494  -1.9651  -1.9619  -1.8395  -1.6873  -1.6750
    -1.6221  -1.5916  -1.5172  -1.5031  -1.3706  -1.2100  -1.0759  -0.9406
    -0.8856  -0.8143  -0.6652  -0.6371  -0.5860  -0.5191  -0.4935  -0.4866
    -0.4226  -0.3898  -0.3770  -0.3361  -0.2399  -0.1703  -0.1547  -0.1445
    -0.0988  -0.0039   0.0056   0.0312   0.0720   0.0741   0.1270   0.1292
     0.1871   0.2022   0.3710   0.4037   0.5533   0.6596   0.7605   0.8427
     3.4042   3.4079   3.5379   3.5400   3.6583   3.6873   3.7810   3.8565
     3.9071   3.9181   3.9372   3.9430   4.0012   4.0843   4.1943   4.1974
     4.2529   4.3081   4.3735   4.3811   4.4628   4.5274   4.6071   4.7004
     4.8090   4.9166   4.9198   4.9210   5.0056

          k = 0.3333 0.1772 0.0000 (107297 PWs)   bands (ev):

   -55.5741 -55.5719 -55.5660 -55.5636 -55.5609 -55.5597 -55.5406 -55.5389
   -55.5177 -55.5159 -55.0793 -55.0762 -31.8678 -31.8671 -31.8553 -31.8549
   -31.8393 -31.8386 -31.8181 -31.8178 -31.8114 -31.8102 -31.7697 -31.7693
   -31.7558 -31.7536 -31.7408 -31.7392 -31.7300 -31.7271 -31.7190 -31.7173
   -31.7150 -31.7132 -31.7097 -31.7045 -31.7006 -31.6974 -31.6945 -31.6926
   -31.6774 -31.6756 -31.4747 -31.4717 -31.3378 -31.3347 -31.1820 -31.1789
   -16.2741 -16.2512 -16.2119 -16.1494 -16.0753 -15.9679 -15.8781 -15.7985
   -15.7277 -15.6805 -15.5557 -15.5529 -15.2672 -15.2649 -15.1857 -15.1798
   -15.1542 -15.1213 -15.0984 -15.0759 -15.0549 -15.0523 -14.6344 -14.6313
    -3.9231  -3.9212  -3.8449  -3.8237  -3.7078  -3.7048  -3.5668  -3.4699
    -3.3584  -3.3463  -2.9467  -2.9437  -2.8318  -2.8271  -2.8071  -2.7891
    -2.7542  -2.7176  -2.6747  -2.6345  -2.5952  -2.5678  -2.2507  -2.2148
    -2.1133  -1.9749  -1.9388  -1.8981  -1.7169  -1.5803  -1.5618  -1.4732
    -1.4160  -1.3868  -1.2852  -1.2497  -1.2433  -1.1745  -1.1098  -1.0245
    -0.9541  -0.9423  -0.8779  -0.8318  -0.8010  -0.7074  -0.6940  -0.6484
    -0.5519  -0.4806  -0.4446  -0.4120  -0.3546  -0.3403  -0.3297  -0.2829
    -0.2664  -0.1459  -0.1153  -0.1129  -0.0361  -0.0075   0.0590   0.1236
     0.2371   0.2731   0.3784   0.3904   0.5021   0.6177   0.7404   0.8403
     3.5340   3.5353   3.6368   3.6584   3.7568   3.7584   3.8665   3.9356
     3.9709   4.0054   4.0271   4.0478   4.1013   4.1311   4.1666   4.2172
     4.2726   4.3005   4.3747   4.3924   4.5402   4.5467   4.5999   4.6585
     4.6938   4.7389   4.8162   4.9066   5.0755

          k = 0.3333 0.3543 0.0000 (107279 PWs)   bands (ev):

   -55.5623 -55.5601 -55.5538 -55.5517 -55.5495 -55.5484 -55.5289 -55.5272
   -55.5059 -55.5041 -55.0668 -55.0637 -31.8681 -31.8662 -31.8591 -31.8562
   -31.8490 -31.8471 -31.8425 -31.8409 -31.8299 -31.8286 -31.8240 -31.8232
   -31.8154 -31.8127 -31.8036 -31.7975 -31.7836 -31.7830 -31.7721 -31.7702
   -31.7409 -31.7387 -31.7313 -31.7288 -31.7219 -31.7213 -31.7171 -31.7166
   -31.7085 -31.7068 -31.4660 -31.4629 -31.3506 -31.3475 -31.2859 -31.2828
   -15.9996 -15.9790 -15.9419 -15.8848 -15.8174 -15.7296 -15.6602 -15.5928
   -15.5315 -15.4873 -15.4119 -15.4095 -15.2972 -15.2949 -15.2812 -15.2732
   -15.2552 -15.2299 -15.2118 -15.1919 -15.1755 -15.1705 -14.6976 -14.6944
    -3.5568  -3.5555  -3.4753  -3.4703  -3.3574  -3.3566  -3.2369  -3.1400
    -3.1025  -3.0934  -3.0714  -3.0411  -3.0159  -3.0120  -2.9646  -2.9561
    -2.9169  -2.8778  -2.8241  -2.8200  -2.7778  -2.7390  -2.1679  -2.1648
    -2.0098  -1.9769  -1.8961  -1.8327  -1.7731  -1.7555  -1.7334  -1.6757
    -1.6471  -1.5931  -1.5590  -1.4543  -1.3688  -1.2878  -1.2839  -1.1633
    -1.1236  -1.0764  -1.0442  -1.0084  -0.9336  -0.9062  -0.7780  -0.7633
    -0.6961  -0.6214  -0.5914  -0.5448  -0.4091  -0.3839  -0.2822  -0.2445
    -0.1903  -0.1790  -0.1322  -0.1237  -0.0239  -0.0059   0.0929   0.1517
     0.1946   0.2504   0.2859   0.3462   0.4661   0.5703   0.6462   0.7016
     3.6915   3.7019   3.7236   3.7671   3.8214   3.8539   4.0295   4.0358
     4.0523   4.0755   4.1121   4.1594   4.2014   4.2039   4.2361   4.2406
     4.3701   4.3743   4.4931   4.4957   4.5766   4.5789   4.7350   4.7496
     4.7784   4.7934   4.7994   4.8677   4.8852

          k = 0.3333 0.5315 0.0000 (107320 PWs)   bands (ev):

   -55.5488 -55.5466 -55.5398 -55.5381 -55.5366 -55.5356 -55.5155 -55.5138
   -55.4925 -55.4906 -55.0526 -55.0495 -32.0096 -32.0077 -31.9995 -31.9965
   -31.9909 -31.9896 -31.9822 -31.9803 -31.9693 -31.9676 -31.7886 -31.7881
   -31.7802 -31.7795 -31.7700 -31.7671 -31.7547 -31.7538 -31.7417 -31.7400
   -31.7303 -31.7277 -31.7219 -31.7204 -31.7157 -31.7154 -31.7139 -31.7128
   -31.7008 -31.6990 -31.5035 -31.5004 -31.4446 -31.4415 -31.2721 -31.2691
   -15.7246 -15.7103 -15.6824 -15.6454 -15.6088 -15.5752 -15.5200 -15.4916
   -15.4693 -15.4577 -15.4035 -15.3891 -15.3400 -15.3096 -15.2931 -15.2592
   -15.2461 -15.2153 -15.1859 -15.1718 -15.1181 -15.1155 -14.6931 -14.6898
    -3.2841  -3.2696  -3.2516  -3.2404  -3.2217  -3.1931  -3.1786  -3.1335
    -3.1174  -3.1168  -3.0613  -3.0393  -3.0337  -2.9772  -2.9444  -2.9368
    -2.9011  -2.8746  -2.8475  -2.7615  -2.6897  -2.6769  -2.6321  -2.6243
    -2.3262  -2.3163  -2.2504  -2.1585  -1.9328  -1.8747  -1.8368  -1.8210
    -1.7810  -1.7668  -1.5217  -1.5016  -1.3735  -1.2809  -1.2299  -1.1846
    -1.1558  -1.0914  -1.0353  -1.0199  -0.9757  -0.9442  -0.8488  -0.7580
    -0.6801  -0.6477  -0.5874  -0.4852  -0.4290  -0.4079  -0.3280  -0.2788
    -0.2178  -0.2152  -0.1045  -0.0945  -0.0013   0.0526   0.1085   0.1606
     0.2191   0.2917   0.4268   0.4354   0.4635   0.4951   0.5304   0.5364
     3.4872   3.5435   3.6282   3.7423   3.8538   3.8770   4.1081   4.1767
     4.1990   4.2121   4.2448   4.2771   4.3306   4.3391   4.3864   4.3959
     4.4167   4.4402   4.4659   4.5320   4.5771   4.5922   4.6250   4.6934
     4.7598   4.7981   4.8602   4.8754   4.9675

          k = 0.3333 0.7086 0.0000 (107454 PWs)   bands (ev):

   -55.5400 -55.5377 -55.5303 -55.5292 -55.5284 -55.5273 -55.5067 -55.5050
   -55.4837 -55.4818 -55.0434 -55.0403 -32.1026 -32.1006 -32.0914 -32.0902
   -32.0843 -32.0837 -32.0762 -32.0743 -32.0631 -32.0614 -31.7527 -31.7520
   -31.7499 -31.7489 -31.7437 -31.7412 -31.7373 -31.7370 -31.7282 -31.7264
   -31.7240 -31.7222 -31.7190 -31.7182 -31.7130 -31.7111 -31.7063 -31.7045
   -31.6993 -31.6975 -31.5934 -31.5904 -31.4433 -31.4402 -31.2540 -31.2509
   -15.7082 -15.7058 -15.6498 -15.6436 -15.6059 -15.5879 -15.5456 -15.5366
   -15.4819 -15.4766 -15.3079 -15.3017 -15.2432 -15.2288 -15.1897 -15.1792
   -15.1362 -15.1153 -15.0745 -15.0587 -15.0244 -15.0228 -14.6035 -14.6002
    -3.5385  -3.5367  -3.4877  -3.4873  -3.4341  -3.3861  -3.3155  -3.2980
    -3.2028  -3.2018  -3.1152  -3.0995  -2.9449  -2.9179  -2.8445  -2.7913
    -2.7705  -2.7507  -2.7228  -2.7169  -2.6278  -2.6020  -2.5511  -2.5478
    -2.3734  -2.3712  -2.2395  -2.1710  -1.9765  -1.9393  -1.8075  -1.6972
    -1.5618  -1.5363  -1.4317  -1.4176  -1.3840  -1.3462  -1.3196  -1.3103
    -1.2398  -1.2283  -1.2158  -1.1588  -1.0883  -1.0311  -0.6662  -0.6497
    -0.5733  -0.4946  -0.4072  -0.3884  -0.2800  -0.2762  -0.2030  -0.1897
    -0.1665  -0.1269  -0.0830  -0.0668  -0.0401   0.0318   0.0670   0.0809
     0.1622   0.1868   0.2871   0.2976   0.3927   0.4117   0.4729   0.5143
     3.4736   3.4930   3.5507   3.6320   3.7856   3.7932   3.8992   3.9547
     4.0674   4.1118   4.3485   4.3766   4.5100   4.5118   4.5215   4.5286
     4.5371   4.5560   4.5661   4.5674   4.5962   4.6160   4.6827   4.7031
     4.8099   4.8206   4.8818   4.8890   5.0275

          k =-0.5000 0.0000 0.0000 (107364 PWs)   bands (ev):

   -55.5784 -55.5762 -55.5686 -55.5678 -55.5669 -55.5658 -55.5453 -55.5436
   -55.5224 -55.5206 -55.0842 -55.0811 -31.8829 -31.8823 -31.8695 -31.8690
   -31.8518 -31.8514 -31.8298 -31.8295 -31.8229 -31.8216 -31.7682 -31.7676
   -31.7535 -31.7527 -31.7371 -31.7364 -31.7268 -31.7266 -31.7199 -31.7185
   -31.6706 -31.6683 -31.6582 -31.6574 -31.6534 -31.6526 -31.6409 -31.6390
   -31.6283 -31.6266 -31.4792 -31.4761 -31.3459 -31.3428 -31.1260 -31.1229
   -16.1734 -16.1707 -16.0942 -16.0930 -16.0753 -16.0747 -16.0597 -16.0582
   -16.0433 -16.0413 -15.7010 -15.6979 -15.2207 -15.2185 -15.1112 -15.1096
   -15.0855 -15.0853 -15.0638 -15.0631 -15.0362 -15.0349 -14.6087 -14.6056
    -4.0592  -4.0582  -3.9655  -3.9652  -3.8354  -3.8351  -3.6791  -3.6790
    -3.5472  -3.5469  -2.9906  -2.9875  -2.4890  -2.4871  -2.4316  -2.4312
    -2.3950  -2.3939  -2.3648  -2.3646  -2.3297  -2.3281  -1.9676  -1.9645
    -1.9623  -1.9606  -1.9143  -1.9141  -1.8532  -1.8526  -1.7700  -1.7698
    -1.6378  -1.6377  -1.5867  -1.5858  -1.4827  -1.4817  -1.2768  -1.2765
    -0.9727  -0.9719  -0.7694  -0.7690  -0.5841  -0.5838  -0.5132  -0.5109
    -0.4584  -0.4559  -0.2354  -0.2354  -0.2220  -0.2180  -0.1703  -0.1698
    -0.0903  -0.0900  -0.0082  -0.0072   0.0872   0.0897   0.1372   0.1378
     0.2084   0.2092   0.2773   0.2793   0.3836   0.3841   0.5140   0.5146
     3.3941   3.3948   3.5381   3.5393   3.6914   3.6917   3.8054   3.8064
     3.8675   3.8682   3.9776   3.9780   4.0734   4.0741   4.1921   4.1923
     4.2971   4.2977   4.3607   4.3615   4.8388   4.8421   4.8571   4.8599
     4.9322   4.9329   4.9767   4.9776   5.0330

          k =-0.5000 0.1772 0.0000 (107236 PWs)   bands (ev):

   -55.5738 -55.5716 -55.5640 -55.5631 -55.5622 -55.5612 -55.5406 -55.5390
   -55.5178 -55.5159 -55.0793 -55.0762 -31.8699 -31.8692 -31.8572 -31.8567
   -31.8404 -31.8400 -31.8189 -31.8187 -31.8118 -31.8106 -31.7693 -31.7689
   -31.7545 -31.7539 -31.7395 -31.7388 -31.7279 -31.7278 -31.7185 -31.7168
   -31.7137 -31.7117 -31.7060 -31.7052 -31.7011 -31.7004 -31.6938 -31.6919
   -31.6781 -31.6764 -31.4746 -31.4716 -31.3377 -31.3347 -31.1820 -31.1789
   -16.0753 -16.0726 -15.9950 -15.9936 -15.9774 -15.9768 -15.9620 -15.9603
   -15.9486 -15.9466 -15.6157 -15.6126 -15.2542 -15.2520 -15.1557 -15.1541
   -15.1318 -15.1317 -15.1121 -15.1114 -15.0855 -15.0842 -14.6391 -14.6360
    -3.9158  -3.9149  -3.8222  -3.8219  -3.6908  -3.6905  -3.5311  -3.5310
    -3.3932  -3.3929  -2.9363  -2.9333  -2.7834  -2.7817  -2.7487  -2.7485
    -2.7078  -2.7072  -2.6593  -2.6588  -2.6080  -2.6074  -1.9593  -1.9565
    -1.8787  -1.8765  -1.7482  -1.7474  -1.6375  -1.6372  -1.4934  -1.4928
    -1.4111  -1.4093  -1.3136  -1.3135  -1.1911  -1.1907  -1.1305  -1.1303
    -0.9220  -0.9215  -0.7939  -0.7925  -0.6776  -0.6774  -0.6426  -0.6419
    -0.6066  -0.6063  -0.5537  -0.5531  -0.4756  -0.4750  -0.4242  -0.4234
    -0.3487  -0.3464  -0.2840  -0.2818  -0.0830  -0.0794   0.0977   0.0982
     0.2281   0.2285   0.3751   0.3758   0.4818   0.4830   0.5855   0.5860
     3.5243   3.5256   3.6412   3.6419   3.7755   3.7759   3.8811   3.8819
     3.9484   3.9488   4.0733   4.0738   4.1573   4.1582   4.2312   4.2320
     4.3133   4.3138   4.4027   4.4031   4.6103   4.6134   4.8980   4.8983
     4.9240   4.9253   4.9521   4.9536   4.9889

          k =-0.5000 0.3543 0.0000 (107194 PWs)   bands (ev):

   -55.5621 -55.5598 -55.5523 -55.5514 -55.5505 -55.5494 -55.5289 -55.5272
   -55.5060 -55.5041 -55.0668 -55.0637 -31.8676 -31.8659 -31.8566 -31.8565
   -31.8500 -31.8498 -31.8435 -31.8418 -31.8295 -31.8291 -31.8245 -31.8236
   -31.8153 -31.8148 -31.8019 -31.8016 -31.7852 -31.7847 -31.7722 -31.7704
   -31.7387 -31.7384 -31.7305 -31.7293 -31.7213 -31.7206 -31.7162 -31.7156
   -31.7077 -31.7060 -31.4659 -31.4629 -31.3507 -31.3476 -31.2858 -31.2827
   -15.8276 -15.8249 -15.7510 -15.7492 -15.7410 -15.7406 -15.7302 -15.7284
   -15.7192 -15.7175 -15.4730 -15.4703 -15.2802 -15.2780 -15.2496 -15.2477
   -15.2350 -15.2348 -15.2232 -15.2224 -15.1994 -15.1976 -14.7005 -14.6973
    -3.5539  -3.5530  -3.4657  -3.4654  -3.3400  -3.3398  -3.1857  -3.1856
    -3.1189  -3.1178  -3.0760  -3.0756  -3.0462  -3.0461  -3.0109  -3.0106
    -2.9301  -2.9299  -2.8422  -2.8417  -2.7877  -2.7859  -2.2129  -2.2106
    -1.9781  -1.9775  -1.7990  -1.7986  -1.6938  -1.6914  -1.5790  -1.5787
    -1.4005  -1.4001  -1.3261  -1.3254  -1.2670  -1.2662  -1.2291  -1.2289
    -1.0946  -1.0944  -0.9289  -0.9287  -0.8351  -0.8335  -0.7387  -0.7378
    -0.6951  -0.6947  -0.6194  -0.6187  -0.5512  -0.5504  -0.4369  -0.4366
    -0.3001  -0.2990  -0.1459  -0.1445  -0.0586  -0.0581   0.0954   0.0959
     0.2400   0.2412   0.3271   0.3285   0.4274   0.4279   0.5010   0.5026
     3.7676   3.7697   3.8806   3.8809   3.9302   3.9313   3.9563   3.9566
     3.9819   3.9839   4.0478   4.0501   4.2521   4.2527   4.3120   4.3125
     4.4132   4.4134   4.5074   4.5079   4.6677   4.6701   4.7606   4.7611
     4.8030   4.8045   4.8263   4.8275   4.8786

          k =-0.5000 0.5315 0.0000 (107356 PWs)   bands (ev):

   -55.5487 -55.5465 -55.5389 -55.5380 -55.5372 -55.5361 -55.5155 -55.5138
   -55.4925 -55.4906 -55.0526 -55.0495 -32.0096 -32.0077 -31.9978 -31.9975
   -31.9907 -31.9904 -31.9820 -31.9801 -31.9693 -31.9676 -31.7899 -31.7895
   -31.7810 -31.7808 -31.7696 -31.7692 -31.7554 -31.7550 -31.7413 -31.7397
   -31.7283 -31.7281 -31.7218 -31.7205 -31.7155 -31.7150 -31.7135 -31.7125
   -31.7003 -31.6985 -31.5035 -31.5005 -31.4445 -31.4415 -31.2722 -31.2691
   -15.6569 -15.6546 -15.6077 -15.6069 -15.5782 -15.5775 -15.5374 -15.5369
   -15.4878 -15.4874 -15.4055 -15.4046 -15.3366 -15.3361 -15.2856 -15.2853
   -15.2402 -15.2400 -15.2040 -15.2034 -15.1289 -15.1262 -14.6930 -14.6897
    -3.2930  -3.2910  -3.2782  -3.2773  -3.2466  -3.2457  -3.1930  -3.1929
    -3.1477  -3.1473  -3.1245  -3.1239  -3.0639  -3.0636  -2.9760  -2.9748
    -2.9047  -2.9037  -2.8395  -2.8392  -2.7692  -2.7672  -2.6024  -2.5998
    -2.0817  -2.0808  -2.0569  -2.0562  -2.0111  -2.0108  -1.9564  -1.9556
    -1.8298  -1.8275  -1.3784  -1.3760  -1.2837  -1.2814  -1.1841  -1.1833
    -1.0722  -1.0717  -0.9854  -0.9852  -0.9404  -0.9394  -0.7891  -0.7865
    -0.5781  -0.5767  -0.5217  -0.5214  -0.4399  -0.4398  -0.3126  -0.3120
    -0.1970  -0.1956   0.0136   0.0164   0.2243   0.2270   0.2600   0.2622
     0.2883   0.2886   0.3193   0.3197   0.3298   0.3306   0.4061   0.4088
     3.7043   3.7045   3.7837   3.7841   3.8871   3.8873   4.0007   4.0013
     4.1106   4.1116   4.1410   4.1423   4.3324   4.3328   4.4064   4.4067
     4.4852   4.4855   4.5553   4.5554   4.6062   4.6067   4.6520   4.6527
     4.7282   4.7309   4.8121   4.8132   4.9332

          k =-0.5000 0.7086 0.0000 (107394 PWs)   bands (ev):

   -55.5400 -55.5377 -55.5302 -55.5292 -55.5284 -55.5273 -55.5067 -55.5050
   -55.4837 -55.4818 -55.0434 -55.0402 -32.1027 -32.1007 -32.0911 -32.0907
   -32.0840 -32.0836 -32.0761 -32.0742 -32.0630 -32.0613 -31.7533 -31.7527
   -31.7504 -31.7496 -31.7434 -31.7427 -31.7375 -31.7371 -31.7279 -31.7261
   -31.7231 -31.7225 -31.7189 -31.7183 -31.7118 -31.7098 -31.7081 -31.7062
   -31.6991 -31.6973 -31.5933 -31.5903 -31.4434 -31.4403 -31.2541 -31.2510
   -15.7088 -15.7065 -15.6394 -15.6390 -15.5963 -15.5961 -15.5473 -15.5472
   -15.4935 -15.4925 -15.2896 -15.2872 -15.2162 -15.2146 -15.1796 -15.1794
   -15.1244 -15.1242 -15.0787 -15.0783 -15.0348 -15.0331 -14.6005 -14.5972
    -3.5251  -3.5237  -3.5017  -3.5012  -3.4661  -3.4656  -3.4001  -3.3999
    -3.3130  -3.3121  -3.1974  -3.1960  -3.0200  -3.0199  -2.8764  -2.8763
    -2.7520  -2.7519  -2.6672  -2.6669  -2.6269  -2.6255  -2.5488  -2.5455
    -2.1317  -2.1313  -2.0929  -2.0927  -2.0109  -2.0105  -1.9098  -1.9094
    -1.8265  -1.8256  -1.3971  -1.3946  -1.3024  -1.3017  -1.2662  -1.2657
    -1.2271  -1.2259  -1.1811  -1.1803  -1.1071  -1.1052  -0.6487  -0.6467
    -0.5012  -0.5009  -0.3632  -0.3628  -0.2436  -0.2425  -0.1157  -0.1154
    -0.0114  -0.0097   0.0121   0.0133   0.1520   0.1526   0.2059   0.2065
     0.2911   0.2914   0.3692   0.3711   0.4228   0.4235   0.5091   0.5092
     3.4494   3.4495   3.5683   3.5686   3.7169   3.7170   3.8796   3.8797
     4.0481   4.0494   4.4439   4.4460   4.5009   4.5027   4.5463   4.5473
     4.5655   4.5659   4.5794   4.5794   4.5992   4.6011   4.6682   4.6685
     4.7855   4.7874   4.8548   4.8552   4.9891

     the Fermi energy is     2.2794 ev

!    total energy              =   -2155.89399376 Ry
     estimated scf accuracy    <       0.00000054 Ry
     smearing contrib. (-TS)   =      -0.00000000 Ry
     internal energy E=F+TS    =   -2155.89399376 Ry

     The total energy is F=E-TS. E is the sum of the following terms:
     one-electron contribution =  -72328.83234111 Ry
     hartree contribution      =   36217.59461928 Ry
     xc contribution           =    -340.13481388 Ry
     ewald contribution        =   34295.47854195 Ry

     convergence has been achieved in  27 iterations

     Forces acting on atoms (cartesian axes, Ry/au):

     atom    1 type  1   force =     0.00051382    0.00000000   -0.00032917
     atom    2 type  1   force =    -0.00060670    0.00000000   -0.00037142
     atom    3 type  1   force =    -0.00010632    0.00000000    0.00023642
     atom    4 type  1   force =    -0.00010721    0.00000000   -0.00003805
     atom    5 type  1   force =    -0.00033824    0.00000000   -0.00031779
     atom    6 type  1   force =     0.00008301    0.00000000   -0.00013451
     atom    7 type  1   force =     0.00007297    0.00000000    0.00014536
     atom    8 type  1   force =    -0.00035990    0.00000000    0.00030916
     atom    9 type  1   force =    -0.00008112    0.00000000   -0.00003857
     atom   10 type  1   force =    -0.00005829    0.00000000   -0.00025265
     atom   11 type  1   force =    -0.00061516    0.00000000    0.00047787
     atom   12 type  1   force =     0.00047781    0.00000000    0.00037080
     atom   13 type  2   force =    -0.00044184    0.00000000   -0.00021139
     atom   14 type  2   force =     0.00007988    0.00000000   -0.00031252
     atom   15 type  2   force =     0.00012128    0.00000000    0.00021333
     atom   16 type  2   force =     0.00062734    0.00000000   -0.00039242
     atom   17 type  2   force =     0.00036075    0.00000000   -0.00027372
     atom   18 type  2   force =     0.00022671    0.00000000   -0.00034818
     atom   19 type  2   force =     0.00004091    0.00000000   -0.00056706
     atom   20 type  2   force =    -0.00015329    0.00000000   -0.00025880
     atom   21 type  2   force =    -0.00039011    0.00000000    0.00018964
     atom   22 type  2   force =    -0.00046753    0.00000000    0.00002943
     atom   23 type  2   force =     0.00067867    0.00000000   -0.00005050
     atom   24 type  2   force =     0.00065303    0.00000000    0.00007427
     atom   25 type  2   force =    -0.00008556    0.00000000   -0.00029665
     atom   26 type  2   force =    -0.00007730    0.00000000    0.00028270
     atom   27 type  2   force =    -0.00018885    0.00000000    0.00023223
     atom   28 type  2   force =     0.00008448    0.00000000    0.00048095
     atom   29 type  2   force =    -0.00047114    0.00000000    0.00000063
     atom   30 type  2   force =    -0.00034789    0.00000000   -0.00019600
     atom   31 type  2   force =     0.00060451    0.00000000    0.00039233
     atom   32 type  2   force =     0.00003520    0.00000000   -0.00019541
     atom   33 type  2   force =     0.00020429    0.00000000    0.00021377
     atom   34 type  2   force =     0.00041460    0.00000000    0.00044822
     atom   35 type  2   force =    -0.00042831    0.00000000    0.00022017
     atom   36 type  2   force =     0.00004547    0.00000000    0.00026757

     Total force =     0.002786     Total SCF correction =     0.004880
     SCF correction compared to forces is large: reduce conv_thr to get better values


     Computing stress (Cartesian axis) and pressure

          total   stress  (Ry/bohr**3)                   (kbar)     P=        1.04
   0.00000158   0.00000000  -0.00000008            0.23        0.00       -0.01
   0.00000000  -0.00000138   0.00000000            0.00       -0.20        0.00
  -0.00000008   0.00000000   0.00002101           -0.01        0.00        3.09


     BFGS Geometry Optimization
     Energy error            =      0.0E+00 Ry
     Gradient error          =      6.8E-04 Ry/Bohr
     Cell gradient error     =      2.3E-01 kbar

     bfgs converged in   1 scf cycles and   0 bfgs steps
     (criteria: energy <  1.0E-04 Ry, force <  1.0E-03 Ry/Bohr, cell <  5.0E-01 kbar)

     End of BFGS Geometry Optimization

     Final enthalpy           =   -2155.8939937604 Ry
Begin final coordinates
     new unit-cell volume =   4836.78788 a.u.^3 (   716.73802 Ang^3 )
     density =      2.22038 g/cm^3

CELL_PARAMETERS (angstrom)
   4.721640958   0.000000000   0.000000000
   0.000000000   2.961395139   0.000000000
   0.000000000   0.000000000  51.259117127

ATOMIC_POSITIONS (angstrom)
Ti               0.1603001722        0.0000000000       14.6075172097
Ti               2.4782968433        1.4806974816       16.8402016607
Ti               0.0943124268        0.0000000000       19.1998115185
Ti               2.4467794130        1.4806974816       21.4618504648
Ti               0.0802004462        0.0000000000       23.7998092710
Ti               2.4359328628        1.4806974816       26.0621872812
Ti               0.0750142636        0.0000000000       28.3888001037
Ti               2.4411231082        1.4806974816       30.6519918363
Ti               0.0860694502        0.0000000000       32.9911638406
Ti               2.4553319352        1.4806974816       35.2529670890
Ti               0.1176688040        0.0000000000       37.6137067104
Ti               2.5210935580        1.4806974816       39.8461726096
O                0.6195196194        1.4806975697       13.6062995409
O                1.4207932975        0.0000000000       15.9438753890
O                3.2432220551        0.0000000000       17.7676155811
O                0.8671956870        1.4806975697       18.2643798769
O                3.6828510671        1.4806975697       15.4302434467
O                1.4490018982        0.0000000000       20.5583440203
O                3.2426925146        0.0000000000       22.3946480724
O                0.8824616346        1.4806975697       22.8688836865
O                3.8030824973        1.4806975697       20.0980259882
O                1.4550700943        0.0000000000       25.1556745313
O                3.2350962880        0.0000000000       26.9971879406
O                0.8740849475        1.4806975697       27.4535221288
O                3.8153723824        1.4806975697       24.7070791671
O                1.4538738875        0.0000000000       29.7447438345
O                3.2434086461        0.0000000000       31.5830620307
O                0.8823545869        1.4806975697       32.0591852105
O                3.8151976488        1.4806975697       29.2951398039
O                1.4419131218        0.0000000000       34.3551507735
O                3.2290375170        0.0000000000       36.1874738879
O                0.8834941821        1.4806975697       36.6873267936
O                3.8096001247        1.4806975697       33.8942406194
O                1.3209814533        0.0000000000       39.0248823546
O                2.9812174065        0.0000000000       40.8469447543
O                3.7809634658        1.4806975697       38.5093186570
End final coordinates



     Writing config-only to output data dir ./Out/pwscf.save/

     Final scf calculation at the relaxed structure.
     The G-vectors are recalculated for the final unit cell
     Results may differ from those at the preceding step.
 
     G-vector sticks info
     --------------------
     sticks:   dense  smooth     PW     G-vecs:    dense   smooth      PW
     Sum        1913    1913    537               859135   859135  126533
 
     Using Slab Decomposition
 


     bravais-lattice index     =            0
     lattice parameter (alat)  =       8.9226  a.u.
     unit-cell volume          =    4836.7879 (a.u.)^3
     number of atoms/cell      =           36
     number of atomic types    =            2
     number of electrons       =       288.00
     number of Kohn-Sham states=          173
     kinetic-energy cutoff     =     120.0000  Ry
     charge density cutoff     =     480.0000  Ry
     scf convergence threshold =      1.0E-06
     mixing beta               =       0.4000
     number of iterations used =           20  plain     mixing
     press convergence thresh. =      5.0E-01
     Exchange-correlation= PBE
                           (   1   4   3   4   0   0   0)

     GPU acceleration is ACTIVE.


     celldm(1)=   8.922608  celldm(2)=   0.000000  celldm(3)=   0.000000
     celldm(4)=   0.000000  celldm(5)=   0.000000  celldm(6)=   0.000000

     crystal axes: (cart. coord. in units of alat)
               a(1) = (   1.000000   0.000000   0.000000 )  
               a(2) = (   0.000000   0.627196   0.000000 )  
               a(3) = (   0.000000   0.000000  10.856208 )  

     reciprocal axes: (cart. coord. in units 2 pi/alat)
               b(1) = (  1.000000  0.000000  0.000000 )  
               b(2) = (  0.000000  1.594397  0.000000 )  
               b(3) = (  0.000000  0.000000  0.092113 )  


     PseudoPot. # 1 for Ti read from file:
     /cm/shared/apps/KO/pseudo/sg15/Ti_ONCV_PBE-1.2.upf
     MD5 check sum: 1aea57736bd12dcfee93c97d0b9b5968
     Pseudo is Norm-conserving, Zval = 12.0
     Generated using ONCVPSP code by D. R. Hamann
     Using radial grid of  602 points,  6 beta functions with: 
                l(1) =   0
                l(2) =   0
                l(3) =   1
                l(4) =   1
                l(5) =   2
                l(6) =   2

     PseudoPot. # 2 for O  read from file:
     /cm/shared/apps/KO/pseudo/sg15/O_ONCV_PBE-1.2.upf
     MD5 check sum: e36c48deb68f4e355fffe4602be2c42c
     Pseudo is Norm-conserving, Zval =  6.0
     Generated using ONCVPSP code by D. R. Hamann
     Using radial grid of  602 points,  4 beta functions with: 
                l(1) =   0
                l(2) =   0
                l(3) =   1
                l(4) =   1

     atomic species   valence    mass     pseudopotential
     Ti               12.00    47.86700     Ti( 1.00)
     O                 6.00    15.99900     O ( 1.00)

      2 Sym. Ops. (no inversion) found



   Cartesian axes

     site n.     atom                  positions (alat units)
         1        Ti     tau(   1) = (   0.0339501   0.0000000   3.0937374  )
         2        Ti     tau(   2) = (   0.5248804   0.3135981   3.5665994  )
         3        Ti     tau(   3) = (   0.0199745   0.0000000   4.0663430  )
         4        Ti     tau(   4) = (   0.5182053   0.3135981   4.5454220  )
         5        Ti     tau(   5) = (   0.0169857   0.0000000   5.0405801  )
         6        Ti     tau(   6) = (   0.5159081   0.3135981   5.5197309  )
         7        Ti     tau(   7) = (   0.0158873   0.0000000   6.0124860  )
         8        Ti     tau(   8) = (   0.5170074   0.3135981   6.4918091  )
         9        Ti     tau(   9) = (   0.0182287   0.0000000   6.9872242  )
        10        Ti     tau(  10) = (   0.5200167   0.3135981   7.4662532  )
        11        Ti     tau(  11) = (   0.0249212   0.0000000   7.9662361  )
        12        Ti     tau(  12) = (   0.5339444   0.3135981   8.4390518  )
        13        O      tau(  13) = (   0.1312085   0.3135981   2.8816887  )
        14        O      tau(  14) = (   0.3009109   0.0000000   3.3767657  )
        15        O      tau(  15) = (   0.6868845   0.0000000   3.7630171  )
        16        O      tau(  16) = (   0.1836640   0.3135981   3.8682272  )
        17        O      tau(  17) = (   0.7799939   0.3135981   3.2679832  )
        18        O      tau(  18) = (   0.3068852   0.0000000   4.3540676  )
        19        O      tau(  19) = (   0.6867724   0.0000000   4.7429799  )
        20        O      tau(  20) = (   0.1868972   0.3135981   4.8434186  )
        21        O      tau(  21) = (   0.8054578   0.3135981   4.2565765  )
        22        O      tau(  22) = (   0.3081704   0.0000000   5.3277398  )
        23        O      tau(  23) = (   0.6851636   0.0000000   5.7177554  )
        24        O      tau(  24) = (   0.1851231   0.3135981   5.8144027  )
        25        O      tau(  25) = (   0.8080607   0.3135981   5.2327315  )
        26        O      tau(  26) = (   0.3079171   0.0000000   6.2996624  )
        27        O      tau(  27) = (   0.6869240   0.0000000   6.6890012  )
        28        O      tau(  28) = (   0.1868746   0.3135981   6.7898397  )
        29        O      tau(  29) = (   0.8080237   0.3135981   6.2044404  )
        30        O      tau(  30) = (   0.3053839   0.0000000   7.2761040  )
        31        O      tau(  31) = (   0.6838804   0.0000000   7.6641732  )
        32        O      tau(  32) = (   0.1871159   0.3135981   7.7700374  )
        33        O      tau(  33) = (   0.8068382   0.3135981   7.1784875  )
        34        O      tau(  34) = (   0.2797717   0.0000000   8.2651101  )
        35        O      tau(  35) = (   0.6313943   0.0000000   8.6510061  )
        36        O      tau(  36) = (   0.8007732   0.3135981   8.1559185  )

     number of k points=    20  Gaussian smearing, width (Ry)=  0.0200
                       cart. coord. in units 2pi/alat
        k(    1) = (   0.0000000   0.0000000   0.0000000), wk =   0.0370370
        k(    2) = (   0.0000000   0.1771553   0.0000000), wk =   0.0740741
        k(    3) = (   0.0000000   0.3543106   0.0000000), wk =   0.0740741
        k(    4) = (   0.0000000   0.5314658   0.0000000), wk =   0.0740741
        k(    5) = (   0.0000000   0.7086211   0.0000000), wk =   0.0740741
        k(    6) = (   0.1666667   0.0000000   0.0000000), wk =   0.0740741
        k(    7) = (   0.1666667   0.1771553   0.0000000), wk =   0.1481481
        k(    8) = (   0.1666667   0.3543106   0.0000000), wk =   0.1481481
        k(    9) = (   0.1666667   0.5314658   0.0000000), wk =   0.1481481
        k(   10) = (   0.1666667   0.7086211   0.0000000), wk =   0.1481481
        k(   11) = (   0.3333333   0.0000000   0.0000000), wk =   0.0740741
        k(   12) = (   0.3333333   0.1771553   0.0000000), wk =   0.1481481
        k(   13) = (   0.3333333   0.3543106   0.0000000), wk =   0.1481481
        k(   14) = (   0.3333333   0.5314658   0.0000000), wk =   0.1481481
        k(   15) = (   0.3333333   0.7086211   0.0000000), wk =   0.1481481
        k(   16) = (  -0.5000000   0.0000000   0.0000000), wk =   0.0370370
        k(   17) = (  -0.5000000   0.1771553   0.0000000), wk =   0.0740741
        k(   18) = (  -0.5000000   0.3543106   0.0000000), wk =   0.0740741
        k(   19) = (  -0.5000000   0.5314658   0.0000000), wk =   0.0740741
        k(   20) = (  -0.5000000   0.7086211   0.0000000), wk =   0.0740741

     Dense  grid:   859135 G-vectors     FFT dimensions: (  64,  40, 675)

     Estimated max dynamical RAM per process >       8.40 GB

     Initial potential from superposition of free atoms

     starting charge     286.6604, renormalised to     288.0000

     negative rho (up, down):  7.309E-04 0.000E+00
     Starting wfcs are random

     total cpu time spent up to now is      332.4 secs

     Self-consistent Calculation

     iteration #  1     ecut=   120.00 Ry     beta= 0.40
     Davidson diagonalization with overlap
     c_bands:  1 eigenvalues not converged
     c_bands:  1 eigenvalues not converged
     c_bands:  1 eigenvalues not converged
     c_bands:  1 eigenvalues not converged
     c_bands:  1 eigenvalues not converged
     c_bands:  1 eigenvalues not converged
     c_bands:  1 eigenvalues not converged
     c_bands:  1 eigenvalues not converged
     c_bands:  1 eigenvalues not converged
     c_bands:  1 eigenvalues not converged
     c_bands:  2 eigenvalues not converged
     c_bands:  3 eigenvalues not converged
     c_bands:  4 eigenvalues not converged
     c_bands:  3 eigenvalues not converged
     ethr =  1.00E-06,  avg # of iterations = 60.8

     negative rho (up, down):  4.125E-04 0.000E+00

     total cpu time spent up to now is      406.1 secs

     total energy              =   -2151.07778468 Ry
     estimated scf accuracy    <      16.14352388 Ry

     iteration #  2     ecut=   120.00 Ry     beta= 0.40
     Davidson diagonalization with overlap
     ethr =  5.61E-03,  avg # of iterations =  4.2

     negative rho (up, down):  2.895E-04 0.000E+00

     total cpu time spent up to now is      416.5 secs

     total energy              =   -2153.81829684 Ry
     estimated scf accuracy    <       7.52996304 Ry

     iteration #  3     ecut=   120.00 Ry     beta= 0.40
     Davidson diagonalization with overlap
     ethr =  2.61E-03,  avg # of iterations =  9.3

     negative rho (up, down):  2.033E-04 0.000E+00

     total cpu time spent up to now is      428.7 secs

     total energy              =   -2147.96146943 Ry
     estimated scf accuracy    <     729.94039093 Ry

     iteration #  4     ecut=   120.00 Ry     beta= 0.40
     Davidson diagonalization with overlap
     c_bands:  2 eigenvalues not converged
     c_bands:  2 eigenvalues not converged
     c_bands:  4 eigenvalues not converged
     ethr =  2.61E-03,  avg # of iterations =  7.2

     negative rho (up, down):  1.541E-04 0.000E+00

     total cpu time spent up to now is      438.6 secs

     total energy              =   -2155.80848649 Ry
     estimated scf accuracy    <       0.85660376 Ry

     iteration #  5     ecut=   120.00 Ry     beta= 0.40
     Davidson diagonalization with overlap
     c_bands:  5 eigenvalues not converged
     c_bands:  3 eigenvalues not converged
     c_bands:  1 eigenvalues not converged
     c_bands:  4 eigenvalues not converged
     ethr =  2.97E-04,  avg # of iterations = 18.6

     negative rho (up, down):  7.364E-05 0.000E+00

     total cpu time spent up to now is      453.5 secs

     total energy              =   -2155.86510571 Ry
     estimated scf accuracy    <       0.17936188 Ry

     iteration #  6     ecut=   120.00 Ry     beta= 0.40
     Davidson diagonalization with overlap
     c_bands:  1 eigenvalues not converged
     c_bands:  1 eigenvalues not converged
     c_bands:  1 eigenvalues not converged
     ethr =  6.23E-05,  avg # of iterations = 10.9

     negative rho (up, down):  2.003E-05 0.000E+00

     total cpu time spent up to now is      465.3 secs

     total energy              =   -2155.88640099 Ry
     estimated scf accuracy    <       0.03971046 Ry

     iteration #  7     ecut=   120.00 Ry     beta= 0.40
     Davidson diagonalization with overlap
     c_bands:  2 eigenvalues not converged
     ethr =  1.38E-05,  avg # of iterations = 10.6

     negative rho (up, down):  2.386E-06 0.000E+00

     total cpu time spent up to now is      477.8 secs

     total energy              =   -2155.89204320 Ry
     estimated scf accuracy    <       0.03591686 Ry

     iteration #  8     ecut=   120.00 Ry     beta= 0.40
     Davidson diagonalization with overlap
     c_bands:  1 eigenvalues not converged
     ethr =  1.25E-05,  avg # of iterations =  3.5

     negative rho (up, down):  6.852E-07 0.000E+00

     total cpu time spent up to now is      486.8 secs

     total energy              =   -2155.89271055 Ry
     estimated scf accuracy    <       0.01139734 Ry

     iteration #  9     ecut=   120.00 Ry     beta= 0.40
     Davidson diagonalization with overlap
     c_bands:  1 eigenvalues not converged
     c_bands:  1 eigenvalues not converged
     ethr =  3.96E-06,  avg # of iterations = 12.3

     negative rho (up, down):  1.810E-07 0.000E+00

     total cpu time spent up to now is      498.9 secs

     total energy              =   -2155.89428916 Ry
     estimated scf accuracy    <       0.00455785 Ry

     iteration # 10     ecut=   120.00 Ry     beta= 0.40
     Davidson diagonalization with overlap
     c_bands:  3 eigenvalues not converged
     c_bands:  3 eigenvalues not converged
     ethr =  1.58E-06,  avg # of iterations =  6.4

     negative rho (up, down):  1.670E-08 0.000E+00

     total cpu time spent up to now is      508.7 secs

     total energy              =   -2155.89439044 Ry
     estimated scf accuracy    <       0.00401871 Ry

     iteration # 11     ecut=   120.00 Ry     beta= 0.40
     Davidson diagonalization with overlap
     ethr =  1.40E-06,  avg # of iterations =  1.1

     total cpu time spent up to now is      517.2 secs

     total energy              =   -2155.89439675 Ry
     estimated scf accuracy    <       0.00332321 Ry

     iteration # 12     ecut=   120.00 Ry     beta= 0.40
     Davidson diagonalization with overlap
     ethr =  1.15E-06,  avg # of iterations =  1.0

     total cpu time spent up to now is      525.6 secs

     total energy              =   -2155.89435680 Ry
     estimated scf accuracy    <       0.00303624 Ry

     iteration # 13     ecut=   120.00 Ry     beta= 0.40
     Davidson diagonalization with overlap
     ethr =  1.05E-06,  avg # of iterations =  1.0

     total cpu time spent up to now is      534.0 secs

     total energy              =   -2155.89430457 Ry
     estimated scf accuracy    <       0.00271651 Ry

     iteration # 14     ecut=   120.00 Ry     beta= 0.40
     Davidson diagonalization with overlap
     ethr =  9.43E-07,  avg # of iterations =  1.0

     total cpu time spent up to now is      542.5 secs

     total energy              =   -2155.89429013 Ry
     estimated scf accuracy    <       0.00234389 Ry

     iteration # 15     ecut=   120.00 Ry     beta= 0.40
     Davidson diagonalization with overlap
     ethr =  8.14E-07,  avg # of iterations =  1.0

     total cpu time spent up to now is      551.0 secs

     total energy              =   -2155.89426187 Ry
     estimated scf accuracy    <       0.00218097 Ry

     iteration # 16     ecut=   120.00 Ry     beta= 0.40
     Davidson diagonalization with overlap
     ethr =  7.57E-07,  avg # of iterations =  1.0

     total cpu time spent up to now is      559.5 secs

     total energy              =   -2155.89422121 Ry
     estimated scf accuracy    <       0.00195221 Ry

     iteration # 17     ecut=   120.00 Ry     beta= 0.40
     Davidson diagonalization with overlap
     ethr =  6.78E-07,  avg # of iterations =  1.2

     total cpu time spent up to now is      568.1 secs

     total energy              =   -2155.89416791 Ry
     estimated scf accuracy    <       0.00166866 Ry

     iteration # 18     ecut=   120.00 Ry     beta= 0.40
     Davidson diagonalization with overlap
     c_bands:  2 eigenvalues not converged
     c_bands:  2 eigenvalues not converged
     c_bands:  1 eigenvalues not converged
     c_bands:  2 eigenvalues not converged
     ethr =  5.79E-07,  avg # of iterations =  5.5

     total cpu time spent up to now is      577.6 secs

     total energy              =   -2155.89411487 Ry
     estimated scf accuracy    <       0.00131868 Ry

     iteration # 19     ecut=   120.00 Ry     beta= 0.40
     Davidson diagonalization with overlap
     c_bands:  1 eigenvalues not converged
     c_bands:  1 eigenvalues not converged
     c_bands:  1 eigenvalues not converged
     ethr =  4.58E-07,  avg # of iterations =  7.0

     total cpu time spent up to now is      587.6 secs

     total energy              =   -2155.89406250 Ry
     estimated scf accuracy    <       0.00096412 Ry

     iteration # 20     ecut=   120.00 Ry     beta= 0.40
     Davidson diagonalization with overlap
     c_bands:  1 eigenvalues not converged
     ethr =  3.35E-07,  avg # of iterations =  3.9

     total cpu time spent up to now is      597.0 secs

     total energy              =   -2155.89401480 Ry
     estimated scf accuracy    <       0.00063383 Ry

     iteration # 21     ecut=   120.00 Ry     beta= 0.40
     Davidson diagonalization with overlap
     c_bands:  1 eigenvalues not converged
     c_bands:  1 eigenvalues not converged
     ethr =  2.20E-07,  avg # of iterations =  4.5

     total cpu time spent up to now is      606.6 secs

     total energy              =   -2155.89399105 Ry
     estimated scf accuracy    <       0.00033568 Ry

     iteration # 22     ecut=   120.00 Ry     beta= 0.40
     Davidson diagonalization with overlap
     c_bands:  4 eigenvalues not converged
     ethr =  1.17E-07,  avg # of iterations =  7.5

     total cpu time spent up to now is      617.0 secs

     total energy              =   -2155.89397491 Ry
     estimated scf accuracy    <       0.00015166 Ry

     iteration # 23     ecut=   120.00 Ry     beta= 0.40
     Davidson diagonalization with overlap
     c_bands:  3 eigenvalues not converged
     ethr =  5.27E-08,  avg # of iterations =  9.7

     total cpu time spent up to now is      628.0 secs

     total energy              =   -2155.89399146 Ry
     estimated scf accuracy    <       0.00001733 Ry

     iteration # 24     ecut=   120.00 Ry     beta= 0.40
     Davidson diagonalization with overlap
     ethr =  6.02E-09,  avg # of iterations =  9.1

     total cpu time spent up to now is      639.8 secs

     total energy              =   -2155.89399194 Ry
     estimated scf accuracy    <       0.00000929 Ry

     iteration # 25     ecut=   120.00 Ry     beta= 0.40
     Davidson diagonalization with overlap
     ethr =  3.22E-09,  avg # of iterations =  5.8

     total cpu time spent up to now is      650.2 secs

     total energy              =   -2155.89399598 Ry
     estimated scf accuracy    <       0.00000817 Ry

     iteration # 26     ecut=   120.00 Ry     beta= 0.40
     Davidson diagonalization with overlap
     ethr =  2.84E-09,  avg # of iterations =  1.1

     total cpu time spent up to now is      658.8 secs

     total energy              =   -2155.89399625 Ry
     estimated scf accuracy    <       0.00000999 Ry

     iteration # 27     ecut=   120.00 Ry     beta= 0.40
     Davidson diagonalization with overlap
     ethr =  2.84E-09,  avg # of iterations =  1.1

     total cpu time spent up to now is      667.3 secs

     total energy              =   -2155.89399642 Ry
     estimated scf accuracy    <       0.00001111 Ry

     iteration # 28     ecut=   120.00 Ry     beta= 0.40
     Davidson diagonalization with overlap
     ethr =  2.84E-09,  avg # of iterations =  1.0

     total cpu time spent up to now is      675.9 secs

     total energy              =   -2155.89399663 Ry
     estimated scf accuracy    <       0.00001199 Ry

     iteration # 29     ecut=   120.00 Ry     beta= 0.40
     Davidson diagonalization with overlap
     ethr =  2.84E-09,  avg # of iterations =  1.1

     total cpu time spent up to now is      684.5 secs

     total energy              =   -2155.89399680 Ry
     estimated scf accuracy    <       0.00001326 Ry

     iteration # 30     ecut=   120.00 Ry     beta= 0.40
     Davidson diagonalization with overlap
     ethr =  2.84E-09,  avg # of iterations =  1.1

     total cpu time spent up to now is      693.0 secs

     total energy              =   -2155.89399689 Ry
     estimated scf accuracy    <       0.00001426 Ry

     iteration # 31     ecut=   120.00 Ry     beta= 0.40
     Davidson diagonalization with overlap
     ethr =  2.84E-09,  avg # of iterations =  1.0

     total cpu time spent up to now is      701.6 secs

     total energy              =   -2155.89399688 Ry
     estimated scf accuracy    <       0.00001484 Ry

     iteration # 32     ecut=   120.00 Ry     beta= 0.40
     Davidson diagonalization with overlap
     ethr =  2.84E-09,  avg # of iterations =  1.0

     total cpu time spent up to now is      710.1 secs

     total energy              =   -2155.89399698 Ry
     estimated scf accuracy    <       0.00001493 Ry

     iteration # 33     ecut=   120.00 Ry     beta= 0.40
     Davidson diagonalization with overlap
     ethr =  2.84E-09,  avg # of iterations =  1.1

     total cpu time spent up to now is      718.6 secs

     total energy              =   -2155.89399685 Ry
     estimated scf accuracy    <       0.00001569 Ry

     iteration # 34     ecut=   120.00 Ry     beta= 0.40
     Davidson diagonalization with overlap
     ethr =  2.84E-09,  avg # of iterations =  1.1

     total cpu time spent up to now is      727.2 secs

     total energy              =   -2155.89399697 Ry
     estimated scf accuracy    <       0.00001528 Ry

     iteration # 35     ecut=   120.00 Ry     beta= 0.40
     Davidson diagonalization with overlap
     ethr =  2.84E-09,  avg # of iterations =  1.0

     total cpu time spent up to now is      735.8 secs

     total energy              =   -2155.89399687 Ry
     estimated scf accuracy    <       0.00001592 Ry

     iteration # 36     ecut=   120.00 Ry     beta= 0.40
     Davidson diagonalization with overlap
     ethr =  2.84E-09,  avg # of iterations =  1.1

     total cpu time spent up to now is      744.4 secs

     total energy              =   -2155.89399657 Ry
     estimated scf accuracy    <       0.00001558 Ry

     iteration # 37     ecut=   120.00 Ry     beta= 0.40
     Davidson diagonalization with overlap
     ethr =  2.84E-09,  avg # of iterations =  1.0

     total cpu time spent up to now is      752.9 secs

     total energy              =   -2155.89399585 Ry
     estimated scf accuracy    <       0.00001423 Ry

     iteration # 38     ecut=   120.00 Ry     beta= 0.40
     Davidson diagonalization with overlap
     ethr =  2.84E-09,  avg # of iterations =  1.1

     total cpu time spent up to now is      761.5 secs

     total energy              =   -2155.89399541 Ry
     estimated scf accuracy    <       0.00001083 Ry

     iteration # 39     ecut=   120.00 Ry     beta= 0.40
     Davidson diagonalization with overlap
     ethr =  2.84E-09,  avg # of iterations =  1.0

     total cpu time spent up to now is      770.1 secs

     total energy              =   -2155.89399531 Ry
     estimated scf accuracy    <       0.00000848 Ry

     iteration # 40     ecut=   120.00 Ry     beta= 0.40
     Davidson diagonalization with overlap
     ethr =  2.84E-09,  avg # of iterations =  1.0

     total cpu time spent up to now is      778.6 secs

     total energy              =   -2155.89399532 Ry
     estimated scf accuracy    <       0.00000776 Ry

     iteration # 41     ecut=   120.00 Ry     beta= 0.40
     Davidson diagonalization with overlap
     ethr =  2.69E-09,  avg # of iterations =  1.0

     total cpu time spent up to now is      787.2 secs

     total energy              =   -2155.89399513 Ry
     estimated scf accuracy    <       0.00000756 Ry

     iteration # 42     ecut=   120.00 Ry     beta= 0.40
     Davidson diagonalization with overlap
     ethr =  2.63E-09,  avg # of iterations =  1.0

     total cpu time spent up to now is      795.7 secs

     total energy              =   -2155.89399499 Ry
     estimated scf accuracy    <       0.00000645 Ry

     iteration # 43     ecut=   120.00 Ry     beta= 0.40
     Davidson diagonalization with overlap
     ethr =  2.24E-09,  avg # of iterations =  1.0

     total cpu time spent up to now is      804.2 secs

     total energy              =   -2155.89399489 Ry
     estimated scf accuracy    <       0.00000558 Ry

     iteration # 44     ecut=   120.00 Ry     beta= 0.40
     Davidson diagonalization with overlap
     ethr =  1.94E-09,  avg # of iterations =  1.0

     total cpu time spent up to now is      812.8 secs

     total energy              =   -2155.89399343 Ry
     estimated scf accuracy    <       0.00000490 Ry

     iteration # 45     ecut=   120.00 Ry     beta= 0.40
     Davidson diagonalization with overlap
     ethr =  1.70E-09,  avg # of iterations =  3.8

     total cpu time spent up to now is      822.1 secs

     End of self-consistent calculation

          k = 0.0000 0.0000 0.0000 (107453 PWs)   bands (ev):

   -55.5817 -55.5797 -55.5760 -55.5718 -55.5664 -55.5641 -55.5464 -55.5447
   -55.5223 -55.5204 -55.0833 -55.0799 -31.8759 -31.8751 -31.8637 -31.8631
   -31.8486 -31.8482 -31.8282 -31.8263 -31.8222 -31.8206 -31.7764 -31.7674
   -31.7601 -31.7558 -31.7437 -31.7421 -31.7356 -31.7312 -31.7246 -31.7227
   -31.6765 -31.6747 -31.6697 -31.6615 -31.6504 -31.6464 -31.6434 -31.6414
   -31.6259 -31.6241 -31.4792 -31.4760 -31.3453 -31.3420 -31.1251 -31.1218
   -16.7031 -16.6388 -16.5426 -16.4055 -16.2428 -16.0265 -15.8588 -15.7222
   -15.6386 -15.6110 -15.5611 -15.5586 -15.1963 -15.1927 -15.1429 -15.1194
   -15.0744 -15.0510 -15.0141 -14.9971 -14.9590 -14.9323 -14.5876 -14.5843
    -4.2821  -4.1700  -4.0127  -3.8400  -3.8285  -3.7706  -3.6787  -3.6696
    -3.5764  -3.5332  -3.3545  -3.2317  -3.0658  -2.9753  -2.9203  -2.7158
    -2.4615  -2.4592  -2.3921  -2.3822  -2.3800  -2.3658  -2.3615  -2.3504
    -2.3450  -2.3279  -2.3258  -1.9809  -1.9532  -1.9499  -1.8252  -1.7445
    -1.6056  -1.6001  -1.5406  -1.4369  -1.3766  -1.3091  -1.2713  -1.2115
    -1.1996  -0.8352  -0.7441  -0.6349  -0.5758  -0.5732  -0.5505  -0.4963
    -0.4174  -0.2837  -0.2643  -0.1990  -0.1373  -0.1023  -0.0901   0.0169
     0.1757   0.2131   0.3349   0.4231   0.4503   0.4721   0.4927   0.4986
     0.6318   0.6525   0.6817   0.7767   0.9287   1.0654   1.1737   1.2427
     3.3417   3.4353   3.5506   3.6054   3.6728   3.7247   3.7905   3.8534
     3.8913   3.9030   3.9199   3.9234   3.9283   3.9864   4.0347   4.0489
     4.0812   4.0918   4.1445   4.1774   4.2481   4.2790   4.4051   4.4083
     4.5188   4.5835   5.0011   5.0169   5.1695

          k = 0.0000 0.1772 0.0000 (107533 PWs)   bands (ev):

   -55.5769 -55.5749 -55.5712 -55.5671 -55.5620 -55.5599 -55.5418 -55.5401
   -55.5177 -55.5158 -55.0784 -55.0750 -31.8634 -31.8626 -31.8518 -31.8513
   -31.8377 -31.8368 -31.8181 -31.8151 -31.8119 -31.8100 -31.7780 -31.7675
   -31.7612 -31.7554 -31.7465 -31.7419 -31.7383 -31.7294 -31.7221 -31.7209
   -31.7202 -31.7190 -31.7159 -31.7064 -31.6993 -31.6986 -31.6961 -31.6941
   -31.6768 -31.6750 -31.4744 -31.4712 -31.3370 -31.3337 -31.1813 -31.1779
   -16.5791 -16.5182 -16.4267 -16.2962 -16.1407 -15.9336 -15.7716 -15.6368
   -15.5578 -15.5372 -15.4853 -15.4828 -15.2319 -15.2296 -15.1856 -15.1703
   -15.1190 -15.1014 -15.0644 -15.0478 -15.0118 -14.9883 -14.6198 -14.6165
    -4.1086  -4.0043  -3.8556  -3.7059  -3.6786  -3.6339  -3.5360  -3.5199
    -3.4270  -3.3839  -3.2325  -3.1431  -3.0277  -2.9399  -2.8819  -2.7837
    -2.6692  -2.6336  -2.6041  -2.5948  -2.5768  -2.5636  -2.5402  -2.4849
    -2.4038  -2.2894  -2.1324  -1.9567  -1.9476  -1.7088  -1.6719  -1.5952
    -1.4737  -1.4142  -1.3285  -1.2890  -1.1929  -1.1843  -1.1725  -1.0945
    -1.0529  -1.0186  -1.0116  -0.9088  -0.8857  -0.7155  -0.6902  -0.6730
    -0.6550  -0.5385  -0.4439  -0.3987  -0.3445  -0.2831  -0.2011  -0.1226
    -0.0690  -0.0413   0.0821   0.2958   0.4045   0.4195   0.4511   0.4974
     0.5095   0.5380   0.6841   0.7773   0.8980   1.0154   1.1189   1.1917
     3.5129   3.5820   3.6735   3.7096   3.7576   3.7617   3.8221   3.8712
     3.8904   3.9497   3.9627   4.0114   4.0512   4.0562   4.0595   4.0994
     4.1483   4.1667   4.2218   4.2742   4.3113   4.4057   4.4070   4.4602
     4.5492   4.6630   4.6949   4.7408   5.0464

          k = 0.0000 0.3543 0.0000 (107373 PWs)   bands (ev):

   -55.5648 -55.5626 -55.5586 -55.5552 -55.5509 -55.5492 -55.5300 -55.5283
   -55.5060 -55.5041 -55.0660 -55.0626 -31.8713 -31.8693 -31.8663 -31.8612
   -31.8497 -31.8433 -31.8417 -31.8402 -31.8269 -31.8245 -31.8228 -31.8223
   -31.8151 -31.8104 -31.8036 -31.7975 -31.7855 -31.7833 -31.7714 -31.7693
   -31.7434 -31.7421 -31.7348 -31.7320 -31.7272 -31.7259 -31.7232 -31.7203
   -31.7114 -31.7095 -31.4653 -31.4620 -31.3497 -31.3463 -31.2854 -31.2820
   -16.2491 -16.1999 -16.1252 -16.0187 -15.8910 -15.7289 -15.6006 -15.4697
   -15.3693 -15.3650 -15.3494 -15.3447 -15.2924 -15.2813 -15.2516 -15.2381
   -15.2285 -15.2056 -15.1749 -15.1717 -15.1402 -15.1245 -14.6873 -14.6839
    -3.6501  -3.5744  -3.4616  -3.3751  -3.3208  -3.2975  -3.1827  -3.1813
    -3.0634  -3.0580  -2.9592  -2.9553  -2.9375  -2.9030  -2.8364  -2.8017
    -2.7988  -2.7951  -2.7610  -2.7508  -2.7369  -2.7291  -2.6413  -2.4729
    -2.3795  -2.2282  -2.1963  -1.9346  -1.8606  -1.8098  -1.7876  -1.7871
    -1.7520  -1.7495  -1.6982  -1.5761  -1.5340  -1.3758  -1.3435  -1.3366
    -1.3186  -1.1629  -1.1203  -0.9898  -0.9270  -0.9248  -0.8073  -0.7680
    -0.6438  -0.6270  -0.5589  -0.5457  -0.4446  -0.4170  -0.3224  -0.1676
    -0.1028  -0.0423  -0.0002   0.0355   0.0478   0.0616   0.1578   0.2056
     0.2424   0.3526   0.6055   0.6639   0.7612   0.8487   0.9162   0.9592
     3.5672   3.5974   3.6659   3.7560   3.8346   3.8424   3.8765   3.8855
     3.9480   3.9934   4.0861   4.0950   4.1474   4.2543   4.2628   4.2887
     4.3830   4.3955   4.4247   4.4558   4.5494   4.5626   4.5978   4.6621
     4.6873   4.6906   4.7609   4.8622   4.9232

          k = 0.0000 0.5315 0.0000 (107408 PWs)   bands (ev):

   -55.5510 -55.5487 -55.5439 -55.5414 -55.5384 -55.5373 -55.5167 -55.5150
   -55.4926 -55.4907 -55.0518 -55.0484 -32.0121 -32.0100 -32.0037 -32.0020
   -31.9935 -31.9888 -31.9826 -31.9806 -31.9698 -31.9681 -31.7868 -31.7862
   -31.7787 -31.7781 -31.7692 -31.7679 -31.7560 -31.7551 -31.7423 -31.7405
   -31.7327 -31.7311 -31.7250 -31.7228 -31.7198 -31.7189 -31.7171 -31.7154
   -31.7026 -31.7007 -31.5025 -31.4992 -31.4440 -31.4407 -31.2711 -31.2677
   -15.8265 -15.8063 -15.7748 -15.7304 -15.6785 -15.6471 -15.6087 -15.5318
   -15.4603 -15.3892 -15.3202 -15.2970 -15.2879 -15.2705 -15.2415 -15.2197
   -15.1926 -15.1904 -15.1657 -15.1599 -15.0945 -15.0921 -14.6913 -14.6879
    -3.1776  -3.1438  -3.1323  -3.1133  -3.0892  -3.0652  -3.0500  -3.0276
    -3.0197  -2.9983  -2.9254  -2.9235  -2.8891  -2.8682  -2.8513  -2.8001
    -2.7545  -2.7422  -2.6962  -2.6781  -2.6645  -2.6180  -2.5978  -2.5128
    -2.3399  -2.3338  -2.3095  -2.2585  -2.2337  -2.0915  -2.0076  -2.0005
    -1.9139  -1.8825  -1.8797  -1.7706  -1.5728  -1.4337  -1.3488  -1.3468
    -1.3211  -1.1974  -1.1729  -1.0586  -0.9163  -0.8458  -0.7893  -0.7341
    -0.7252  -0.6983  -0.6730  -0.6294  -0.4173  -0.4099  -0.3395  -0.3331
    -0.2755  -0.2473  -0.2285  -0.1712  -0.1306  -0.0999  -0.0274   0.0907
     0.1395   0.1766   0.4128   0.4568   0.4707   0.5104   0.5519   0.5675
     3.4836   3.5005   3.5355   3.6064   3.7623   3.7650   3.8934   4.0730
     4.1243   4.1919   4.2278   4.2492   4.3661   4.3871   4.4003   4.4361
     4.5235   4.5774   4.5980   4.6020   4.6620   4.7087   4.8041   4.8135
     4.8706   4.9301   4.9897   5.0238   5.0563

          k = 0.0000 0.7086 0.0000 (107368 PWs)   bands (ev):

   -55.5419 -55.5396 -55.5336 -55.5323 -55.5308 -55.5299 -55.5079 -55.5062
   -55.4838 -55.4819 -55.0425 -55.0391 -32.1046 -32.1026 -32.0945 -32.0937
   -32.0874 -32.0855 -32.0764 -32.0745 -32.0643 -32.0626 -31.7533 -31.7518
   -31.7508 -31.7493 -31.7443 -31.7437 -31.7396 -31.7389 -31.7298 -31.7281
   -31.7269 -31.7260 -31.7221 -31.7211 -31.7129 -31.7109 -31.7068 -31.7048
   -31.6999 -31.6980 -31.5929 -31.5897 -31.4422 -31.4389 -31.2527 -31.2494
   -15.7041 -15.6982 -15.6585 -15.6488 -15.6086 -15.5888 -15.5530 -15.5163
   -15.4858 -15.4438 -15.4281 -15.3375 -15.2612 -15.2286 -15.1915 -15.1799
   -15.1262 -15.1105 -15.0672 -15.0471 -15.0185 -15.0091 -14.6111 -14.6078
    -3.5407  -3.4737  -3.4622  -3.3807  -3.3383  -3.2586  -3.1827  -3.1268
    -3.0720  -3.0402  -2.8571  -2.8547  -2.7608  -2.7458  -2.7037  -2.6982
    -2.6194  -2.6079  -2.5854  -2.5622  -2.5495  -2.5193  -2.5000  -2.4902
    -2.1784  -2.1196  -2.1075  -2.0721  -2.0113  -1.9819  -1.8544  -1.7994
    -1.6970  -1.6623  -1.4893  -1.4729  -1.4044  -1.3890  -1.3776  -1.3402
    -1.3088  -1.2977  -1.2517  -1.2023  -1.1351  -1.0635  -1.0517  -1.0400
    -0.8841  -0.7435  -0.6479  -0.6362  -0.4661  -0.4640  -0.4412  -0.3676
    -0.3270  -0.2616  -0.2427  -0.2118  -0.1862  -0.1540  -0.1325  -0.1257
    -0.0283  -0.0121   0.0954   0.1177   0.2448   0.2809   0.4075   0.4348
     3.3727   3.4798   3.5362   3.6565   3.7464   3.8493   3.9859   4.0065
     4.0434   4.2262   4.4045   4.4202   4.4392   4.4790   4.5086   4.5196
     4.5490   4.5712   4.6155   4.6224   4.6247   4.6271   4.8819   4.8850
     5.0024   5.0410   5.0638   5.1012   5.1193

          k = 0.1667 0.0000 0.0000 (107405 PWs)   bands (ev):

   -55.5813 -55.5793 -55.5755 -55.5717 -55.5668 -55.5649 -55.5464 -55.5447
   -55.5224 -55.5205 -55.0833 -55.0799 -31.8784 -31.8775 -31.8661 -31.8650
   -31.8501 -31.8493 -31.8288 -31.8280 -31.8226 -31.8210 -31.7716 -31.7711
   -31.7590 -31.7555 -31.7427 -31.7399 -31.7329 -31.7316 -31.7238 -31.7220
   -31.6755 -31.6736 -31.6687 -31.6612 -31.6513 -31.6480 -31.6429 -31.6410
   -31.6267 -31.6249 -31.4790 -31.4758 -31.3452 -31.3419 -31.1252 -31.1218
   -16.6184 -16.5641 -16.4825 -16.3650 -16.2261 -16.0390 -15.8915 -15.7669
   -15.6773 -15.6348 -15.5722 -15.5696 -15.2139 -15.2114 -15.1340 -15.1329
   -15.0829 -15.0760 -15.0393 -15.0138 -14.9721 -14.9466 -14.5921 -14.5889
    -4.1533  -4.1285  -4.0666  -3.9676  -3.8416  -3.7354  -3.6440  -3.6418
    -3.5283  -3.5268  -3.1934  -3.0996  -3.0063  -2.9510  -2.8465  -2.6197
    -2.4679  -2.4657  -2.4027  -2.3983  -2.3737  -2.3707  -2.3542  -2.3503
    -2.3266  -2.3265  -2.3245  -2.0304  -1.9572  -1.9539  -1.7522  -1.7062
    -1.6870  -1.5878  -1.4900  -1.3642  -1.3150  -1.2516  -1.2109  -1.1932
    -0.9670  -0.8158  -0.7597  -0.5715  -0.5576  -0.5518  -0.5189  -0.4478
    -0.3540  -0.3448  -0.2888  -0.2131  -0.1618  -0.1364  -0.0375   0.0167
     0.0697   0.1751   0.2009   0.2273   0.2697   0.2722   0.2972   0.3519
     0.4182   0.4526   0.5527   0.6336   0.8100   0.9573   1.0686   1.1370
     3.4002   3.4117   3.4903   3.5707   3.6792   3.7685   3.8062   3.8583
     3.8971   3.9156   3.9303   3.9330   3.9908   4.0174   4.0708   4.0767
     4.0803   4.1840   4.2147   4.2931   4.3518   4.4053   4.4287   4.4333
     4.5449   4.7095   4.9979   5.0103   5.0468

          k = 0.1667 0.1772 0.0000 (107424 PWs)   bands (ev):

   -55.5766 -55.5745 -55.5706 -55.5670 -55.5624 -55.5606 -55.5418 -55.5401
   -55.5177 -55.5158 -55.0784 -55.0750 -31.8658 -31.8648 -31.8541 -31.8529
   -31.8388 -31.8383 -31.8182 -31.8174 -31.8117 -31.8102 -31.7728 -31.7724
   -31.7603 -31.7555 -31.7443 -31.7412 -31.7336 -31.7321 -31.7213 -31.7197
   -31.7192 -31.7179 -31.7152 -31.7066 -31.7006 -31.6986 -31.6957 -31.6937
   -31.6773 -31.6756 -31.4743 -31.4710 -31.3370 -31.3336 -31.1813 -31.1779
   -16.4986 -16.4470 -16.3691 -16.2569 -16.1237 -15.9445 -15.8028 -15.6807
   -15.5936 -15.5554 -15.4911 -15.4886 -15.2525 -15.2499 -15.1801 -15.1788
   -15.1324 -15.1234 -15.0898 -15.0649 -15.0249 -15.0009 -14.6240 -14.6207
    -3.9916  -3.9732  -3.9152  -3.8204  -3.6959  -3.5977  -3.5000  -3.4976
    -3.3760  -3.3749  -3.1158  -3.0608  -2.9947  -2.9325  -2.8714  -2.7962
    -2.7215  -2.6703  -2.6144  -2.5862  -2.5589  -2.5378  -2.4726  -2.4577
    -2.3755  -2.2341  -2.0427  -1.9451  -1.9183  -1.6936  -1.5910  -1.5566
    -1.5038  -1.4236  -1.3554  -1.2250  -1.2223  -1.1588  -1.0819  -1.0415
    -0.9706  -0.9594  -0.9305  -0.9198  -0.8938  -0.7764  -0.7745  -0.5672
    -0.5659  -0.4475  -0.4400  -0.3700  -0.3669  -0.3187  -0.2907  -0.1831
    -0.1605  -0.0876   0.1050   0.2373   0.2746   0.3104   0.3117   0.3523
     0.3756   0.4313   0.5101   0.6197   0.7541   0.8833   0.9967   1.0752
     3.5432   3.5442   3.6077   3.6932   3.7873   3.8297   3.8586   3.8656
     3.9448   3.9461   4.0069   4.0110   4.0473   4.0674   4.0848   4.1023
     4.1590   4.2325   4.3279   4.3677   4.3918   4.4109   4.4285   4.5038
     4.6206   4.6770   4.7000   4.7778   5.0643

          k = 0.1667 0.3543 0.0000 (107361 PWs)   bands (ev):

   -55.5646 -55.5624 -55.5581 -55.5550 -55.5512 -55.5498 -55.5301 -55.5284
   -55.5060 -55.5041 -55.0660 -55.0626 -31.8704 -31.8685 -31.8638 -31.8629
   -31.8494 -31.8448 -31.8429 -31.8411 -31.8282 -31.8269 -31.8244 -31.8236
   -31.8141 -31.8134 -31.8017 -31.8001 -31.7851 -31.7840 -31.7717 -31.7698
   -31.7430 -31.7419 -31.7338 -31.7327 -31.7267 -31.7238 -31.7210 -31.7202
   -31.7108 -31.7089 -31.4652 -31.4620 -31.3497 -31.3464 -31.2853 -31.2819
   -16.1833 -16.1409 -16.0759 -15.9824 -15.8707 -15.7284 -15.6162 -15.5033
   -15.4064 -15.3651 -15.3470 -15.3438 -15.2964 -15.2862 -15.2763 -15.2632
   -15.2405 -15.2320 -15.2080 -15.1829 -15.1518 -15.1341 -14.6902 -14.6868
    -3.5822  -3.5773  -3.5284  -3.4496  -3.3394  -3.2664  -3.1815  -3.1572
    -3.0702  -3.0593  -3.0184  -3.0163  -2.9886  -2.9793  -2.9514  -2.8787
    -2.8356  -2.8175  -2.7852  -2.7344  -2.6786  -2.6570  -2.3836  -2.3317
    -2.2413  -2.1589  -2.0774  -2.0035  -1.9962  -1.8698  -1.7790  -1.7546
    -1.7445  -1.6195  -1.6110  -1.4942  -1.4423  -1.3959  -1.3235  -1.2634
    -1.2529  -1.2045  -1.0548  -1.0046  -0.9415  -0.8821  -0.8100  -0.7894
    -0.6649  -0.6643  -0.5608  -0.5592  -0.4100  -0.3818  -0.3089  -0.2126
    -0.1455  -0.0794  -0.0400   0.0089   0.0546   0.1009   0.1370   0.2015
     0.2431   0.2694   0.4857   0.5698   0.6747   0.7663   0.8380   0.8877
     3.5485   3.5894   3.6654   3.7598   3.8290   3.8460   3.9265   3.9458
     3.9807   4.0289   4.1036   4.1399   4.2238   4.2471   4.2668   4.2829
     4.3190   4.3624   4.4419   4.4551   4.5347   4.5446   4.6645   4.6728
     4.6775   4.7342   4.7953   4.8949   4.9187

          k = 0.1667 0.5315 0.0000 (107403 PWs)   bands (ev):

   -55.5509 -55.5486 -55.5436 -55.5413 -55.5387 -55.5376 -55.5167 -55.5150
   -55.4926 -55.4907 -55.0518 -55.0484 -32.0118 -32.0097 -32.0028 -32.0020
   -31.9928 -31.9904 -31.9825 -31.9805 -31.9701 -31.9684 -31.7882 -31.7877
   -31.7804 -31.7788 -31.7695 -31.7688 -31.7561 -31.7555 -31.7424 -31.7408
   -31.7322 -31.7311 -31.7245 -31.7234 -31.7197 -31.7177 -31.7162 -31.7145
   -31.7023 -31.7004 -31.5026 -31.4993 -31.4439 -31.4406 -31.2711 -31.2678
   -15.7996 -15.7802 -15.7491 -15.7057 -15.6582 -15.6279 -15.5851 -15.5085
   -15.4439 -15.3934 -15.3543 -15.3528 -15.3053 -15.2944 -15.2744 -15.2267
   -15.1967 -15.1910 -15.1672 -15.1661 -15.1011 -15.0987 -14.6913 -14.6879
    -3.2289  -3.1876  -3.1517  -3.1505  -3.1408  -3.1305  -3.0981  -3.0690
    -3.0435  -2.9868  -2.9651  -2.9583  -2.9431  -2.9018  -2.8707  -2.8571
    -2.8359  -2.8253  -2.7566  -2.7511  -2.6991  -2.6476  -2.6441  -2.5786
    -2.3865  -2.3414  -2.2667  -2.1209  -2.1197  -1.9792  -1.8984  -1.8640
    -1.8345  -1.8244  -1.7733  -1.6856  -1.5284  -1.4079  -1.3571  -1.3047
    -1.2446  -1.2067  -1.1250  -1.0426  -0.9388  -0.8617  -0.7837  -0.7437
    -0.7374  -0.6956  -0.6761  -0.6492  -0.3717  -0.3669  -0.3056  -0.2875
    -0.2516  -0.2458  -0.2144  -0.1960  -0.1521  -0.0704   0.0251   0.1156
     0.1649   0.2235   0.4501   0.4618   0.4951   0.5199   0.5699   0.5794
     3.4996   3.5012   3.5361   3.5711   3.7610   3.7668   3.9844   4.1475
     4.2080   4.2089   4.2714   4.2969   4.3640   4.3772   4.4421   4.4470
     4.4871   4.5223   4.5421   4.5510   4.6210   4.6243   4.7202   4.7352
     4.8038   4.8401   4.8788   4.9734   5.0029

          k = 0.1667 0.7086 0.0000 (107394 PWs)   bands (ev):

   -55.5419 -55.5396 -55.5335 -55.5322 -55.5308 -55.5300 -55.5079 -55.5062
   -55.4838 -55.4819 -55.0425 -55.0391 -32.1045 -32.1024 -32.0942 -32.0937
   -32.0870 -32.0862 -32.0764 -32.0745 -32.0643 -32.0626 -31.7537 -31.7532
   -31.7512 -31.7495 -31.7445 -31.7439 -31.7397 -31.7389 -31.7298 -31.7280
   -31.7272 -31.7256 -31.7219 -31.7210 -31.7135 -31.7115 -31.7062 -31.7043
   -31.7001 -31.6983 -31.5928 -31.5896 -31.4423 -31.4390 -31.2528 -31.2495
   -15.7054 -15.7030 -15.6564 -15.6490 -15.6072 -15.5971 -15.5506 -15.5344
   -15.4705 -15.4501 -15.3530 -15.3303 -15.2935 -15.2510 -15.1883 -15.1679
   -15.1289 -15.1037 -15.0667 -15.0568 -15.0164 -15.0148 -14.6079 -14.6045
    -3.5330  -3.5197  -3.4557  -3.4298  -3.3451  -3.3201  -3.2065  -3.1773
    -3.0560  -3.0288  -2.8868  -2.8827  -2.7826  -2.7806  -2.7716  -2.7596
    -2.7379  -2.7176  -2.6782  -2.6411  -2.6266  -2.6177  -2.5385  -2.5354
    -2.4132  -2.3943  -2.2084  -2.2066  -1.9266  -1.8660  -1.7461  -1.6818
    -1.5788  -1.5350  -1.4449  -1.4226  -1.3873  -1.3479  -1.3459  -1.3290
    -1.2226  -1.1876  -1.1636  -1.1368  -1.1248  -1.1097  -1.0066  -0.9334
    -0.7938  -0.6487  -0.5505  -0.4878  -0.4186  -0.4134  -0.3479  -0.2928
    -0.2621  -0.2617  -0.2129  -0.1975  -0.1373  -0.1270  -0.1052  -0.0875
     0.0335   0.0351   0.1329   0.1599   0.3020   0.3203   0.4230   0.4597
     3.4432   3.4817   3.5962   3.6458   3.7427   3.8314   3.9253   3.9845
     4.1433   4.2477   4.3562   4.3723   4.4537   4.4716   4.4947   4.5243
     4.5459   4.5665   4.5946   4.6045   4.6125   4.6206   4.8265   4.8278
     4.8646   4.8693   4.9665   4.9887   5.1098

          k = 0.3333 0.0000 0.0000 (107365 PWs)   bands (ev):

   -55.5806 -55.5784 -55.5736 -55.5711 -55.5681 -55.5670 -55.5465 -55.5448
   -55.5225 -55.5206 -55.0833 -55.0799 -31.8831 -31.8823 -31.8697 -31.8693
   -31.8526 -31.8522 -31.8306 -31.8299 -31.8235 -31.8219 -31.7709 -31.7700
   -31.7565 -31.7543 -31.7402 -31.7389 -31.7305 -31.7293 -31.7220 -31.7203
   -31.6735 -31.6713 -31.6655 -31.6604 -31.6537 -31.6522 -31.6418 -31.6398
   -31.6285 -31.6267 -31.4786 -31.4753 -31.3451 -31.3417 -31.1252 -31.1219
   -16.3849 -16.3600 -16.3197 -16.2555 -16.1793 -16.0676 -15.9730 -15.8905
   -15.8177 -15.7701 -15.6412 -15.6382 -15.2302 -15.2279 -15.1417 -15.1365
   -15.1098 -15.0752 -15.0511 -15.0288 -15.0063 -15.0044 -14.6021 -14.5988
    -4.0697  -4.0678  -3.9926  -3.9696  -3.8579  -3.8514  -3.7154  -3.6179
    -3.5136  -3.5036  -2.9927  -2.9895  -2.6641  -2.5888  -2.4820  -2.4800
    -2.4640  -2.4245  -2.4227  -2.3900  -2.3870  -2.3672  -2.3586  -2.3306
    -2.3241  -2.2761  -2.0506  -1.9639  -1.9606  -1.8409  -1.6891  -1.6766
    -1.6235  -1.5933  -1.5190  -1.5044  -1.3722  -1.2116  -1.0773  -0.9411
    -0.8862  -0.8161  -0.6673  -0.6386  -0.5875  -0.5202  -0.4945  -0.4873
    -0.4248  -0.3904  -0.3771  -0.3378  -0.2415  -0.1710  -0.1555  -0.1454
    -0.1000  -0.0052   0.0048   0.0292   0.0693   0.0720   0.1263   0.1285
     0.1862   0.2006   0.3686   0.4026   0.5520   0.6580   0.7587   0.8402
     3.4020   3.4056   3.5362   3.5383   3.6565   3.6861   3.7798   3.8551
     3.9052   3.9156   3.9346   3.9410   3.9997   4.0828   4.1934   4.1952
     4.2518   4.3063   4.3715   4.3793   4.4607   4.5265   4.6063   4.6996
     4.8079   4.9171   4.9192   4.9204   5.0058

          k = 0.3333 0.1772 0.0000 (107297 PWs)   bands (ev):

   -55.5760 -55.5737 -55.5689 -55.5664 -55.5636 -55.5625 -55.5418 -55.5401
   -55.5179 -55.5160 -55.0784 -55.0750 -31.8702 -31.8694 -31.8575 -31.8570
   -31.8414 -31.8408 -31.8198 -31.8193 -31.8125 -31.8111 -31.7718 -31.7715
   -31.7575 -31.7554 -31.7427 -31.7409 -31.7320 -31.7295 -31.7202 -31.7183
   -31.7165 -31.7147 -31.7126 -31.7074 -31.7032 -31.7002 -31.6947 -31.6927
   -31.6786 -31.6768 -31.4739 -31.4707 -31.3368 -31.3335 -31.1812 -31.1779
   -16.2763 -16.2526 -16.2134 -16.1511 -16.0771 -15.9698 -15.8798 -15.8002
   -15.7297 -15.6831 -15.5553 -15.5524 -15.2677 -15.2654 -15.1885 -15.1821
   -15.1564 -15.1233 -15.1003 -15.0782 -15.0570 -15.0546 -14.6330 -14.6297
    -3.9252  -3.9234  -3.8465  -3.8252  -3.7097  -3.7064  -3.5683  -3.4714
    -3.3605  -3.3488  -2.9464  -2.9433  -2.8337  -2.8294  -2.8089  -2.7906
    -2.7557  -2.7191  -2.6762  -2.6362  -2.5972  -2.5701  -2.2527  -2.2161
    -2.1146  -1.9750  -1.9378  -1.8982  -1.7181  -1.5806  -1.5621  -1.4747
    -1.4180  -1.3886  -1.2869  -1.2517  -1.2453  -1.1759  -1.1116  -1.0263
    -0.9558  -0.9439  -0.8797  -0.8334  -0.8023  -0.7093  -0.6959  -0.6499
    -0.5536  -0.4819  -0.4454  -0.4132  -0.3550  -0.3403  -0.3307  -0.2833
    -0.2667  -0.1481  -0.1174  -0.1150  -0.0377  -0.0085   0.0583   0.1223
     0.2359   0.2715   0.3776   0.3880   0.5011   0.6166   0.7391   0.8380
     3.5320   3.5333   3.6350   3.6569   3.7549   3.7572   3.8649   3.9339
     3.9690   4.0032   4.0247   4.0456   4.0998   4.1303   4.1657   4.2155
     4.2709   4.2991   4.3724   4.3902   4.5391   4.5463   4.5985   4.6579
     4.6936   4.7382   4.8150   4.9042   5.0736

          k = 0.3333 0.3543 0.0000 (107279 PWs)   bands (ev):

   -55.5642 -55.5619 -55.5567 -55.5546 -55.5522 -55.5512 -55.5301 -55.5284
   -55.5061 -55.5042 -55.0660 -55.0626 -31.8701 -31.8681 -31.8617 -31.8590
   -31.8515 -31.8497 -31.8433 -31.8416 -31.8318 -31.8304 -31.8256 -31.8248
   -31.8172 -31.8148 -31.8058 -31.7996 -31.7857 -31.7850 -31.7726 -31.7707
   -31.7433 -31.7408 -31.7329 -31.7304 -31.7237 -31.7231 -31.7193 -31.7184
   -31.7094 -31.7076 -31.4652 -31.4619 -31.3498 -31.3464 -31.2850 -31.2817
   -16.0018 -15.9803 -15.9434 -15.8865 -15.8191 -15.7313 -15.6618 -15.5946
   -15.5334 -15.4899 -15.4122 -15.4099 -15.2979 -15.2957 -15.2839 -15.2754
   -15.2574 -15.2319 -15.2137 -15.1940 -15.1771 -15.1725 -14.6959 -14.6926
    -3.5589  -3.5577  -3.4769  -3.4719  -3.3588  -3.3584  -3.2382  -3.1414
    -3.1050  -3.0954  -3.0731  -3.0430  -3.0178  -3.0134  -2.9662  -2.9581
    -2.9190  -2.8792  -2.8244  -2.8201  -2.7791  -2.7412  -2.1680  -2.1648
    -2.0120  -1.9786  -1.8976  -1.8336  -1.7749  -1.7558  -1.7355  -1.6756
    -1.6492  -1.5935  -1.5605  -1.4553  -1.3703  -1.2890  -1.2863  -1.1640
    -1.1242  -1.0774  -1.0454  -1.0104  -0.9356  -0.9082  -0.7795  -0.7651
    -0.6975  -0.6233  -0.5936  -0.5465  -0.4091  -0.3841  -0.2834  -0.2456
    -0.1923  -0.1816  -0.1330  -0.1244  -0.0258  -0.0076   0.0911   0.1502
     0.1922   0.2504   0.2860   0.3455   0.4652   0.5695   0.6451   0.6994
     3.6892   3.7002   3.7219   3.7656   3.8208   3.8526   4.0282   4.0341
     4.0514   4.0745   4.1104   4.1576   4.1990   4.2019   4.2342   4.2387
     4.3684   4.3726   4.4913   4.4938   4.5760   4.5783   4.7325   4.7476
     4.7766   4.7930   4.7984   4.8666   4.8844

          k = 0.3333 0.5315 0.0000 (107320 PWs)   bands (ev):

   -55.5507 -55.5484 -55.5426 -55.5410 -55.5393 -55.5384 -55.5167 -55.5150
   -55.4926 -55.4907 -55.0518 -55.0484 -32.0116 -32.0096 -32.0024 -31.9994
   -31.9936 -31.9923 -31.9823 -31.9804 -31.9705 -31.9688 -31.7910 -31.7905
   -31.7823 -31.7816 -31.7721 -31.7692 -31.7569 -31.7561 -31.7427 -31.7411
   -31.7325 -31.7298 -31.7235 -31.7222 -31.7177 -31.7173 -31.7155 -31.7139
   -31.7016 -31.6997 -31.5027 -31.4994 -31.4438 -31.4405 -31.2712 -31.2679
   -15.7268 -15.7117 -15.6839 -15.6468 -15.6099 -15.5765 -15.5218 -15.4940
   -15.4713 -15.4599 -15.4051 -15.3907 -15.3420 -15.3116 -15.2950 -15.2614
   -15.2483 -15.2171 -15.1881 -15.1745 -15.1182 -15.1156 -14.6912 -14.6877
    -3.2864  -3.2714  -3.2531  -3.2424  -3.2233  -3.1953  -3.1803  -3.1355
    -3.1194  -3.1189  -3.0627  -3.0410  -3.0351  -2.9789  -2.9456  -2.9381
    -2.9024  -2.8756  -2.8487  -2.7631  -2.6909  -2.6786  -2.6325  -2.6248
    -2.3282  -2.3190  -2.2521  -2.1607  -1.9348  -1.8756  -1.8377  -1.8234
    -1.7815  -1.7680  -1.5230  -1.5023  -1.3746  -1.2805  -1.2296  -1.1854
    -1.1569  -1.0932  -1.0374  -1.0222  -0.9777  -0.9465  -0.8507  -0.7597
    -0.6816  -0.6490  -0.5889  -0.4868  -0.4298  -0.4094  -0.3302  -0.2806
    -0.2195  -0.2164  -0.1050  -0.0947  -0.0033   0.0512   0.1078   0.1605
     0.2190   0.2906   0.4266   0.4352   0.4622   0.4934   0.5278   0.5341
     3.4845   3.5414   3.6264   3.7405   3.8536   3.8766   4.1056   4.1753
     4.1972   4.2119   4.2441   4.2751   4.3286   4.3374   4.3844   4.3938
     4.4151   4.4386   4.4643   4.5307   4.5752   4.5898   4.6232   4.6926
     4.7594   4.7970   4.8592   4.8740   4.9657

          k = 0.3333 0.7086 0.0000 (107454 PWs)   bands (ev):

   -55.5419 -55.5395 -55.5332 -55.5322 -55.5310 -55.5301 -55.5079 -55.5062
   -55.4838 -55.4819 -55.0425 -55.0391 -32.1045 -32.1024 -32.0943 -32.0932
   -32.0870 -32.0864 -32.0764 -32.0744 -32.0643 -32.0626 -31.7550 -31.7545
   -31.7521 -31.7511 -31.7460 -31.7435 -31.7398 -31.7392 -31.7297 -31.7280
   -31.7268 -31.7251 -31.7216 -31.7210 -31.7133 -31.7113 -31.7067 -31.7048
   -31.7003 -31.6985 -31.5927 -31.5894 -31.4424 -31.4391 -31.2530 -31.2497
   -15.7089 -15.7065 -15.6525 -15.6460 -15.6077 -15.5899 -15.5476 -15.5384
   -15.4840 -15.4788 -15.3089 -15.3027 -15.2449 -15.2302 -15.1912 -15.1808
   -15.1380 -15.1168 -15.0765 -15.0610 -15.0259 -15.0242 -14.6017 -14.5983
    -3.5408  -3.5389  -3.4893  -3.4890  -3.4357  -3.3875  -3.3167  -3.2999
    -3.2042  -3.2032  -3.1166  -3.1009  -2.9469  -2.9194  -2.8465  -2.7932
    -2.7719  -2.7529  -2.7242  -2.7179  -2.6293  -2.6044  -2.5512  -2.5479
    -2.3755  -2.3732  -2.2412  -2.1727  -1.9781  -1.9400  -1.8085  -1.6985
    -1.5635  -1.5386  -1.4330  -1.4182  -1.3855  -1.3485  -1.3216  -1.3122
    -1.2424  -1.2299  -1.2168  -1.1590  -1.0884  -1.0326  -0.6671  -0.6507
    -0.5745  -0.4957  -0.4087  -0.3895  -0.2809  -0.2775  -0.2047  -0.1909
    -0.1677  -0.1285  -0.0844  -0.0689  -0.0424   0.0316   0.0669   0.0796
     0.1609   0.1861   0.2860   0.2969   0.3924   0.4107   0.4714   0.5124
     3.4708   3.4907   3.5489   3.6302   3.7844   3.7912   3.8977   3.9526
     4.0665   4.1107   4.3479   4.3762   4.5092   4.5109   4.5196   4.5269
     4.5348   4.5534   4.5645   4.5655   4.5946   4.6135   4.6806   4.7012
     4.8100   4.8210   4.8807   4.8881   5.0261

          k =-0.5000 0.0000 0.0000 (107364 PWs)   bands (ev):

   -55.5803 -55.5780 -55.5715 -55.5708 -55.5694 -55.5686 -55.5465 -55.5448
   -55.5226 -55.5207 -55.0833 -55.0799 -31.8853 -31.8846 -31.8717 -31.8712
   -31.8539 -31.8535 -31.8314 -31.8309 -31.8239 -31.8224 -31.7703 -31.7697
   -31.7553 -31.7544 -31.7388 -31.7383 -31.7288 -31.7284 -31.7211 -31.7195
   -31.6725 -31.6702 -31.6612 -31.6604 -31.6560 -31.6554 -31.6411 -31.6391
   -31.6295 -31.6278 -31.4784 -31.4751 -31.3450 -31.3416 -31.1253 -31.1219
   -16.1738 -16.1711 -16.0967 -16.0954 -16.0779 -16.0773 -16.0621 -16.0605
   -16.0450 -16.0430 -15.7003 -15.6971 -15.2212 -15.2190 -15.1134 -15.1118
   -15.0880 -15.0879 -15.0663 -15.0656 -15.0380 -15.0366 -14.6073 -14.6041
    -4.0614  -4.0604  -3.9672  -3.9668  -3.8369  -3.8366  -3.6807  -3.6806
    -3.5496  -3.5492  -2.9899  -2.9868  -2.4897  -2.4877  -2.4342  -2.4337
    -2.3970  -2.3958  -2.3668  -2.3666  -2.3319  -2.3302  -1.9664  -1.9635
    -1.9631  -1.9619  -1.9166  -1.9165  -1.8548  -1.8543  -1.7713  -1.7710
    -1.6394  -1.6393  -1.5881  -1.5872  -1.4841  -1.4831  -1.2782  -1.2780
    -0.9743  -0.9735  -0.7717  -0.7714  -0.5848  -0.5844  -0.5133  -0.5109
    -0.4586  -0.4560  -0.2379  -0.2379  -0.2216  -0.2176  -0.1721  -0.1715
    -0.0922  -0.0918  -0.0105  -0.0095   0.0870   0.0896   0.1351   0.1357
     0.2063   0.2072   0.2769   0.2788   0.3822   0.3827   0.5116   0.5122
     3.3918   3.3926   3.5364   3.5375   3.6898   3.6901   3.8040   3.8050
     3.8654   3.8662   3.9752   3.9756   4.0717   4.0724   4.1905   4.1907
     4.2956   4.2962   4.3591   4.3600   4.8393   4.8429   4.8578   4.8608
     4.9301   4.9306   4.9752   4.9761   5.0314

          k =-0.5000 0.1772 0.0000 (107236 PWs)   bands (ev):

   -55.5757 -55.5733 -55.5669 -55.5662 -55.5648 -55.5639 -55.5419 -55.5402
   -55.5179 -55.5160 -55.0784 -55.0750 -31.8722 -31.8716 -31.8593 -31.8589
   -31.8425 -31.8422 -31.8206 -31.8202 -31.8129 -31.8115 -31.7715 -31.7711
   -31.7562 -31.7556 -31.7413 -31.7406 -31.7302 -31.7300 -31.7198 -31.7180
   -31.7151 -31.7130 -31.7088 -31.7082 -31.7037 -31.7032 -31.6940 -31.6920
   -31.6793 -31.6776 -31.4738 -31.4705 -31.3368 -31.3334 -31.1812 -31.1779
   -16.0757 -16.0729 -15.9973 -15.9960 -15.9802 -15.9795 -15.9644 -15.9627
   -15.9502 -15.9482 -15.6150 -15.6119 -15.2547 -15.2525 -15.1579 -15.1563
   -15.1344 -15.1344 -15.1146 -15.1139 -15.0873 -15.0858 -14.6376 -14.6344
    -3.9180  -3.9170  -3.8238  -3.8235  -3.6923  -3.6921  -3.5327  -3.5326
    -3.3956  -3.3952  -2.9357  -2.9327  -2.7848  -2.7831  -2.7509  -2.7507
    -2.7095  -2.7090  -2.6610  -2.6605  -2.6103  -2.6096  -1.9584  -1.9555
    -1.8789  -1.8766  -1.7503  -1.7494  -1.6391  -1.6388  -1.4948  -1.4942
    -1.4126  -1.4108  -1.3149  -1.3147  -1.1930  -1.1925  -1.1323  -1.1321
    -0.9233  -0.9228  -0.7948  -0.7933  -0.6797  -0.6794  -0.6450  -0.6442
    -0.6084  -0.6081  -0.5556  -0.5551  -0.4771  -0.4765  -0.4258  -0.4250
    -0.3491  -0.3467  -0.2843  -0.2821  -0.0828  -0.0792   0.0956   0.0960
     0.2265   0.2269   0.3741   0.3749   0.4810   0.4822   0.5833   0.5838
     3.5225   3.5237   3.6395   3.6402   3.7740   3.7743   3.8796   3.8803
     3.9461   3.9465   4.0709   4.0713   4.1558   4.1566   4.2303   4.2312
     4.3119   4.3123   4.4005   4.4008   4.6107   4.6140   4.8957   4.8960
     4.9226   4.9236   4.9507   4.9520   4.9864

          k =-0.5000 0.3543 0.0000 (107194 PWs)   bands (ev):

   -55.5640 -55.5616 -55.5552 -55.5544 -55.5531 -55.5522 -55.5301 -55.5284
   -55.5061 -55.5042 -55.0660 -55.0626 -31.8696 -31.8679 -31.8594 -31.8593
   -31.8525 -31.8524 -31.8443 -31.8427 -31.8314 -31.8311 -31.8260 -31.8251
   -31.8171 -31.8167 -31.8040 -31.8038 -31.7873 -31.7867 -31.7728 -31.7708
   -31.7410 -31.7407 -31.7321 -31.7310 -31.7230 -31.7225 -31.7183 -31.7175
   -31.7086 -31.7068 -31.4651 -31.4619 -31.3498 -31.3465 -31.2849 -31.2816
   -15.8280 -15.8252 -15.7529 -15.7511 -15.7440 -15.7435 -15.7322 -15.7304
   -15.7214 -15.7196 -15.4730 -15.4703 -15.2808 -15.2786 -15.2516 -15.2496
   -15.2381 -15.2377 -15.2259 -15.2249 -15.2005 -15.1986 -14.6989 -14.6955
    -3.5561  -3.5551  -3.4673  -3.4670  -3.3415  -3.3413  -3.1872  -3.1871
    -3.1211  -3.1199  -3.0777  -3.0773  -3.0484  -3.0482  -3.0125  -3.0122
    -2.9317  -2.9315  -2.8434  -2.8430  -2.7887  -2.7868  -2.2130  -2.2107
    -1.9801  -1.9795  -1.8004  -1.8000  -1.6931  -1.6906  -1.5803  -1.5800
    -1.4023  -1.4018  -1.3280  -1.3273  -1.2685  -1.2676  -1.2303  -1.2301
    -1.0961  -1.0959  -0.9305  -0.9304  -0.8359  -0.8343  -0.7405  -0.7397
    -0.6974  -0.6970  -0.6208  -0.6200  -0.5525  -0.5516  -0.4387  -0.4384
    -0.3020  -0.3009  -0.1470  -0.1456  -0.0597  -0.0592   0.0943   0.0947
     0.2392   0.2404   0.3265   0.3279   0.4260   0.4264   0.4997   0.5014
     3.7670   3.7691   3.8784   3.8787   3.9282   3.9294   3.9536   3.9539
     3.9805   3.9827   4.0480   4.0504   4.2497   4.2503   4.3100   4.3105
     4.4114   4.4115   4.5052   4.5057   4.6676   4.6702   4.7584   4.7588
     4.8020   4.8036   4.8246   4.8259   4.8765

          k =-0.5000 0.5315 0.0000 (107356 PWs)   bands (ev):

   -55.5506 -55.5483 -55.5418 -55.5410 -55.5398 -55.5389 -55.5167 -55.5150
   -55.4926 -55.4907 -55.0518 -55.0484 -32.0115 -32.0096 -32.0007 -32.0004
   -31.9934 -31.9932 -31.9822 -31.9802 -31.9705 -31.9688 -31.7923 -31.7919
   -31.7832 -31.7829 -31.7717 -31.7713 -31.7576 -31.7572 -31.7423 -31.7407
   -31.7304 -31.7303 -31.7233 -31.7222 -31.7173 -31.7171 -31.7152 -31.7137
   -31.7011 -31.6992 -31.5028 -31.4994 -31.4437 -31.4404 -31.2712 -31.2679
   -15.6576 -15.6552 -15.6100 -15.6093 -15.5799 -15.5792 -15.5392 -15.5386
   -15.4898 -15.4894 -15.4073 -15.4064 -15.3385 -15.3380 -15.2874 -15.2872
   -15.2423 -15.2420 -15.2066 -15.2060 -15.1290 -15.1263 -14.6911 -14.6876
    -3.2951  -3.2931  -3.2802  -3.2794  -3.2481  -3.2472  -3.1947  -3.1946
    -3.1498  -3.1494  -3.1266  -3.1259  -3.0652  -3.0649  -2.9770  -2.9759
    -2.9058  -2.9048  -2.8416  -2.8413  -2.7704  -2.7684  -2.6024  -2.5998
    -2.0840  -2.0831  -2.0591  -2.0584  -2.0129  -2.0126  -1.9587  -1.9579
    -1.8297  -1.8274  -1.3787  -1.3762  -1.2837  -1.2814  -1.1856  -1.1848
    -1.0737  -1.0732  -0.9874  -0.9873  -0.9427  -0.9417  -0.7891  -0.7865
    -0.5798  -0.5783  -0.5241  -0.5238  -0.4416  -0.4415  -0.3143  -0.3138
    -0.1984  -0.1970   0.0144   0.0173   0.2240   0.2267   0.2595   0.2618
     0.2860   0.2864   0.3168   0.3172   0.3272   0.3282   0.4063   0.4090
     3.7018   3.7020   3.7819   3.7823   3.8856   3.8858   3.9994   4.0000
     4.1096   4.1106   4.1403   4.1417   4.3302   4.3307   4.4045   4.4047
     4.4832   4.4836   4.5530   4.5532   4.6042   4.6047   4.6508   4.6517
     4.7276   4.7297   4.8100   4.8107   4.9307

          k =-0.5000 0.7086 0.0000 (107394 PWs)   bands (ev):

   -55.5418 -55.5395 -55.5330 -55.5323 -55.5310 -55.5301 -55.5079 -55.5062
   -55.4838 -55.4819 -55.0425 -55.0391 -32.1046 -32.1026 -32.0939 -32.0936
   -32.0866 -32.0864 -32.0763 -32.0743 -32.0642 -32.0625 -31.7556 -31.7552
   -31.7525 -31.7517 -31.7456 -31.7452 -31.7399 -31.7393 -31.7295 -31.7276
   -31.7259 -31.7254 -31.7215 -31.7211 -31.7121 -31.7100 -31.7084 -31.7065
   -31.7001 -31.6983 -31.5926 -31.5893 -31.4425 -31.4392 -31.2532 -31.2498
   -15.7095 -15.7071 -15.6420 -15.6416 -15.5983 -15.5981 -15.5492 -15.5492
   -15.4957 -15.4946 -15.2905 -15.2880 -15.2175 -15.2159 -15.1813 -15.1810
   -15.1263 -15.1261 -15.0810 -15.0806 -15.0363 -15.0345 -14.5987 -14.5953
    -3.5274  -3.5260  -3.5034  -3.5030  -3.4677  -3.4672  -3.4017  -3.4015
    -3.3145  -3.3136  -3.1985  -3.1971  -3.0218  -3.0216  -2.8779  -2.8778
    -2.7535  -2.7535  -2.6689  -2.6687  -2.6287  -2.6272  -2.5489  -2.5455
    -2.1341  -2.1338  -2.0947  -2.0944  -2.0124  -2.0120  -1.9110  -1.9106
    -1.8283  -1.8273  -1.3974  -1.3949  -1.3050  -1.3042  -1.2682  -1.2677
    -1.2283  -1.2272  -1.1827  -1.1820  -1.1073  -1.1053  -0.6492  -0.6472
    -0.5028  -0.5024  -0.3642  -0.3639  -0.2447  -0.2435  -0.1173  -0.1169
    -0.0120  -0.0105   0.0109   0.0124   0.1500   0.1506   0.2047   0.2053
     0.2898   0.2901   0.3692   0.3711   0.4217   0.4225   0.5067   0.5068
     3.4468   3.4470   3.5664   3.5667   3.7152   3.7153   3.8778   3.8778
     4.0472   4.0485   4.4432   4.4454   4.5007   4.5026   4.5443   4.5452
     4.5630   4.5635   4.5766   4.5767   4.5981   4.6000   4.6662   4.6666
     4.7852   4.7874   4.8539   4.8545   4.9873

     the Fermi energy is     2.2769 ev

!    total energy              =   -2155.89399402 Ry
     estimated scf accuracy    <       0.00000009 Ry
     smearing contrib. (-TS)   =      -0.00000000 Ry
     internal energy E=F+TS    =   -2155.89399402 Ry

     The total energy is F=E-TS. E is the sum of the following terms:
     one-electron contribution =  -72328.94018031 Ry
     hartree contribution      =   36217.70239167 Ry
     xc contribution           =    -340.13474734 Ry
     ewald contribution        =   34295.47854195 Ry

     convergence has been achieved in  45 iterations

     Forces acting on atoms (cartesian axes, Ry/au):

     atom    1 type  1   force =     0.00053009    0.00000000   -0.00046502
     atom    2 type  1   force =    -0.00061508    0.00000000   -0.00048358
     atom    3 type  1   force =    -0.00010385    0.00000000    0.00015481
     atom    4 type  1   force =    -0.00011278    0.00000000   -0.00013819
     atom    5 type  1   force =    -0.00033291    0.00000000   -0.00040634
     atom    6 type  1   force =     0.00008014    0.00000000   -0.00015682
     atom    7 type  1   force =     0.00007004    0.00000000    0.00018259
     atom    8 type  1   force =    -0.00035499    0.00000000    0.00039467
     atom    9 type  1   force =    -0.00008608    0.00000000    0.00005601
     atom   10 type  1   force =    -0.00005845    0.00000000   -0.00017001
     atom   11 type  1   force =    -0.00062564    0.00000000    0.00059605
     atom   12 type  1   force =     0.00048985    0.00000000    0.00051437
     atom   13 type  2   force =    -0.00043733    0.00000000   -0.00021943
     atom   14 type  2   force =     0.00006528    0.00000000   -0.00030072
     atom   15 type  2   force =     0.00012432    0.00000000    0.00024207
     atom   16 type  2   force =     0.00063073    0.00000000   -0.00037804
     atom   17 type  2   force =     0.00037014    0.00000000   -0.00026378
     atom   18 type  2   force =     0.00022096    0.00000000   -0.00034475
     atom   19 type  2   force =     0.00004266    0.00000000   -0.00056331
     atom   20 type  2   force =    -0.00015619    0.00000000   -0.00026344
     atom   21 type  2   force =    -0.00038937    0.00000000    0.00019689
     atom   22 type  2   force =    -0.00047460    0.00000000    0.00002120
     atom   23 type  2   force =     0.00067990    0.00000000   -0.00005292
     atom   24 type  2   force =     0.00065592    0.00000000    0.00006996
     atom   25 type  2   force =    -0.00007637    0.00000000   -0.00029863
     atom   26 type  2   force =    -0.00007338    0.00000000    0.00027758
     atom   27 type  2   force =    -0.00018647    0.00000000    0.00023511
     atom   28 type  2   force =     0.00007829    0.00000000    0.00048295
     atom   29 type  2   force =    -0.00047498    0.00000000    0.00000341
     atom   30 type  2   force =    -0.00033973    0.00000000   -0.00019502
     atom   31 type  2   force =     0.00060078    0.00000000    0.00037029
     atom   32 type  2   force =     0.00004297    0.00000000   -0.00022851
     atom   33 type  2   force =     0.00020051    0.00000000    0.00021390
     atom   34 type  2   force =     0.00041527    0.00000000    0.00043833
     atom   35 type  2   force =    -0.00043180    0.00000000    0.00023336
     atom   36 type  2   force =     0.00003215    0.00000000    0.00024499

     Total force =     0.002888     Total SCF correction =     0.001129
     SCF correction compared to forces is large: reduce conv_thr to get better values


     Computing stress (Cartesian axis) and pressure

          total   stress  (Ry/bohr**3)                   (kbar)     P=        1.04
   0.00000152   0.00000000  -0.00000008            0.22        0.00       -0.01
   0.00000000  -0.00000144   0.00000000            0.00       -0.21        0.00
  -0.00000008   0.00000000   0.00002103           -0.01        0.00        3.09


     Writing all to output data dir ./Out/pwscf.save/
 
     init_run     :     23.28s CPU     26.38s WALL (       2 calls)
     electrons    :    777.69s CPU    780.54s WALL (       2 calls)
     forces       :      6.07s CPU      5.55s WALL (       2 calls)
     stress       :     23.60s CPU     23.98s WALL (       2 calls)

     Called by init_run:
     wfcinit      :     17.67s CPU     20.36s WALL (       2 calls)
     potinit      :      0.13s CPU      0.10s WALL (       2 calls)
     hinit0       :      4.56s CPU      4.41s WALL (       2 calls)

     Called by electrons:
     c_bands      :    613.20s CPU    615.51s WALL (      72 calls)
     sum_band     :    148.64s CPU    149.09s WALL (      72 calls)
     v_of_rho     :      2.10s CPU      1.62s WALL (      74 calls)
     mix_rho      :     12.56s CPU     13.02s WALL (      72 calls)

     Called by c_bands:
     init_us_2    :      5.81s CPU      5.85s WALL (    3000 calls)
     init_us_2:gp :      5.70s CPU      5.74s WALL (    3000 calls)
     cegterg      :    444.43s CPU    445.76s WALL (    1489 calls)

     Called by *egterg:
     cdiaghg      :     43.92s CPU     45.45s WALL (    9659 calls)
                                       45.38s GPU  (    9659 calls)
     h_psi        :    319.42s CPU    320.68s WALL (    9740 calls)
                                      320.06s GPU  (    9740 calls)
     g_psi        :      0.03s CPU      4.07s WALL (    8211 calls)
                                        4.01s GPU  (    8211 calls)

     Called by h_psi:
     h_psi:calbec :      0.43s CPU     22.38s WALL (    9740 calls)
                                       22.32s GPU  (    9740 calls)
     vloc_psi     :    268.94s CPU    269.86s WALL (    9740 calls)
                                      269.79s GPU  (    9740 calls)
     add_vuspsi   :      8.86s CPU     26.04s WALL (    9740 calls)
                                       25.97s GPU  (    9740 calls)

     General routines
     calbec       :      0.33s CPU      0.40s WALL (    9940 calls)
     fft          :      0.02s CPU      0.14s WALL (     754 calls)
                                        0.14s GPU  (     754 calls)
     ffts         :      0.00s CPU      0.01s WALL (      72 calls)
                                        0.01s GPU  (      72 calls)
     fftw         :      1.23s CPU    247.25s WALL (  110604 calls)
                                      246.47s GPU  (  110604 calls)
 
 
     PWSCF        :  13m52.37s CPU  14m 1.00s WALL

 
   This run was terminated on:  15: 7:50  26Jul2026            

=------------------------------------------------------------------------------=
   JOB DONE.
=------------------------------------------------------------------------------=
