../6_layer/output final
1.0
   4.721640958   0.000000000   0.000000000
   0.000000000   2.961395139   0.000000000
   0.000000000   0.000000000  51.259117127
   Ti    O
   12   24
Cartesian
              0.1603001722        0.0000000000       14.6075172097
              2.4782968433        1.4806974816       16.8402016607
              0.0943124268        0.0000000000       19.1998115185
              2.4467794130        1.4806974816       21.4618504648
              0.0802004462        0.0000000000       23.7998092710
              2.4359328628        1.4806974816       26.0621872812
              0.0750142636        0.0000000000       28.3888001037
              2.4411231082        1.4806974816       30.6519918363
              0.0860694502        0.0000000000       32.9911638406
              2.4553319352        1.4806974816       35.2529670890
              0.1176688040        0.0000000000       37.6137067104
              2.5210935580        1.4806974816       39.8461726096
              0.6195196194        1.4806975697       13.6062995409
              1.4207932975        0.0000000000       15.9438753890
              3.2432220551        0.0000000000       17.7676155811
              0.8671956870        1.4806975697       18.2643798769
              3.6828510671        1.4806975697       15.4302434467
              1.4490018982        0.0000000000       20.5583440203
              3.2426925146        0.0000000000       22.3946480724
              0.8824616346        1.4806975697       22.8688836865
              3.8030824973        1.4806975697       20.0980259882
              1.4550700943        0.0000000000       25.1556745313
              3.2350962880        0.0000000000       26.9971879406
              0.8740849475        1.4806975697       27.4535221288
              3.8153723824        1.4806975697       24.7070791671
              1.4538738875        0.0000000000       29.7447438345
              3.2434086461        0.0000000000       31.5830620307
              0.8823545869        1.4806975697       32.0591852105
              3.8151976488        1.4806975697       29.2951398039
              1.4419131218        0.0000000000       34.3551507735
              3.2290375170        0.0000000000       36.1874738879
              0.8834941821        1.4806975697       36.6873267936
              3.8096001247        1.4806975697       33.8942406194
              1.3209814533        0.0000000000       39.0248823546
              2.9812174065        0.0000000000       40.8469447543
              3.7809634658        1.4806975697       38.5093186570
