../7_layer/output final
1.0
   4.712418216   0.000000000   0.000000000
   0.000000000   2.962688321   0.000000000
   0.000000000   0.000000000  55.852817535
   Ti    O
   14   28
Cartesian
               0.1575893175        0.0000000000       14.6037833078
               2.4714335219        1.4813440726       16.8410384761
               0.0901499112        0.0000000000       19.2028944973
               2.4364955853        1.4813440726       21.4666134349
               0.0733556249        0.0000000000       23.7992820828
               2.4229166588        1.4813440726       26.0643741680
               0.0639511539        0.0000000000       28.3897572215
               2.4210452774        1.4813440726       30.6554706039
               0.0675642467        0.0000000000       32.9814092450
               2.4297341726        1.4813440726       35.2466623237
               0.0809600097        0.0000000000       37.5797203186
               2.4472647164        1.4813440726       39.8444464771
               0.1167235656        0.0000000000       42.2064062582
               2.5159522678        1.4813440726       44.4439464832
               0.6166911673        1.4813441608       13.6013171389
               1.4111564795        0.0000000000       15.9483156038
               3.2447051328        0.0000000000       17.7622450863
               0.8723487863        1.4813441608       18.2738425009
               3.6685461092        1.4813441608       15.4239918961
               1.4415238611        0.0000000000       20.5678514738
               3.2444278089        0.0000000000       22.3917429167
               0.8881456173        1.4813441608       22.8752960926
               3.7911753604        1.4813441608       20.0974235293
               1.4438556793        0.0000000000       25.1621804936
               3.2297157042        0.0000000000       26.9961252356
               0.8731548185        1.4813441608       27.4579220667
               3.8001456752        1.4813441608       24.7015588950
               1.4449911722        0.0000000000       29.7497597739
               3.2344288895        0.0000000000       31.5836226079
               0.8774341381        1.4813441608       32.0523177374
               3.8013069139        1.4813441608       29.2958243799
               1.4434680230        0.0000000000       34.3456030291
               3.2442019945        0.0000000000       36.1710108718
               0.8876414505        1.4813441608       36.6536476361
               3.7993036454        1.4813441608       33.8819672903
               1.4364102033        0.0000000000       38.9482960887
               3.2281000700        0.0000000000       40.7750887906
               0.8896191356        1.4813441608       41.2853079301
               3.7990851082        1.4813441608       38.4796960967
               1.3162615034        0.0000000000       43.6215867955
               2.9749331916        0.0000000000       45.4467075828
               3.7693992090        1.4813441608       43.0993362048
