
     Program PWSCF v.7.1 starts on 17Jul2026 at 15:41:53 

     This program is part of the open-source Quantum ESPRESSO suite
     for quantum simulation of materials; please cite
         "P. Giannozzi et al., J. Phys.:Condens. Matter 21 395502 (2009);
         "P. Giannozzi et al., J. Phys.:Condens. Matter 29 465901 (2017);
         "P. Giannozzi et al., J. Chem. Phys. 152 154105 (2020);
          URL http://www.quantum-espresso.org", 
     in publications or presentations arising from this work. More details at
     http://www.quantum-espresso.org/quote

     Parallel version (MPI), running on    36 processors

     MPI processes distributed on     1 nodes
     178282 MiB available memory on the printing compute node when the environment starts
 
     Waiting for input...
     Reading input from standard input
Warning: card &FCP ignored
Warning: card / ignored
Warning: card &RISM ignored
Warning: card / ignored

     Current dimensions of program PWSCF are:
     Max number of different atomic species (ntypx) = 10
     Max number of k-points (npk) =  40000
     Max angular momentum in pseudopotentials (lmaxx) =  4
     Message from routine setup:
     using ibrav=0 with symmetry is DISCOURAGED, use correct ibrav instead
 
     R & G space division:  proc/nbgrp/npool/nimage =      36
     Subspace diagonalization in iterative solution of the eigenvalue problem:
     one sub-group per band group will be used
     scalapack distributed-memory algorithm (size of sub-group:  2*  2 procs)

 
     Parallelization info
     --------------------
     sticks:   dense  smooth     PW     G-vecs:    dense   smooth      PW
     Min          73      73     20                18863    18863    2752
     Max          74      74     21                18881    18881    2781
     Sum        2639    2639    733               679489   679489   99375
 
     Using Slab Decomposition
 


     bravais-lattice index     =            0
     lattice parameter (alat)  =      12.3151  a.u.
     unit-cell volume          =    3826.0313 (a.u.)^3
     number of atoms/cell      =           36
     number of atomic types    =            2
     number of electrons       =       288.00
     number of Kohn-Sham states=          173
     kinetic-energy cutoff     =     120.0000  Ry
     charge density cutoff     =     480.0000  Ry
     scf convergence threshold =      1.0E-06
     mixing beta               =       0.4000
     number of iterations used =           20  plain     mixing
     energy convergence thresh.=      1.0E-04
     force convergence thresh. =      1.0E-03
     press convergence thresh. =      5.0E-01
     Exchange-correlation= PBE
                           (   1   4   3   4   0   0   0)
     nstep                     =          500


     celldm(1)=  12.315136  celldm(2)=   0.000000  celldm(3)=   0.000000
     celldm(4)=   0.000000  celldm(5)=   0.000000  celldm(6)=   0.000000

     crystal axes: (cart. coord. in units of alat)
               a(1) = (   1.000000   0.000000   0.000000 )  
               a(2) = (   0.000000   0.455076   0.000000 )  
               a(3) = (   0.000000   0.000000   4.501397 )  

     reciprocal axes: (cart. coord. in units 2 pi/alat)
               b(1) = (  1.000000  0.000000  0.000000 )  
               b(2) = (  0.000000  2.197437  0.000000 )  
               b(3) = (  0.000000  0.000000  0.222153 )  


     PseudoPot. # 1 for Ti read from file:
     /cm/shared/apps/KO/pseudo/sg15/Ti_ONCV_PBE-1.2.upf
     MD5 check sum: 1aea57736bd12dcfee93c97d0b9b5968
     Pseudo is Norm-conserving, Zval = 12.0
     Generated using ONCVPSP code by D. R. Hamann
     Using radial grid of  602 points,  6 beta functions with: 
                l(1) =   0
                l(2) =   0
                l(3) =   1
                l(4) =   1
                l(5) =   2
                l(6) =   2

     PseudoPot. # 2 for O  read from file:
     /cm/shared/apps/KO/pseudo/sg15/O_ONCV_PBE-1.2.upf
     MD5 check sum: e36c48deb68f4e355fffe4602be2c42c
     Pseudo is Norm-conserving, Zval =  6.0
     Generated using ONCVPSP code by D. R. Hamann
     Using radial grid of  602 points,  4 beta functions with: 
                l(1) =   0
                l(2) =   0
                l(3) =   1
                l(4) =   1

     atomic species   valence    mass     pseudopotential
        Ti            12.00    47.86700     Ti( 1.00)
        O              6.00    15.99900     O ( 1.00)

      4 Sym. Ops. (no inversion) found



   Cartesian axes

     site n.     atom                  positions (alat units)
         1           Ti  tau(   1) = (   0.5000000   0.0000000   1.0081677  )
         2           Ti  tau(   2) = (   0.0000000   0.2275378   0.9308998  )
         3           Ti  tau(   3) = (   0.0000000   0.0000000   1.4432642  )
         4           Ti  tau(   4) = (   0.5000000   0.2275378   1.5059089  )
         5           Ti  tau(   5) = (   0.5000000   0.0000000   2.0259758  )
         6           Ti  tau(   6) = (   0.0000000   0.2275378   1.9735669  )
         7           Ti  tau(   7) = (   0.0000000   0.0000000   2.4758956  )
         8           Ti  tau(   8) = (   0.5000000   0.2275378   2.5282635  )
         9           Ti  tau(   9) = (   0.5000000   0.0000000   3.0582697  )
        10           Ti  tau(  10) = (   0.0000000   0.2275378   2.9960982  )
        11           Ti  tau(  11) = (   0.0000000   0.0000000   3.4941836  )
        12           Ti  tau(  12) = (   0.5000000   0.2275378   3.5706813  )
        13           O   tau(  13) = (   0.0000000   0.0000000   0.7672372  )
        14           O   tau(  14) = (   0.5000000   0.0000000   1.2840454  )
        15           O   tau(  15) = (   0.0000000   0.0000000   1.1639101  )
        16           O   tau(  16) = (   0.3113446   0.2275378   0.9521316  )
        17           O   tau(  17) = (   0.6886554   0.2275378   0.9521316  )
        18           O   tau(  18) = (   0.0000000   0.0000000   1.7955341  )
        19           O   tau(  19) = (   0.5000000   0.0000000   1.6813424  )
        20           O   tau(  20) = (   0.8030227   0.2275378   1.4768855  )
        21           O   tau(  21) = (   0.1969773   0.2275378   1.4768855  )
        22           O   tau(  22) = (   0.5000000   0.0000000   2.3101147  )
        23           O   tau(  23) = (   0.0000000   0.0000000   2.1918091  )
        24           O   tau(  24) = (   0.3054121   0.2275378   1.9960307  )
        25           O   tau(  25) = (   0.6945879   0.2275378   1.9960307  )
        26           O   tau(  26) = (   0.0000000   0.0000000   2.8208562  )
        27           O   tau(  27) = (   0.5000000   0.0000000   2.7061407  )
        28           O   tau(  28) = (   0.8054408   0.2275378   2.5057230  )
        29           O   tau(  29) = (   0.1945592   0.2275378   2.5057230  )
        30           O   tau(  30) = (   0.5000000   0.0000000   3.3377905  )
        31           O   tau(  31) = (   0.0000000   0.0000000   3.2182422  )
        32           O   tau(  32) = (   0.3031442   0.2275378   3.0240425  )
        33           O   tau(  33) = (   0.6968557   0.2275378   3.0240425  )
        34           O   tau(  34) = (   0.5000000   0.0000000   3.7341598  )
        35           O   tau(  35) = (   0.8114425   0.2275378   3.5505191  )
        36           O   tau(  36) = (   0.1885575   0.2275378   3.5505191  )

     number of k points=     8  Gaussian smearing, width (Ry)=  0.0200
                       cart. coord. in units 2pi/alat
        k(    1) = (   0.0000000   0.0000000   0.0000000), wk =   0.1111111
        k(    2) = (   0.0000000   0.3662395   0.0000000), wk =   0.2222222
        k(    3) = (   0.0000000   0.7324791   0.0000000), wk =   0.2222222
        k(    4) = (   0.0000000  -1.0987186   0.0000000), wk =   0.1111111
        k(    5) = (   0.3333333   0.0000000   0.0000000), wk =   0.2222222
        k(    6) = (   0.3333333   0.3662395   0.0000000), wk =   0.4444444
        k(    7) = (   0.3333333   0.7324791   0.0000000), wk =   0.4444444
        k(    8) = (   0.3333333  -1.0987186   0.0000000), wk =   0.2222222

     Dense  grid:   679489 G-vectors     FFT dimensions: (  90,  40, 400)

     Estimated max dynamical RAM per process >     123.42 MB

     Estimated total dynamical RAM >       4.34 GB

     Initial potential from superposition of free atoms

     starting charge     286.6604, renormalised to     288.0000

     negative rho (up, down):  4.960E-04 0.000E+00
     Starting wfcs are random

     total cpu time spent up to now is        4.7 secs

     per-process dynamical memory:   220.0 Mb

     Self-consistent Calculation

     iteration #  1     ecut=   120.00 Ry     beta= 0.40
     Davidson diagonalization with overlap
     ethr =  1.00E-02,  avg # of iterations = 14.8

     negative rho (up, down):  2.470E-06 0.000E+00

     total cpu time spent up to now is       25.5 secs

     total energy              =   -2151.88443161 Ry
     estimated scf accuracy    <      13.92734070 Ry

     iteration #  2     ecut=   120.00 Ry     beta= 0.40
     Davidson diagonalization with overlap
     ethr =  4.84E-03,  avg # of iterations =  4.1

     total cpu time spent up to now is       32.3 secs

     total energy              =   -2154.81737738 Ry
     estimated scf accuracy    <       2.88941274 Ry

     iteration #  3     ecut=   120.00 Ry     beta= 0.40
     Davidson diagonalization with overlap
     ethr =  1.00E-03,  avg # of iterations =  8.1

     total cpu time spent up to now is       39.9 secs

     total energy              =   -2155.07040299 Ry
     estimated scf accuracy    <       7.89367043 Ry

     iteration #  4     ecut=   120.00 Ry     beta= 0.40
     Davidson diagonalization with overlap
     ethr =  1.00E-03,  avg # of iterations =  8.4

     total cpu time spent up to now is       46.5 secs

     total energy              =   -2155.78368205 Ry
     estimated scf accuracy    <       0.52228785 Ry

     iteration #  5     ecut=   120.00 Ry     beta= 0.40
     Davidson diagonalization with overlap
     ethr =  1.81E-04,  avg # of iterations = 12.2

     total cpu time spent up to now is       55.5 secs

     total energy              =   -2155.88543028 Ry
     estimated scf accuracy    <       0.07910154 Ry

     iteration #  6     ecut=   120.00 Ry     beta= 0.40
     Davidson diagonalization with overlap
     c_bands:  1 eigenvalues not converged
     c_bands:  3 eigenvalues not converged
     ethr =  2.75E-05,  avg # of iterations = 15.1

     total cpu time spent up to now is       65.7 secs

     total energy              =   -2155.89567736 Ry
     estimated scf accuracy    <       0.04963122 Ry

     iteration #  7     ecut=   120.00 Ry     beta= 0.40
     Davidson diagonalization with overlap
     c_bands:  1 eigenvalues not converged
     c_bands:  2 eigenvalues not converged
     c_bands:  1 eigenvalues not converged
     ethr =  1.72E-05,  avg # of iterations = 16.6

     total cpu time spent up to now is       74.6 secs

     total energy              =   -2155.90036174 Ry
     estimated scf accuracy    <       0.01325142 Ry

     iteration #  8     ecut=   120.00 Ry     beta= 0.40
     Davidson diagonalization with overlap
     c_bands:  1 eigenvalues not converged
     c_bands:  4 eigenvalues not converged
     c_bands:  2 eigenvalues not converged
     c_bands:  1 eigenvalues not converged
     ethr =  4.60E-06,  avg # of iterations = 16.8

     total cpu time spent up to now is       83.6 secs

     total energy              =   -2155.90178428 Ry
     estimated scf accuracy    <       0.00401543 Ry

     iteration #  9     ecut=   120.00 Ry     beta= 0.40
     Davidson diagonalization with overlap
     ethr =  1.39E-06,  avg # of iterations = 10.9

     total cpu time spent up to now is       91.2 secs

     total energy              =   -2155.90215155 Ry
     estimated scf accuracy    <       0.00134281 Ry

     iteration # 10     ecut=   120.00 Ry     beta= 0.40
     Davidson diagonalization with overlap
     ethr =  4.66E-07,  avg # of iterations =  4.4

     total cpu time spent up to now is       96.9 secs

     total energy              =   -2155.90213709 Ry
     estimated scf accuracy    <       0.00071269 Ry

     iteration # 11     ecut=   120.00 Ry     beta= 0.40
     Davidson diagonalization with overlap
     c_bands:  1 eigenvalues not converged
     ethr =  2.47E-07,  avg # of iterations =  6.1

     total cpu time spent up to now is      102.9 secs

     total energy              =   -2155.90216376 Ry
     estimated scf accuracy    <       0.00019439 Ry

     iteration # 12     ecut=   120.00 Ry     beta= 0.40
     Davidson diagonalization with overlap
     c_bands:  1 eigenvalues not converged
     ethr =  6.75E-08,  avg # of iterations = 11.1

     total cpu time spent up to now is      111.3 secs

     total energy              =   -2155.90218956 Ry
     estimated scf accuracy    <       0.00004849 Ry

     iteration # 13     ecut=   120.00 Ry     beta= 0.40
     Davidson diagonalization with overlap
     c_bands:  1 eigenvalues not converged
     ethr =  1.68E-08,  avg # of iterations =  6.9

     total cpu time spent up to now is      118.1 secs

     total energy              =   -2155.90218980 Ry
     estimated scf accuracy    <       0.00001802 Ry

     iteration # 14     ecut=   120.00 Ry     beta= 0.40
     Davidson diagonalization with overlap
     ethr =  6.26E-09,  avg # of iterations =  5.5

     total cpu time spent up to now is      124.7 secs

     total energy              =   -2155.90219298 Ry
     estimated scf accuracy    <       0.00000295 Ry

     iteration # 15     ecut=   120.00 Ry     beta= 0.40
     Davidson diagonalization with overlap
     ethr =  1.03E-09,  avg # of iterations =  5.5

     total cpu time spent up to now is      132.1 secs

     End of self-consistent calculation

          k = 0.0000 0.0000 0.0000 ( 84925 PWs)   bands (ev):

   -53.3079 -53.3071 -53.1644 -53.1629 -53.0987 -53.0945 -53.0886 -53.0850
   -53.0068 -53.0020 -52.7062 -52.6989 -29.6253 -29.6251 -29.5135 -29.5121
   -29.5027 -29.5014 -29.4256 -29.4250 -29.4178 -29.4166 -29.4094 -29.4026
   -29.4012 -29.3932 -29.3101 -29.3048 -29.2520 -29.2484 -29.2466 -29.2462
   -29.2430 -29.2428 -29.2366 -29.2347 -29.1971 -29.1885 -29.1815 -29.1731
   -29.1155 -29.1110 -28.9883 -28.9827 -28.9599 -28.9530 -28.7683 -28.7618
   -14.3032 -14.2299 -14.0256 -13.8736 -13.7947 -13.7375 -13.6339 -13.5696
   -13.3321 -13.1944 -13.0398 -13.0365 -12.9778 -12.9746 -12.6519 -12.6129
   -12.6035 -12.6003 -12.5813 -12.5638 -12.5505 -12.5234 -12.2536 -12.2528
    -1.8611  -1.7747  -1.6874  -1.6753  -1.6517  -1.6484  -1.5739  -1.5102
    -1.2090  -1.1856  -0.9085  -0.7260  -0.4767  -0.4245  -0.4204  -0.2953
    -0.2930   0.0251   0.0373   0.0598   0.0614   0.0813   0.1043   0.1074
     0.1579   0.1601   0.3581   0.3616   0.4608   0.5299   0.6089   0.9014
     0.9813   1.0734   1.1140   1.2250   1.2438   1.2444   1.3091   1.3162
     1.4546   1.5140   1.5979   1.6207   1.7120   1.7132   1.8516   1.9757
     2.0008   2.0091   2.0456   2.0798   2.1093   2.1215   2.3723   2.3923
     2.4004   2.4115   2.6524   2.6583   2.6788   2.6811   2.7041   2.7117
     2.7357   2.7397   3.1417   3.1812   3.2132   3.3659   3.5161   3.6480
     5.7146   5.7247   5.7625   5.8066   5.8322   5.8352   6.1260   6.1632
     6.1670   6.1681   6.3383   6.3538   6.3544   6.4090   6.4266   6.4825
     6.6526   6.6582   6.6633   6.6736   6.7893   6.9179   6.9719   7.0784
     7.1248   7.2679   7.3545   7.4065   7.5161

          k = 0.0000 0.3662 0.0000 ( 84963 PWs)   bands (ev):

   -53.2979 -53.2971 -53.1547 -53.1532 -53.0883 -53.0844 -53.0790 -53.0759
   -52.9973 -52.9925 -52.6958 -52.6885 -29.6016 -29.6011 -29.5522 -29.5522
   -29.4987 -29.4974 -29.4825 -29.4818 -29.3916 -29.3903 -29.3811 -29.3772
   -29.3750 -29.3696 -29.3474 -29.3455 -29.3295 -29.3277 -29.2987 -29.2911
   -29.2718 -29.2700 -29.2466 -29.2426 -29.2399 -29.2363 -29.2298 -29.2250
   -29.2206 -29.2163 -28.9802 -28.9744 -28.9536 -28.9467 -28.8790 -28.8728
   -14.0417 -13.9793 -13.7958 -13.6574 -13.5801 -13.5273 -13.4341 -13.3837
   -13.1865 -13.0821 -13.0343 -13.0264 -12.8554 -12.8514 -12.7411 -12.7152
   -12.7030 -12.6959 -12.6865 -12.6664 -12.6539 -12.6352 -12.3150 -12.3146
    -1.5004  -1.4445  -1.3889  -1.3731  -1.3323  -1.3298  -1.2944  -1.2279
    -0.9348  -0.9133  -0.6811  -0.6485  -0.6108  -0.5932  -0.4967  -0.4779
    -0.4726  -0.4315  -0.3956  -0.2900  -0.2884  -0.2097  -0.1768  -0.1161
     0.1018   0.2501   0.3258   0.6814   0.6874   0.7669   0.8840   1.0115
     1.1472   1.1919   1.1945   1.2947   1.3015   1.3671   1.4486   1.4654
     1.4931   1.5410   1.6416   1.6599   1.6815   1.7120   1.7329   1.7577
     1.7861   1.7967   1.8127   1.8229   1.9013   1.9154   2.0310   2.1212
     2.1452   2.2549   2.3173   2.3437   2.3740   2.4287   2.4621   2.5035
     2.6933   2.7115   2.7359   2.7533   2.7566   3.2888   3.3709   3.4813
     5.8276   5.8287   5.9627   6.0518   6.0633   6.0654   6.0881   6.0900
     6.1389   6.2064   6.2479   6.4667   6.4836   6.5190   6.5436   6.6051
     6.8208   6.8692   6.9012   6.9350   7.0425   7.0694   7.0972   7.1305
     7.2198   7.2467   7.2528   7.2918   7.5290

          k = 0.0000 0.7325 0.0000 ( 84944 PWs)   bands (ev):

   -53.2778 -53.2770 -53.1352 -53.1336 -53.0671 -53.0639 -53.0600 -53.0579
   -52.9781 -52.9733 -52.6749 -52.6676 -29.7757 -29.7748 -29.5705 -29.5686
   -29.5400 -29.5395 -29.5314 -29.5291 -29.5135 -29.5115 -29.4735 -29.4724
   -29.4703 -29.4692 -29.4356 -29.4310 -29.3379 -29.3367 -29.3261 -29.3208
   -29.3189 -29.3146 -29.2730 -29.2702 -29.2403 -29.2377 -29.2225 -29.2195
   -29.1926 -29.1876 -29.1409 -29.1358 -28.9416 -28.9347 -28.9101 -28.9042
   -13.4561 -13.4441 -13.4193 -13.3613 -13.1571 -13.1401 -13.1383 -13.0605
   -13.0443 -13.0418 -12.9264 -12.9120 -12.9071 -12.9044 -12.8950 -12.8771
   -12.8601 -12.8540 -12.7925 -12.7702 -12.6263 -12.6219 -12.2977 -12.2967
    -0.9556  -0.8999  -0.8899  -0.8718  -0.8622  -0.8528  -0.8088  -0.7722
    -0.7161  -0.7125  -0.6415  -0.6246  -0.6055  -0.5915  -0.5488  -0.5413
    -0.4696  -0.4591  -0.4495  -0.3765  -0.3384  -0.2993  -0.2708  -0.0898
     0.0643   0.2501   0.2640   0.3244   0.3751   0.4254   0.4636   0.5098
     0.5154   0.5389   0.7153   0.7590   0.7748   1.0904   1.1423   1.2723
     1.3328   1.3722   1.4129   1.5876   1.6199   1.6240   1.6818   1.7051
     1.7286   1.7785   1.8044   1.8501   1.9173   2.0406   2.0581   2.0625
     2.0658   2.2631   2.3182   2.3222   2.3225   2.3864   2.4017   2.4055
     2.6105   2.6229   2.6324   2.6558   2.7408   2.7970   2.8484   2.9207
     6.1345   6.1728   6.1859   6.1904   6.2626   6.3131   6.4284   6.4530
     6.4930   6.5212   6.6310   6.6402   6.6473   6.6696   6.7563   6.7690
     6.8118   6.8374   6.8433   6.9665   7.0278   7.1188   7.2527   7.2918
     7.3148   7.3464   7.3644   7.3681   7.3908

          k = 0.0000-1.0987 0.0000 ( 84900 PWs)   bands (ev):

   -53.2677 -53.2669 -53.1254 -53.1238 -53.0563 -53.0531 -53.0508 -53.0491
   -52.9685 -52.9636 -52.6645 -52.6571 -29.8839 -29.8829 -29.6744 -29.6725
   -29.6375 -29.6353 -29.6215 -29.6195 -29.5392 -29.5348 -29.4958 -29.4947
   -29.4837 -29.4817 -29.4566 -29.4556 -29.3103 -29.3092 -29.3008 -29.2978
   -29.2779 -29.2748 -29.2702 -29.2661 -29.2644 -29.2617 -29.2469 -29.2445
   -29.1973 -29.1950 -29.1732 -29.1681 -28.9361 -28.9291 -28.8913 -28.8853
   -13.4368 -13.4345 -13.1209 -13.1164 -13.0346 -13.0255 -13.0066 -12.9981
   -12.9856 -12.9631 -12.9601 -12.9475 -12.9385 -12.9370 -12.9107 -12.8927
   -12.8675 -12.8409 -12.7306 -12.7228 -12.6118 -12.5958 -12.1520 -12.1513
    -1.3030  -1.2012  -0.9567  -0.8971  -0.8795  -0.8341  -0.7838  -0.7569
    -0.7023  -0.6274  -0.6080  -0.5696  -0.4639  -0.4531  -0.4423  -0.4368
    -0.4311  -0.3414  -0.2937  -0.2751  -0.2725  -0.2419  -0.1540  -0.0751
    -0.0515   0.0877   0.1707   0.1977   0.3465   0.3560   0.3693   0.3729
     0.7255   0.8143   0.9576   0.9611   1.0037   1.0049   1.0385   1.0556
     1.0615   1.1459   1.2052   1.3225   1.3305   1.4006   1.4206   1.4617
     1.6249   1.7198   1.7780   1.8109   1.8706   1.9965   2.0781   2.1415
     2.1651   2.2115   2.3334   2.4192   2.5110   2.5135   2.5212   2.5393
     2.5423   2.5428   2.5625   2.5784   2.6733   2.7111   2.7303   2.8731
     5.8891   6.1741   6.4076   6.4164   6.4381   6.6097   6.6746   6.6768
     6.6888   6.7335   6.7779   6.7790   6.8722   6.8793   6.8793   6.9746
     6.9934   7.0323   7.0351   7.0362   7.0617   7.0999   7.1057   7.1589
     7.1688   7.2265   7.2284   7.2525   7.3568

          k = 0.3333 0.0000 0.0000 ( 84927 PWs)   bands (ev):

   -53.3079 -53.3071 -53.1644 -53.1629 -53.0973 -53.0938 -53.0891 -53.0866
   -53.0069 -53.0020 -52.7062 -52.6989 -29.6254 -29.6253 -29.5030 -29.5017
   -29.4975 -29.4963 -29.4255 -29.4248 -29.4103 -29.4092 -29.4009 -29.3958
   -29.3736 -29.3661 -29.3093 -29.3088 -29.2861 -29.2823 -29.2649 -29.2600
   -29.2457 -29.2424 -29.2366 -29.2346 -29.1932 -29.1858 -29.1843 -29.1769
   -29.1157 -29.1112 -28.9882 -28.9826 -28.9681 -28.9611 -28.7684 -28.7619
   -14.1548 -14.1009 -13.8687 -13.7373 -13.6992 -13.6586 -13.5952 -13.5512
   -13.4335 -13.2779 -13.1694 -13.1662 -12.9708 -12.9666 -12.7271 -12.7218
   -12.6933 -12.6665 -12.6450 -12.6313 -12.6135 -12.5904 -12.2497 -12.2495
    -1.6922  -1.6480  -1.3739  -1.2971  -1.2538  -1.2482  -1.2403  -1.2290
    -1.1546  -1.1373  -0.5641  -0.4596  -0.4280  -0.3364  -0.2967  -0.2955
    -0.1438   0.0353   0.0443   0.1107   0.1267   0.1628   0.1664   0.2260
     0.2269   0.2298   0.2375   0.3333   0.3584   0.3621   0.4504   0.6077
     0.7037   0.7823   0.8898   0.9174   1.0254   1.0369   1.1132   1.2495
     1.2939   1.3566   1.4099   1.5907   1.6499   1.6567   1.6657   1.8274
     1.9419   1.9442   2.0131   2.0629   2.0837   2.1259   2.1327   2.1615
     2.2307   2.2912   2.4376   2.4558   2.5257   2.5959   2.5995   2.6032
     2.6500   2.6766   2.7803   2.7853   2.8354   3.1790   3.2719   3.3910
     6.0707   6.0815   6.1478   6.1723   6.2044   6.2218   6.2483   6.2526
     6.3971   6.4188   6.4261   6.4305   6.5022   6.5091   6.6235   6.6316
     6.7017   6.7543   6.8922   6.9013   6.9601   7.1118   7.1179   7.2940
     7.3063   7.3160   7.3426   7.3779   7.3959

          k = 0.3333 0.3662 0.0000 ( 84879 PWs)   bands (ev):

   -53.2979 -53.2971 -53.1547 -53.1532 -53.0871 -53.0838 -53.0795 -53.0772
   -52.9973 -52.9925 -52.6958 -52.6885 -29.6016 -29.6011 -29.5525 -29.5525
   -29.4895 -29.4884 -29.4827 -29.4821 -29.3859 -29.3848 -29.3763 -29.3717
   -29.3552 -29.3518 -29.3485 -29.3466 -29.3298 -29.3232 -29.3066 -29.3020
   -29.2728 -29.2713 -29.2618 -29.2593 -29.2435 -29.2388 -29.2376 -29.2338
   -29.2187 -29.2144 -28.9802 -28.9745 -28.9584 -28.9515 -28.8788 -28.8726
   -13.9140 -13.8700 -13.6601 -13.5241 -13.5052 -13.4591 -13.3958 -13.3632
   -13.2641 -13.1398 -13.0375 -13.0282 -13.0054 -13.0041 -12.8200 -12.8121
   -12.7773 -12.7615 -12.7304 -12.7036 -12.6671 -12.6626 -12.3106 -12.3103
    -1.3725  -1.3475  -1.0638  -1.0130  -0.9634  -0.9507  -0.9272  -0.9190
    -0.8545  -0.8465  -0.6543  -0.6496  -0.5149  -0.5000  -0.4560  -0.4524
    -0.3706  -0.3680  -0.2820  -0.1881  -0.1473  -0.1377  -0.0051   0.0262
     0.1276   0.2414   0.4105   0.6128   0.6843   0.7265   0.8043   0.8427
     0.8731   0.9138   0.9551   1.0401   1.0499   1.0650   1.1097   1.1642
     1.2679   1.3494   1.3583   1.4347   1.4915   1.4922   1.5089   1.5305
     1.5597   1.6385   1.6694   1.6920   1.7284   1.7834   1.8380   1.8614
     1.9572   2.0846   2.1686   2.2766   2.5076   2.5109   2.6785   2.6789
     2.7749   2.7928   2.8152   2.8429   2.9029   3.1529   3.2161   3.3015
     5.9364   5.9375   6.1170   6.1213   6.1769   6.2191   6.2600   6.3633
     6.3936   6.4101   6.4677   6.4698   6.5348   6.5410   6.6301   6.6926
     6.8715   6.8972   7.0174   7.0608   7.0979   7.0982   7.2119   7.2825
     7.3630   7.3865   7.4394   7.4899   7.5226

          k = 0.3333 0.7325 0.0000 ( 84900 PWs)   bands (ev):

   -53.2778 -53.2770 -53.1352 -53.1336 -53.0666 -53.0636 -53.0602 -53.0585
   -52.9781 -52.9733 -52.6749 -52.6676 -29.7760 -29.7751 -29.5730 -29.5711
   -29.5407 -29.5402 -29.5320 -29.5298 -29.5210 -29.5190 -29.4971 -29.4949
   -29.4734 -29.4723 -29.4048 -29.4014 -29.3368 -29.3357 -29.3253 -29.3224
   -29.2945 -29.2904 -29.2725 -29.2709 -29.2549 -29.2522 -29.2222 -29.2193
   -29.1961 -29.1910 -29.1401 -29.1350 -28.9410 -28.9341 -28.9101 -28.9041
   -13.4230 -13.4201 -13.3842 -13.3376 -13.1908 -13.1870 -13.1368 -13.1337
   -13.0783 -13.0463 -12.9975 -12.9840 -12.9156 -12.9115 -12.8845 -12.8767
   -12.8154 -12.8015 -12.7484 -12.7335 -12.6219 -12.6178 -12.2978 -12.2968
    -0.9150  -0.8994  -0.8686  -0.8596  -0.7644  -0.7605  -0.7502  -0.7268
    -0.6768  -0.6211  -0.5610  -0.5576  -0.5156  -0.5141  -0.4692  -0.4412
    -0.4185  -0.3713  -0.3429  -0.3160  -0.3127  -0.2510  -0.1890  -0.1832
     0.0296   0.1081   0.2511   0.2886   0.3297   0.3349   0.4410   0.4637
     0.6639   0.6835   0.7903   0.8204   0.8915   1.0166   1.0966   1.1836
     1.2529   1.2706   1.3655   1.3741   1.4643   1.4921   1.5231   1.5397
     1.5737   1.6046   1.7112   1.7591   1.7870   1.9070   2.0224   2.0292
     2.0730   2.1209   2.2849   2.3028   2.3420   2.3876   2.4578   2.4834
     2.5429   2.6114   2.7436   2.8083   2.8790   2.9261   2.9427   2.9592
     5.9029   5.9274   5.9641   6.0348   6.0520   6.0995   6.3506   6.4605
     6.4697   6.5322   6.6314   6.6713   6.7057   6.7460   6.8259   6.8532
     6.8774   6.9162   6.9289   6.9537   7.0794   7.1481   7.2261   7.2515
     7.3233   7.3262   7.4552   7.4950   7.5874

          k = 0.3333-1.0987 0.0000 ( 85048 PWs)   bands (ev):

   -53.2677 -53.2669 -53.1254 -53.1238 -53.0563 -53.0531 -53.0508 -53.0491
   -52.9685 -52.9636 -52.6645 -52.6571 -29.8843 -29.8833 -29.6770 -29.6751
   -29.6383 -29.6361 -29.6282 -29.6265 -29.5615 -29.5576 -29.4967 -29.4956
   -29.4837 -29.4817 -29.4328 -29.4312 -29.3160 -29.3145 -29.3002 -29.2984
   -29.2704 -29.2677 -29.2647 -29.2639 -29.2616 -29.2611 -29.2458 -29.2439
   -29.1971 -29.1948 -29.1727 -29.1676 -28.9327 -28.9258 -28.8914 -28.8853
   -13.4349 -13.4332 -13.2181 -13.2132 -13.2046 -13.2021 -13.1608 -13.1572
   -13.1148 -13.1123 -13.0064 -12.9675 -12.7553 -12.7534 -12.7331 -12.7287
   -12.6639 -12.6619 -12.6558 -12.6520 -12.6100 -12.6019 -12.1520 -12.1512
    -1.2366  -1.2254  -1.2191  -1.1552  -1.0883  -1.0422  -0.9207  -0.9197
    -0.9179  -0.8605  -0.6938  -0.4897  -0.4742  -0.4432  -0.3199  -0.3090
    -0.2744  -0.2722  -0.2685  -0.1938  -0.0670  -0.0660  -0.0631  -0.0596
     0.0957   0.1254   0.3806   0.4348   0.4434   0.5708   0.6562   0.7315
     0.7410   0.7462   0.8090   0.9971   1.0143   1.0231   1.0250   1.0566
     1.1226   1.1420   1.1494   1.2069   1.3671   1.3862   1.6023   1.7036
     1.7140   1.7607   1.7994   1.8853   1.9864   2.0366   2.1296   2.1600
     2.1816   2.2020   2.2256   2.2868   2.3103   2.3170   2.3247   2.4041
     2.4495   2.5034   2.5118   2.5571   2.5600   2.7988   2.8547   2.8902
     5.8787   5.8894   5.9508   6.0116   6.0903   6.2246   6.2314   6.3035
     6.4688   6.5469   6.7448   6.7464   6.7823   6.8793   6.9023   6.9576
     6.9961   6.9983   7.0093   7.0264   7.0945   7.1008   7.2477   7.2504
     7.2626   7.4197   7.5616   7.5698   7.5880

     the Fermi energy is     4.6674 ev

!    total energy              =   -2155.90219303 Ry
     estimated scf accuracy    <       0.00000096 Ry
     smearing contrib. (-TS)   =      -0.00000000 Ry
     internal energy E=F+TS    =   -2155.90219303 Ry

     The total energy is F=E-TS. E is the sum of the following terms:
     one-electron contribution =  -14879.07523596 Ry
     hartree contribution      =    7518.16265182 Ry
     xc contribution           =    -340.13284425 Ry
     ewald contribution        =    5545.14323537 Ry

     convergence has been achieved in  15 iterations

     Forces acting on atoms (cartesian axes, Ry/au):

     atom    1 type  1   force =     0.00000000    0.00000000    0.00024036
     atom    2 type  1   force =     0.00000000    0.00000000    0.00021596
     atom    3 type  1   force =     0.00000000    0.00000000    0.00007100
     atom    4 type  1   force =     0.00000000    0.00000000   -0.00002730
     atom    5 type  1   force =     0.00000000    0.00000000    0.00022505
     atom    6 type  1   force =     0.00000000    0.00000000   -0.00027811
     atom    7 type  1   force =     0.00000000    0.00000000   -0.00023278
     atom    8 type  1   force =     0.00000000    0.00000000    0.00008174
     atom    9 type  1   force =     0.00000000    0.00000000   -0.00034016
     atom   10 type  1   force =     0.00000000    0.00000000    0.00030720
     atom   11 type  1   force =     0.00000000    0.00000000    0.00020288
     atom   12 type  1   force =     0.00000000    0.00000000    0.00014569
     atom   13 type  2   force =     0.00000000    0.00000000    0.00131039
     atom   14 type  2   force =     0.00000000    0.00000000   -0.00024658
     atom   15 type  2   force =     0.00000000    0.00000000    0.00002249
     atom   16 type  2   force =     0.00055190    0.00000000   -0.00119046
     atom   17 type  2   force =    -0.00055190    0.00000000   -0.00119046
     atom   18 type  2   force =     0.00000000    0.00000000   -0.00001335
     atom   19 type  2   force =     0.00000000    0.00000000    0.00043413
     atom   20 type  2   force =     0.00011625    0.00000000    0.00096029
     atom   21 type  2   force =    -0.00011625    0.00000000    0.00096029
     atom   22 type  2   force =     0.00000000    0.00000000    0.00037047
     atom   23 type  2   force =     0.00000000    0.00000000   -0.00093103
     atom   24 type  2   force =    -0.00028901    0.00000000    0.00051027
     atom   25 type  2   force =     0.00028901    0.00000000    0.00051027
     atom   26 type  2   force =     0.00000000    0.00000000   -0.00114068
     atom   27 type  2   force =     0.00000000    0.00000000    0.00031379
     atom   28 type  2   force =    -0.00037084    0.00000000   -0.00020459
     atom   29 type  2   force =     0.00037084    0.00000000   -0.00020459
     atom   30 type  2   force =     0.00000000    0.00000000   -0.00123736
     atom   31 type  2   force =     0.00000000    0.00000000   -0.00015229
     atom   32 type  2   force =    -0.00014861    0.00000000    0.00036627
     atom   33 type  2   force =     0.00014861    0.00000000    0.00036627
     atom   34 type  2   force =     0.00000000    0.00000000   -0.00032022
     atom   35 type  2   force =     0.00041826    0.00000000    0.00004758
     atom   36 type  2   force =    -0.00041826    0.00000000    0.00004758

     Total force =     0.003692     Total SCF correction =     0.003867
     SCF correction compared to forces is large: reduce conv_thr to get better values


     Computing stress (Cartesian axis) and pressure

          total   stress  (Ry/bohr**3)                   (kbar)     P=        0.07
   0.00000067   0.00000000   0.00000000            0.10        0.00        0.00
   0.00000000  -0.00000144   0.00000000            0.00       -0.21        0.00
   0.00000000   0.00000000   0.00000212            0.00        0.00        0.31


     BFGS Geometry Optimization
     Energy error            =      0.0E+00 Ry
     Gradient error          =      1.3E-03 Ry/Bohr
     Cell gradient error     =      2.1E-01 kbar

     number of scf cycles    =   1
     number of bfgs steps    =   0

     enthalpy           new  =   -2155.9021930284 Ry

     new trust radius        =       0.0013121663 bohr
     new conv_thr            =       0.0000010000 Ry

     new unit-cell volume =   3825.95818 a.u.^3 (   566.94851 Ang^3 )
     density =      2.80701 g/cm^3

CELL_PARAMETERS (angstrom)
   6.516999066   0.000000000   0.000000000
   0.000000000   2.965570717   0.000000000
   0.000000000   0.000000000  29.335106809

ATOMIC_POSITIONS (angstrom)
Ti            3.2584993388        0.0000000000        6.5702445664
Ti            0.0000000000        1.4827852708        6.0666855331
Ti            0.0000000000        0.0000000000        9.4056309968
Ti            3.2584993388        1.4827852708        9.8138272109
Ti            3.2584993388        0.0000000000       13.2031794066
Ti            0.0000000000        1.4827852708       12.8613703186
Ti            0.0000000000        0.0000000000       16.1350147094
Ti            3.2584993388        1.4827852708       16.4764571116
Ti            3.2584993388        0.0000000000       19.9302258133
Ti            0.0000000000        1.4827852708       19.5254032660
Ti            0.0000000000        0.0000000000       22.7713155866
Ti            3.2584993388        1.4827852708       23.2698122625
O             0.0000000000        0.0000000000        5.0006934281
O             3.2584993388        0.0000000000        8.3678517923
O             0.0000000000        0.0000000000        7.5850853122
O             2.0293243273        1.4827852708        6.2043065631
O             4.4876745449        1.4827852708        6.2043065631
O             0.0000000000        0.0000000000       11.7012903191
O             3.2584993388        0.0000000000       10.9573522048
O             5.2333595445        1.4827853590        9.6252078687
O             1.2836395211        1.4827853590        9.6252078687
O             3.2584993388        0.0000000000       15.0549585139
O             0.0000000000        0.0000000000       14.2832851129
O             1.9902171386        1.4827852708       13.0081812860
O             4.5267817334        1.4827852708       13.0081812860
O             0.0000000000        0.0000000000       18.3826046865
O             3.2584993388        0.0000000000       17.6357862353
O             5.2488606029        1.4827853590       16.3294113223
O             1.2681384627        1.4827853590       16.3294113223
O             3.2584993388        0.0000000000       21.7513567932
O             0.0000000000        0.0000000000       20.9728484451
O             1.9755119738        1.4827852708       19.7075445007
O             4.5414868983        1.4827852708       19.7075445007
O             3.2584993388        0.0000000000       24.3349373533
O             5.2883914989        1.4827853590       23.1383660464
O             1.2286075668        1.4827853590       23.1383660464



     Writing config-only to output data dir ./Out/pwscf.save/
     NEW-OLD atomic charge density approx. for the potential

     negative rho (up, down):  4.183E-08 0.000E+00
     extrapolated charge  287.99452, renormalised to  288.00000

     total cpu time spent up to now is      149.3 secs

     per-process dynamical memory:   238.8 Mb

     Self-consistent Calculation

     iteration #  1     ecut=   120.00 Ry     beta= 0.40
     Davidson diagonalization with overlap
     ethr =  1.00E-06,  avg # of iterations =  2.5

     Threshold (ethr) on eigenvalues was too large:
     Diagonalizing with lowered threshold

     Davidson diagonalization with overlap
     ethr =  1.03E-08,  avg # of iterations =  5.0

     total cpu time spent up to now is      162.3 secs

     total energy              =   -2155.90217271 Ry
     estimated scf accuracy    <       0.00004522 Ry

     iteration #  2     ecut=   120.00 Ry     beta= 0.40
     Davidson diagonalization with overlap
     ethr =  1.57E-08,  avg # of iterations =  6.4

     total cpu time spent up to now is      170.4 secs

     total energy              =   -2155.90218717 Ry
     estimated scf accuracy    <       0.00029679 Ry

     iteration #  3     ecut=   120.00 Ry     beta= 0.40
     Davidson diagonalization with overlap
     ethr =  1.57E-08,  avg # of iterations =  6.1

     total cpu time spent up to now is      177.1 secs

     total energy              =   -2155.90220309 Ry
     estimated scf accuracy    <       0.00002219 Ry

     iteration #  4     ecut=   120.00 Ry     beta= 0.40
     Davidson diagonalization with overlap
     ethr =  7.71E-09,  avg # of iterations =  3.6

     total cpu time spent up to now is      182.7 secs

     total energy              =   -2155.90220389 Ry
     estimated scf accuracy    <       0.00000407 Ry

     iteration #  5     ecut=   120.00 Ry     beta= 0.40
     Davidson diagonalization with overlap
     ethr =  1.41E-09,  avg # of iterations =  6.6

     total cpu time spent up to now is      190.2 secs

     End of self-consistent calculation

          k = 0.0000 0.0000 0.0000 ( 84925 PWs)   bands (ev):

   -53.3074 -53.3070 -53.1647 -53.1619 -53.0946 -53.0907 -53.0862 -53.0825
   -53.0053 -53.0010 -52.7058 -52.7038 -29.6250 -29.6245 -29.5129 -29.5119
   -29.5025 -29.5007 -29.4249 -29.4246 -29.4188 -29.4155 -29.4063 -29.3998
   -29.3976 -29.3896 -29.3074 -29.3021 -29.2483 -29.2463 -29.2454 -29.2441
   -29.2419 -29.2418 -29.2367 -29.2341 -29.1938 -29.1858 -29.1777 -29.1699
   -29.1139 -29.1100 -28.9891 -28.9865 -28.9594 -28.9575 -28.7684 -28.7663
   -14.3014 -14.2292 -14.0238 -13.8726 -13.7946 -13.7356 -13.6322 -13.5687
   -13.3298 -13.1913 -13.0409 -13.0371 -12.9777 -12.9744 -12.6480 -12.6113
   -12.6026 -12.5965 -12.5798 -12.5634 -12.5494 -12.5206 -12.2566 -12.2537
    -1.8590  -1.7728  -1.6851  -1.6735  -1.6517  -1.6490  -1.5725  -1.5086
    -1.2067  -1.1832  -0.9065  -0.7256  -0.4755  -0.4261  -0.4211  -0.2936
    -0.2912   0.0290   0.0405   0.0638   0.0647   0.0828   0.1042   0.1071
     0.1586   0.1615   0.3543   0.3592   0.4615   0.5317   0.6093   0.9037
     0.9836   1.0720   1.1129   1.2244   1.2440   1.2469   1.3107   1.3165
     1.4565   1.5159   1.5983   1.6209   1.7098   1.7119   1.8528   1.9780
     2.0012   2.0117   2.0466   2.0797   2.1106   2.1243   2.3741   2.3941
     2.4020   2.4129   2.6536   2.6595   2.6818   2.6823   2.7056   2.7127
     2.7371   2.7414   3.1444   3.1813   3.2124   3.3667   3.5167   3.6507
     5.7153   5.7253   5.7647   5.8087   5.8331   5.8349   6.1258   6.1620
     6.1678   6.1686   6.3426   6.3554   6.3586   6.4119   6.4302   6.4826
     6.6527   6.6547   6.6650   6.6754   6.7911   6.9192   6.9733   7.0798
     7.1263   7.2694   7.3506   7.4067   7.5180

          k = 0.0000 0.3663 0.0000 ( 84963 PWs)   bands (ev):

   -53.2974 -53.2970 -53.1550 -53.1521 -53.0840 -53.0807 -53.0766 -53.0735
   -52.9957 -52.9915 -52.6954 -52.6934 -29.6012 -29.6006 -29.5520 -29.5514
   -29.4981 -29.4972 -29.4824 -29.4810 -29.3925 -29.3892 -29.3778 -29.3736
   -29.3721 -29.3661 -29.3475 -29.3449 -29.3262 -29.3244 -29.2964 -29.2888
   -29.2679 -29.2667 -29.2427 -29.2395 -29.2389 -29.2353 -29.2283 -29.2241
   -29.2191 -29.2153 -28.9809 -28.9784 -28.9531 -28.9512 -28.8794 -28.8771
   -14.0401 -13.9786 -13.7941 -13.6564 -13.5798 -13.5254 -13.4325 -13.3828
   -13.1849 -13.0816 -13.0328 -13.0232 -12.8566 -12.8515 -12.7375 -12.7132
   -12.7021 -12.6924 -12.6851 -12.6657 -12.6531 -12.6325 -12.3181 -12.3158
    -1.4983  -1.4426  -1.3866  -1.3713  -1.3328  -1.3298  -1.2931  -1.2264
    -0.9326  -0.9112  -0.6789  -0.6462  -0.6091  -0.5920  -0.4933  -0.4768
    -0.4732  -0.4313  -0.3960  -0.2918  -0.2881  -0.2085  -0.1745  -0.1140
     0.1038   0.2498   0.3251   0.6794   0.6856   0.7685   0.8861   1.0129
     1.1485   1.1931   1.1960   1.2960   1.3030   1.3675   1.4498   1.4676
     1.4931   1.5434   1.6415   1.6618   1.6820   1.7143   1.7355   1.7609
     1.7860   1.7978   1.8129   1.8219   1.9028   1.9161   2.0314   2.1198
     2.1437   2.2554   2.3191   2.3451   2.3748   2.4306   2.4642   2.5059
     2.6953   2.7110   2.7376   2.7550   2.7571   3.2896   3.3708   3.4841
     5.8270   5.8294   5.9651   6.0531   6.0648   6.0655   6.0908   6.0908
     6.1404   6.2074   6.2476   6.4685   6.4863   6.5196   6.5466   6.6071
     6.8219   6.8696   6.9018   6.9350   7.0445   7.0698   7.0994   7.1314
     7.2206   7.2478   7.2536   7.2937   7.5312

          k = 0.0000 0.7325 0.0000 ( 84944 PWs)   bands (ev):

   -53.2773 -53.2769 -53.1354 -53.1326 -53.0623 -53.0604 -53.0576 -53.0559
   -52.9765 -52.9723 -52.6745 -52.6725 -29.7748 -29.7744 -29.5708 -29.5682
   -29.5395 -29.5388 -29.5271 -29.5254 -29.5112 -29.5095 -29.4732 -29.4717
   -29.4697 -29.4690 -29.4341 -29.4301 -29.3388 -29.3355 -29.3233 -29.3180
   -29.3151 -29.3115 -29.2692 -29.2667 -29.2366 -29.2352 -29.2220 -29.2185
   -29.1911 -29.1867 -29.1421 -29.1394 -28.9412 -28.9392 -28.9107 -28.9082
   -13.4550 -13.4442 -13.4185 -13.3601 -13.1549 -13.1407 -13.1381 -13.0574
   -13.0427 -13.0406 -12.9235 -12.9087 -12.9044 -12.9035 -12.8942 -12.8755
   -12.8596 -12.8524 -12.7894 -12.7669 -12.6266 -12.6212 -12.3005 -12.2991
    -0.9536  -0.8987  -0.8879  -0.8701  -0.8617  -0.8523  -0.8061  -0.7711
    -0.7164  -0.7122  -0.6381  -0.6234  -0.6047  -0.5905  -0.5463  -0.5393
    -0.4702  -0.4576  -0.4500  -0.3748  -0.3385  -0.2989  -0.2696  -0.0887
     0.0660   0.2516   0.2645   0.3254   0.3767   0.4276   0.4639   0.5100
     0.5166   0.5400   0.7167   0.7609   0.7757   1.0910   1.1426   1.2736
     1.3320   1.3739   1.4122   1.5901   1.6218   1.6258   1.6826   1.7054
     1.7302   1.7798   1.8043   1.8513   1.9176   2.0415   2.0611   2.0645
     2.0675   2.2627   2.3169   2.3213   2.3235   2.3894   2.4000   2.4049
     2.6118   2.6226   2.6345   2.6577   2.7436   2.7982   2.8478   2.9229
     6.1370   6.1745   6.1856   6.1909   6.2632   6.3142   6.4292   6.4550
     6.4938   6.5223   6.6325   6.6428   6.6483   6.6704   6.7588   6.7729
     6.8104   6.8409   6.8429   6.9664   7.0279   7.1205   7.2551   7.2915
     7.3167   7.3487   7.3650   7.3687   7.3917

          k = 0.0000-1.0988 0.0000 ( 84900 PWs)   bands (ev):

   -53.2672 -53.2668 -53.1256 -53.1228 -53.0506 -53.0497 -53.0482 -53.0480
   -52.9669 -52.9627 -52.6640 -52.6620 -29.8829 -29.8825 -29.6747 -29.6720
   -29.6325 -29.6318 -29.6191 -29.6178 -29.5378 -29.5339 -29.4951 -29.4944
   -29.4831 -29.4814 -29.4561 -29.4554 -29.3113 -29.3080 -29.2986 -29.2959
   -29.2724 -29.2717 -29.2714 -29.2689 -29.2588 -29.2583 -29.2444 -29.2428
   -29.1977 -29.1941 -29.1716 -29.1671 -28.9356 -28.9337 -28.8919 -28.8894
   -13.4369 -13.4345 -13.1189 -13.1130 -13.0314 -13.0247 -13.0054 -12.9975
   -12.9837 -12.9629 -12.9588 -12.9460 -12.9391 -12.9360 -12.9085 -12.8913
   -12.8658 -12.8379 -12.7296 -12.7215 -12.6099 -12.5933 -12.1546 -12.1529
    -1.3018  -1.2014  -0.9549  -0.8948  -0.8776  -0.8326  -0.7829  -0.7566
    -0.7009  -0.6240  -0.6059  -0.5680  -0.4633  -0.4528  -0.4423  -0.4352
    -0.4296  -0.3420  -0.2941  -0.2767  -0.2715  -0.2392  -0.1520  -0.0741
    -0.0507   0.0881   0.1733   0.1989   0.3466   0.3568   0.3700   0.3749
     0.7277   0.8154   0.9588   0.9620   1.0049   1.0070   1.0400   1.0557
     1.0622   1.1476   1.2034   1.3232   1.3301   1.4028   1.4227   1.4614
     1.6272   1.7209   1.7793   1.8113   1.8734   1.9982   2.0806   2.1433
     2.1674   2.2132   2.3341   2.4211   2.5102   2.5105   2.5225   2.5388
     2.5388   2.5432   2.5611   2.5811   2.6757   2.7115   2.7330   2.8755
     5.8909   6.1747   6.4090   6.4182   6.4391   6.6129   6.6761   6.6778
     6.6925   6.7355   6.7729   6.7791   6.8756   6.8771   6.8812   6.9784
     6.9964   7.0323   7.0356   7.0390   7.0627   7.1018   7.1069   7.1603
     7.1714   7.2282   7.2283   7.2525   7.3578

          k = 0.3333 0.0000 0.0000 ( 84927 PWs)   bands (ev):

   -53.3074 -53.3069 -53.1647 -53.1618 -53.0927 -53.0899 -53.0871 -53.0843
   -53.0053 -53.0011 -52.7058 -52.7038 -29.6252 -29.6247 -29.5028 -29.5010
   -29.4969 -29.4961 -29.4248 -29.4245 -29.4113 -29.4080 -29.3973 -29.3923
   -29.3707 -29.3634 -29.3065 -29.3060 -29.2820 -29.2791 -29.2634 -29.2591
   -29.2448 -29.2413 -29.2366 -29.2340 -29.1900 -29.1837 -29.1799 -29.1737
   -29.1141 -29.1101 -28.9890 -28.9864 -28.9676 -28.9657 -28.7685 -28.7664
   -14.1534 -14.1003 -13.8667 -13.7351 -13.6985 -13.6583 -13.5944 -13.5491
   -13.4318 -13.2754 -13.1705 -13.1661 -12.9704 -12.9662 -12.7262 -12.7210
   -12.6902 -12.6635 -12.6426 -12.6307 -12.6119 -12.5871 -12.2528 -12.2503
    -1.6908  -1.6468  -1.3715  -1.2953  -1.2517  -1.2483  -1.2403  -1.2266
    -1.1527  -1.1357  -0.5624  -0.4605  -0.4289  -0.3363  -0.2953  -0.2935
    -0.1426   0.0384   0.0477   0.1146   0.1307   0.1628   0.1655   0.2273
     0.2280   0.2309   0.2385   0.3334   0.3547   0.3597   0.4517   0.6083
     0.7057   0.7833   0.8920   0.9188   1.0258   1.0368   1.1154   1.2509
     1.2960   1.3580   1.4105   1.5914   1.6501   1.6560   1.6658   1.8259
     1.9421   1.9457   2.0146   2.0638   2.0855   2.1281   2.1349   2.1635
     2.2301   2.2909   2.4410   2.4592   2.5266   2.5943   2.5993   2.6041
     2.6517   2.6775   2.7809   2.7880   2.8370   3.1797   3.2724   3.3941
     6.0703   6.0812   6.1490   6.1737   6.2063   6.2224   6.2508   6.2514
     6.4000   6.4223   6.4275   6.4309   6.5052   6.5112   6.6234   6.6317
     6.7029   6.7545   6.8943   6.9040   6.9627   7.1131   7.1194   7.2948
     7.3053   7.3166   7.3421   7.3741   7.3889

          k = 0.3333 0.3663 0.0000 ( 84879 PWs)   bands (ev):

   -53.2974 -53.2969 -53.1549 -53.1521 -53.0824 -53.0799 -53.0774 -53.0751
   -52.9958 -52.9915 -52.6954 -52.6934 -29.6012 -29.6006 -29.5523 -29.5517
   -29.4890 -29.4882 -29.4827 -29.4812 -29.3869 -29.3836 -29.3728 -29.3683
   -29.3519 -29.3489 -29.3486 -29.3461 -29.3264 -29.3202 -29.3037 -29.2997
   -29.2687 -29.2683 -29.2576 -29.2567 -29.2421 -29.2379 -29.2366 -29.2328
   -29.2172 -29.2134 -28.9810 -28.9784 -28.9580 -28.9561 -28.8791 -28.8769
   -13.9127 -13.8695 -13.6582 -13.5220 -13.5041 -13.4587 -13.3949 -13.3615
   -13.2626 -13.1384 -13.0367 -13.0265 -13.0061 -13.0034 -12.8190 -12.8113
   -12.7742 -12.7582 -12.7273 -12.7010 -12.6674 -12.6613 -12.3136 -12.3115
    -1.3712  -1.3464  -1.0614  -1.0109  -0.9610  -0.9499  -0.9273  -0.9180
    -0.8527  -0.8452  -0.6525  -0.6479  -0.5127  -0.4980  -0.4570  -0.4526
    -0.3692  -0.3662  -0.2796  -0.1863  -0.1480  -0.1375  -0.0049   0.0263
     0.1300   0.2422   0.4108   0.6113   0.6825   0.7290   0.8051   0.8446
     0.8756   0.9158   0.9563   1.0403   1.0492   1.0653   1.1106   1.1651
     1.2698   1.3509   1.3600   1.4365   1.4935   1.4944   1.5096   1.5306
     1.5614   1.6401   1.6713   1.6926   1.7297   1.7848   1.8379   1.8622
     1.9579   2.0856   2.1685   2.2773   2.5063   2.5109   2.6788   2.6806
     2.7753   2.7952   2.8166   2.8438   2.9044   3.1537   3.2165   3.3045
     5.9357   5.9380   6.1176   6.1219   6.1801   6.2216   6.2619   6.3644
     6.3945   6.4108   6.4683   6.4720   6.5360   6.5388   6.6333   6.6960
     6.8727   6.8975   7.0187   7.0611   7.0990   7.1013   7.2140   7.2837
     7.3640   7.3877   7.4390   7.4891   7.5206

          k = 0.3333 0.7325 0.0000 ( 84900 PWs)   bands (ev):

   -53.2773 -53.2768 -53.1354 -53.1326 -53.0614 -53.0600 -53.0579 -53.0568
   -52.9765 -52.9723 -52.6745 -52.6725 -29.7751 -29.7747 -29.5732 -29.5706
   -29.5400 -29.5394 -29.5279 -29.5262 -29.5188 -29.5168 -29.4963 -29.4945
   -29.4732 -29.4716 -29.4036 -29.4007 -29.3377 -29.3344 -29.3225 -29.3196
   -29.2908 -29.2874 -29.2685 -29.2676 -29.2513 -29.2496 -29.2218 -29.2182
   -29.1945 -29.1901 -29.1413 -29.1386 -28.9406 -28.9386 -28.9106 -28.9082
   -13.4228 -13.4206 -13.3825 -13.3364 -13.1876 -13.1846 -13.1363 -13.1338
   -13.0765 -13.0454 -12.9953 -12.9824 -12.9157 -12.9117 -12.8819 -12.8740
   -12.8118 -12.7985 -12.7461 -12.7306 -12.6223 -12.6172 -12.3005 -12.2992
    -0.9135  -0.8981  -0.8673  -0.8583  -0.7640  -0.7607  -0.7477  -0.7255
    -0.6750  -0.6193  -0.5592  -0.5545  -0.5157  -0.5126  -0.4687  -0.4410
    -0.4185  -0.3701  -0.3404  -0.3151  -0.3118  -0.2497  -0.1894  -0.1823
     0.0316   0.1102   0.2519   0.2901   0.3294   0.3357   0.4428   0.4660
     0.6650   0.6839   0.7911   0.8212   0.8929   1.0170   1.0962   1.1842
     1.2531   1.2702   1.3679   1.3761   1.4649   1.4934   1.5229   1.5403
     1.5749   1.6044   1.7135   1.7613   1.7894   1.9093   2.0242   2.0297
     2.0735   2.1245   2.2838   2.3021   2.3428   2.3886   2.4576   2.4817
     2.5434   2.6137   2.7444   2.8079   2.8806   2.9262   2.9434   2.9630
     5.9049   5.9281   5.9658   6.0347   6.0521   6.1024   6.3520   6.4601
     6.4696   6.5327   6.6336   6.6730   6.7060   6.7467   6.8283   6.8544
     6.8797   6.9193   6.9311   6.9561   7.0804   7.1489   7.2275   7.2513
     7.3238   7.3264   7.4571   7.4969   7.5857

          k = 0.3333-1.0988 0.0000 ( 85048 PWs)   bands (ev):

   -53.2672 -53.2668 -53.1256 -53.1228 -53.0506 -53.0497 -53.0482 -53.0481
   -52.9669 -52.9627 -52.6640 -52.6620 -29.8833 -29.8829 -29.6774 -29.6747
   -29.6331 -29.6328 -29.6256 -29.6249 -29.5602 -29.5568 -29.4960 -29.4954
   -29.4831 -29.4813 -29.4321 -29.4309 -29.3170 -29.3138 -29.2979 -29.2966
   -29.2661 -29.2649 -29.2642 -29.2633 -29.2586 -29.2580 -29.2432 -29.2423
   -29.1975 -29.1939 -29.1711 -29.1667 -28.9323 -28.9303 -28.8919 -28.8894
   -13.4349 -13.4333 -13.2146 -13.2098 -13.2038 -13.2013 -13.1600 -13.1578
   -13.1125 -13.1092 -13.0055 -12.9661 -12.7562 -12.7531 -12.7322 -12.7272
   -12.6614 -12.6594 -12.6542 -12.6495 -12.6080 -12.5995 -12.1546 -12.1529
    -1.2355  -1.2238  -1.2178  -1.1552  -1.0858  -1.0394  -0.9207  -0.9185
    -0.9178  -0.8584  -0.6933  -0.4895  -0.4744  -0.4424  -0.3190  -0.3070
    -0.2719  -0.2713  -0.2654  -0.1914  -0.0664  -0.0661  -0.0627  -0.0597
     0.0967   0.1271   0.3816   0.4364   0.4449   0.5730   0.6567   0.7316
     0.7422   0.7449   0.8094   0.9984   1.0152   1.0244   1.0270   1.0583
     1.1244   1.1418   1.1510   1.2074   1.3686   1.3877   1.6036   1.7041
     1.7143   1.7608   1.8011   1.8875   1.9882   2.0385   2.1329   2.1617
     2.1831   2.2011   2.2267   2.2888   2.3124   2.3162   2.3230   2.4048
     2.4510   2.5057   2.5134   2.5566   2.5566   2.8002   2.8548   2.8923
     5.8798   5.8912   5.9531   6.0133   6.0932   6.2238   6.2309   6.3038
     6.4711   6.5482   6.7461   6.7472   6.7831   6.8793   6.9025   6.9587
     7.0007   7.0026   7.0122   7.0292   7.0963   7.1020   7.2452   7.2487
     7.2645   7.4202   7.5621   7.5714   7.5872

     the Fermi energy is     4.6693 ev

!    total energy              =   -2155.90220475 Ry
     estimated scf accuracy    <       0.00000056 Ry
     smearing contrib. (-TS)   =      -0.00000000 Ry
     internal energy E=F+TS    =   -2155.90220475 Ry

     The total energy is F=E-TS. E is the sum of the following terms:
     one-electron contribution =  -14879.72182837 Ry
     hartree contribution      =    7518.50397708 Ry
     xc contribution           =    -340.13322756 Ry
     ewald contribution        =    5545.44887410 Ry

     convergence has been achieved in   5 iterations

     Forces acting on atoms (cartesian axes, Ry/au):

     atom    1 type  1   force =     0.00000000    0.00000000   -0.00024611
     atom    2 type  1   force =     0.00000000    0.00000000    0.00049383
     atom    3 type  1   force =     0.00000000    0.00000000    0.00028735
     atom    4 type  1   force =     0.00000000    0.00000000    0.00015205
     atom    5 type  1   force =     0.00000000    0.00000000    0.00030733
     atom    6 type  1   force =     0.00000000    0.00000000   -0.00020103
     atom    7 type  1   force =     0.00000000    0.00000000   -0.00043101
     atom    8 type  1   force =     0.00000000    0.00000000    0.00003206
     atom    9 type  1   force =     0.00000000    0.00000000   -0.00070486
     atom   10 type  1   force =     0.00000000    0.00000000   -0.00009995
     atom   11 type  1   force =     0.00000000    0.00000000   -0.00006278
     atom   12 type  1   force =     0.00000000    0.00000000   -0.00030596
     atom   13 type  2   force =     0.00000000    0.00000000    0.00082757
     atom   14 type  2   force =     0.00000000    0.00000000    0.00007613
     atom   15 type  2   force =     0.00000000    0.00000000    0.00012960
     atom   16 type  2   force =     0.00033602    0.00000000   -0.00106111
     atom   17 type  2   force =    -0.00033602    0.00000000   -0.00106111
     atom   18 type  2   force =     0.00000000    0.00000000   -0.00024634
     atom   19 type  2   force =     0.00000000    0.00000000    0.00025183
     atom   20 type  2   force =     0.00003070    0.00000000    0.00081191
     atom   21 type  2   force =    -0.00003070    0.00000000    0.00081191
     atom   22 type  2   force =     0.00000000    0.00000000    0.00030563
     atom   23 type  2   force =     0.00000000    0.00000000   -0.00048840
     atom   24 type  2   force =    -0.00006563    0.00000000    0.00045079
     atom   25 type  2   force =     0.00006563    0.00000000    0.00045079
     atom   26 type  2   force =     0.00000000    0.00000000   -0.00070513
     atom   27 type  2   force =     0.00000000    0.00000000    0.00037733
     atom   28 type  2   force =    -0.00013673    0.00000000   -0.00023227
     atom   29 type  2   force =     0.00013673    0.00000000   -0.00023227
     atom   30 type  2   force =     0.00000000    0.00000000   -0.00043042
     atom   31 type  2   force =     0.00000000    0.00000000    0.00003566
     atom   32 type  2   force =    -0.00017973    0.00000000    0.00033170
     atom   33 type  2   force =     0.00017973    0.00000000    0.00033170
     atom   34 type  2   force =     0.00000000    0.00000000   -0.00022438
     atom   35 type  2   force =     0.00008991    0.00000000    0.00013398
     atom   36 type  2   force =    -0.00008991    0.00000000    0.00013398

     Total force =     0.002841     Total SCF correction =     0.003859
     SCF correction compared to forces is large: reduce conv_thr to get better values


     Computing stress (Cartesian axis) and pressure

          total   stress  (Ry/bohr**3)                   (kbar)     P=        0.10
   0.00000052   0.00000000   0.00000000            0.08        0.00        0.00
   0.00000000  -0.00000076   0.00000000            0.00       -0.11        0.00
   0.00000000   0.00000000   0.00000222            0.00        0.00        0.33

     Energy error            =      1.2E-05 Ry
     Gradient error          =      1.1E-03 Ry/Bohr
     Cell gradient error     =      1.1E-01 kbar

     number of scf cycles    =   2
     number of bfgs steps    =   1

     enthalpy           old  =   -2155.9021930284 Ry
     enthalpy           new  =   -2155.9022047509 Ry

     CASE: enthalpy          _new < enthalpy          _old

     new trust radius        =       0.0014433872 bohr
     new conv_thr            =       0.0000000100 Ry

     new unit-cell volume =   3825.91283 a.u.^3 (   566.94179 Ang^3 )
     density =      2.80704 g/cm^3

CELL_PARAMETERS (angstrom)
   6.517113099   0.000000000   0.000000000
   0.000000000   2.965483676   0.000000000
   0.000000000   0.000000000  29.335106809

ATOMIC_POSITIONS (angstrom)
Ti            3.2585563555        0.0000000000        6.5701744546
Ti            0.0000000000        1.4827417502        6.0669566217
Ti            0.0000000000        0.0000000000        9.4057785262
Ti            3.2585563555        1.4827417502        9.8138931602
Ti            3.2585563555        0.0000000000       13.2033650448
Ti            0.0000000000        1.4827417502       12.8612244439
Ti            0.0000000000        0.0000000000       16.1347698369
Ti            3.2585563555        1.4827417502       16.4764873570
Ti            3.2585563555        0.0000000000       19.9298329203
Ti            0.0000000000        1.4827417502       19.5254139343
Ti            0.0000000000        0.0000000000       22.7713241396
Ti            3.2585563555        1.4827417502       23.2696965062
O             0.0000000000        0.0000000000        5.0013248561
O             3.2585563555        0.0000000000        8.3678413126
O             0.0000000000        0.0000000000        7.5851500723
O             2.0296199326        1.4827417502        6.2035884028
O             4.4874929730        1.4827417502        6.2035884028
O             0.0000000000        0.0000000000       11.7011727177
O             3.2585563555        0.0000000000       10.9575509565
O             5.2334871733        1.4827418384        9.6257665976
O             1.2836259258        1.4827418384        9.6257665976
O             3.2585563555        0.0000000000       15.0551705178
O             0.0000000000        0.0000000000       14.2828830186
O             1.9901673155        1.4827417502       13.0084872279
O             4.5269455901        1.4827417502       13.0084872279
O             0.0000000000        0.0000000000       18.3820621658
O             3.2585563555        0.0000000000       17.6360211566
O             5.2488192899        1.4827418384       16.3292645771
O             1.2682938092        1.4827418384       16.3292645771
O             3.2585563555        0.0000000000       21.7509245809
O             0.0000000000        0.0000000000       20.9728366667
O             1.9754348012        1.4827417502       19.7077679006
O             4.5416781044        1.4827417502       19.7077679006
O             3.2585563555        0.0000000000       24.3347727014
O             5.2886041680        1.4827418384       23.1384375363
O             1.2285089312        1.4827418384       23.1384375363



     Writing config-only to output data dir ./Out/pwscf.save/
     NEW-OLD atomic charge density approx. for the potential

     negative rho (up, down):  1.353E-07 0.000E+00
     extrapolated charge  287.99660, renormalised to  288.00000

     total cpu time spent up to now is      207.3 secs

     per-process dynamical memory:   238.8 Mb

     Self-consistent Calculation

     iteration #  1     ecut=   120.00 Ry     beta= 0.40
     Davidson diagonalization with overlap
     ethr =  1.00E-06,  avg # of iterations =  2.4

     Threshold (ethr) on eigenvalues was too large:
     Diagonalizing with lowered threshold

     Davidson diagonalization with overlap
     ethr =  1.45E-09,  avg # of iterations =  5.1

     negative rho (up, down):  3.336E-08 0.000E+00

     total cpu time spent up to now is      221.9 secs

     total energy              =   -2155.90220955 Ry
     estimated scf accuracy    <       0.00000786 Ry

     iteration #  2     ecut=   120.00 Ry     beta= 0.40
     Davidson diagonalization with overlap
     ethr =  2.73E-09,  avg # of iterations =  5.6

     negative rho (up, down):  2.314E-08 0.000E+00

     total cpu time spent up to now is      229.8 secs

     total energy              =   -2155.90221243 Ry
     estimated scf accuracy    <       0.00004430 Ry

     iteration #  3     ecut=   120.00 Ry     beta= 0.40
     Davidson diagonalization with overlap
     ethr =  2.73E-09,  avg # of iterations =  4.6

     total cpu time spent up to now is      236.0 secs

     total energy              =   -2155.90221381 Ry
     estimated scf accuracy    <       0.00000575 Ry

     iteration #  4     ecut=   120.00 Ry     beta= 0.40
     Davidson diagonalization with overlap
     ethr =  2.00E-09,  avg # of iterations =  5.0

     total cpu time spent up to now is      242.0 secs

     total energy              =   -2155.90221417 Ry
     estimated scf accuracy    <       0.00000103 Ry

     iteration #  5     ecut=   120.00 Ry     beta= 0.40
     Davidson diagonalization with overlap
     ethr =  3.57E-10,  avg # of iterations =  5.5

     total cpu time spent up to now is      249.4 secs

     total energy              =   -2155.90221447 Ry
     estimated scf accuracy    <       0.00000027 Ry

     iteration #  6     ecut=   120.00 Ry     beta= 0.40
     Davidson diagonalization with overlap
     ethr =  9.41E-11,  avg # of iterations =  2.6

     total cpu time spent up to now is      254.8 secs

     total energy              =   -2155.90221448 Ry
     estimated scf accuracy    <       0.00000005 Ry

     iteration #  7     ecut=   120.00 Ry     beta= 0.40
     Davidson diagonalization with overlap
     ethr =  1.66E-11,  avg # of iterations =  5.5

     total cpu time spent up to now is      261.8 secs

     total energy              =   -2155.90221449 Ry
     estimated scf accuracy    <       0.00000002 Ry

     iteration #  8     ecut=   120.00 Ry     beta= 0.40
     Davidson diagonalization with overlap
     ethr =  5.66E-12,  avg # of iterations =  5.0

     total cpu time spent up to now is      268.0 secs

     End of self-consistent calculation

          k = 0.0000 0.0000 0.0000 ( 84925 PWs)   bands (ev):

   -53.3078 -53.3065 -53.1637 -53.1621 -53.0940 -53.0900 -53.0858 -53.0820
   -53.0031 -53.0022 -52.7050 -52.7045 -29.6252 -29.6238 -29.5127 -29.5118
   -29.5015 -29.5011 -29.4254 -29.4238 -29.4178 -29.4158 -29.4057 -29.3993
   -29.3970 -29.3889 -29.3069 -29.3016 -29.2476 -29.2448 -29.2434 -29.2433
   -29.2428 -29.2425 -29.2357 -29.2343 -29.1933 -29.1854 -29.1770 -29.1693
   -29.1118 -29.1111 -28.9883 -28.9875 -28.9585 -28.9581 -28.7677 -28.7672
   -14.3009 -14.2285 -14.0236 -13.8726 -13.7946 -13.7353 -13.6317 -13.5682
   -13.3295 -13.1910 -13.0402 -13.0390 -12.9769 -12.9741 -12.6476 -12.6110
   -12.6025 -12.5962 -12.5796 -12.5632 -12.5493 -12.5203 -12.2573 -12.2556
    -1.8584  -1.7722  -1.6846  -1.6732  -1.6513  -1.6493  -1.5718  -1.5077
    -1.2066  -1.1834  -0.9063  -0.7254  -0.4752  -0.4261  -0.4229  -0.2929
    -0.2879   0.0301   0.0408   0.0648   0.0648   0.0834   0.1046   0.1069
     0.1599   0.1610   0.3540   0.3559   0.4618   0.5322   0.6096   0.9040
     0.9839   1.0710   1.1120   1.2239   1.2435   1.2470   1.3106   1.3170
     1.4574   1.5165   1.5988   1.6216   1.7091   1.7106   1.8528   1.9782
     2.0011   2.0123   2.0468   2.0794   2.1110   2.1249   2.3744   2.3950
     2.4025   2.4131   2.6540   2.6597   2.6822   2.6827   2.7060   2.7129
     2.7375   2.7416   3.1444   3.1813   3.2123   3.3665   3.5166   3.6513
     5.7157   5.7251   5.7648   5.8087   5.8340   5.8350   6.1250   6.1611
     6.1679   6.1692   6.3433   6.3558   6.3593   6.4119   6.4304   6.4828
     6.6535   6.6540   6.6655   6.6757   6.7913   6.9199   6.9740   7.0803
     7.1269   7.2698   7.3513   7.4070   7.5181

          k = 0.0000 0.3663 0.0000 ( 84963 PWs)   bands (ev):

   -53.2978 -53.2965 -53.1540 -53.1524 -53.0834 -53.0800 -53.0762 -53.0730
   -52.9935 -52.9927 -52.6946 -52.6941 -29.6013 -29.6000 -29.5520 -29.5509
   -29.4981 -29.4970 -29.4814 -29.4814 -29.3916 -29.3896 -29.3773 -29.3730
   -29.3716 -29.3654 -29.3465 -29.3451 -29.3256 -29.3237 -29.2960 -29.2885
   -29.2672 -29.2661 -29.2421 -29.2389 -29.2368 -29.2362 -29.2262 -29.2253
   -29.2170 -29.2164 -28.9802 -28.9794 -28.9522 -28.9518 -28.8786 -28.8780
   -14.0395 -13.9780 -13.7939 -13.6563 -13.5798 -13.5252 -13.4320 -13.3824
   -13.1847 -13.0809 -13.0318 -13.0227 -12.8558 -12.8535 -12.7372 -12.7129
   -12.7020 -12.6922 -12.6850 -12.6656 -12.6530 -12.6322 -12.3192 -12.3178
    -1.4977  -1.4421  -1.3860  -1.3709  -1.3323  -1.3303  -1.2923  -1.2255
    -0.9325  -0.9111  -0.6783  -0.6456  -0.6083  -0.5908  -0.4930  -0.4771
    -0.4722  -0.4317  -0.3966  -0.2916  -0.2889  -0.2085  -0.1745  -0.1134
     0.1044   0.2496   0.3248   0.6783   0.6845   0.7690   0.8866   1.0133
     1.1491   1.1937   1.1964   1.2965   1.3034   1.3678   1.4502   1.4681
     1.4930   1.5438   1.6416   1.6621   1.6820   1.7153   1.7360   1.7609
     1.7858   1.7981   1.8126   1.8216   1.9028   1.9161   2.0310   2.1192
     2.1425   2.2554   2.3194   2.3454   2.3753   2.4307   2.4643   2.5065
     2.6953   2.7108   2.7382   2.7554   2.7571   3.2896   3.3707   3.4846
     5.8278   5.8288   5.9652   6.0534   6.0646   6.0665   6.0910   6.0913
     6.1407   6.2074   6.2473   6.4687   6.4867   6.5198   6.5470   6.6076
     6.8223   6.8697   6.9018   6.9352   7.0445   7.0700   7.0996   7.1317
     7.2210   7.2485   7.2541   7.2942   7.5316

          k = 0.0000 0.7325 0.0000 ( 84944 PWs)   bands (ev):

   -53.2777 -53.2764 -53.1344 -53.1328 -53.0616 -53.0596 -53.0572 -53.0554
   -52.9743 -52.9735 -52.6737 -52.6732 -29.7751 -29.7735 -29.5699 -29.5684
   -29.5394 -29.5383 -29.5265 -29.5248 -29.5109 -29.5091 -29.4722 -29.4721
   -29.4698 -29.4687 -29.4320 -29.4313 -29.3379 -29.3359 -29.3228 -29.3175
   -29.3145 -29.3109 -29.2685 -29.2660 -29.2361 -29.2347 -29.2200 -29.2195
   -29.1889 -29.1879 -29.1415 -29.1406 -28.9403 -28.9398 -28.9099 -28.9091
   -13.4546 -13.4438 -13.4179 -13.3590 -13.1544 -13.1401 -13.1388 -13.0568
   -13.0413 -13.0408 -12.9231 -12.9085 -12.9041 -12.9032 -12.8941 -12.8753
   -12.8594 -12.8522 -12.7891 -12.7667 -12.6252 -12.6226 -12.3023 -12.3012
    -0.9527  -0.8978  -0.8873  -0.8695  -0.8614  -0.8521  -0.8056  -0.7705
    -0.7160  -0.7126  -0.6379  -0.6232  -0.6043  -0.5899  -0.5459  -0.5390
    -0.4703  -0.4574  -0.4504  -0.3746  -0.3387  -0.2990  -0.2695  -0.0887
     0.0664   0.2519   0.2644   0.3254   0.3772   0.4277   0.4641   0.5103
     0.5166   0.5404   0.7165   0.7614   0.7755   1.0914   1.1431   1.2739
     1.3312   1.3743   1.4116   1.5903   1.6218   1.6259   1.6826   1.7055
     1.7301   1.7804   1.8043   1.8516   1.9180   2.0416   2.0618   2.0660
     2.0672   2.2624   2.3160   2.3203   2.3234   2.3898   2.3995   2.4037
     2.6120   2.6221   2.6351   2.6579   2.7444   2.7984   2.8475   2.9232
     6.1374   6.1747   6.1861   6.1905   6.2635   6.3146   6.4293   6.4554
     6.4943   6.5226   6.6332   6.6433   6.6485   6.6709   6.7594   6.7737
     6.8103   6.8417   6.8430   6.9665   7.0281   7.1209   7.2553   7.2914
     7.3168   7.3491   7.3657   7.3689   7.3919

          k = 0.0000-1.0988 0.0000 ( 84900 PWs)   bands (ev):

   -53.2676 -53.2663 -53.1246 -53.1230 -53.0496 -53.0490 -53.0480 -53.0477
   -52.9647 -52.9638 -52.6632 -52.6627 -29.8833 -29.8816 -29.6739 -29.6723
   -29.6318 -29.6312 -29.6188 -29.6175 -29.5358 -29.5351 -29.4952 -29.4939
   -29.4822 -29.4816 -29.4563 -29.4551 -29.3103 -29.3083 -29.2982 -29.2955
   -29.2715 -29.2709 -29.2707 -29.2701 -29.2579 -29.2576 -29.2441 -29.2424
   -29.1957 -29.1952 -29.1694 -29.1683 -28.9347 -28.9342 -28.8911 -28.8903
   -13.4370 -13.4330 -13.1186 -13.1128 -13.0310 -13.0238 -13.0052 -12.9974
   -12.9834 -12.9626 -12.9589 -12.9452 -12.9384 -12.9367 -12.9081 -12.8910
   -12.8655 -12.8374 -12.7293 -12.7220 -12.6098 -12.5932 -12.1559 -12.1548
    -1.3014  -1.2010  -0.9547  -0.8945  -0.8770  -0.8318  -0.7825  -0.7561
    -0.7007  -0.6235  -0.6057  -0.5678  -0.4631  -0.4526  -0.4422  -0.4348
    -0.4293  -0.3424  -0.2945  -0.2763  -0.2724  -0.2387  -0.1518  -0.0740
    -0.0507   0.0882   0.1737   0.1994   0.3464   0.3569   0.3696   0.3756
     0.7287   0.8150   0.9586   0.9623   1.0056   1.0069   1.0400   1.0558
     1.0621   1.1480   1.2021   1.3235   1.3294   1.4027   1.4228   1.4616
     1.6275   1.7213   1.7797   1.8116   1.8741   1.9988   2.0812   2.1442
     2.1682   2.2140   2.3346   2.4216   2.5085   2.5103   2.5226   2.5371
     2.5373   2.5428   2.5602   2.5812   2.6761   2.7116   2.7337   2.8760
     5.8912   6.1750   6.4095   6.4187   6.4393   6.6137   6.6772   6.6784
     6.6933   6.7354   6.7731   6.7773   6.8761   6.8782   6.8807   6.9793
     6.9972   7.0327   7.0359   7.0398   7.0628   7.1042   7.1060   7.1608
     7.1716   7.2283   7.2284   7.2522   7.3576

          k = 0.3333 0.0000 0.0000 ( 84927 PWs)   bands (ev):

   -53.3078 -53.3064 -53.1637 -53.1621 -53.0921 -53.0890 -53.0868 -53.0838
   -53.0031 -53.0023 -52.7050 -52.7045 -29.6254 -29.6240 -29.5018 -29.5014
   -29.4970 -29.4959 -29.4252 -29.4237 -29.4104 -29.4084 -29.3967 -29.3917
   -29.3702 -29.3629 -29.3060 -29.3054 -29.2813 -29.2784 -29.2613 -29.2603
   -29.2428 -29.2423 -29.2356 -29.2342 -29.1895 -29.1833 -29.1791 -29.1731
   -29.1119 -29.1113 -28.9882 -28.9874 -28.9667 -28.9663 -28.7678 -28.7672
   -14.1527 -14.0994 -13.8664 -13.7349 -13.6985 -13.6581 -13.5943 -13.5487
   -13.4317 -13.2752 -13.1703 -13.1673 -12.9697 -12.9654 -12.7255 -12.7213
   -12.6900 -12.6633 -12.6423 -12.6307 -12.6118 -12.5868 -12.2535 -12.2522
    -1.6899  -1.6457  -1.3714  -1.2951  -1.2514  -1.2484  -1.2404  -1.2262
    -1.1524  -1.1355  -0.5621  -0.4611  -0.4298  -0.3363  -0.2949  -0.2899
    -0.1424   0.0388   0.0477   0.1157   0.1318   0.1630   0.1653   0.2275
     0.2295   0.2304   0.2386   0.3335   0.3544   0.3564   0.4521   0.6087
     0.7061   0.7833   0.8922   0.9190   1.0257   1.0367   1.1156   1.2511
     1.2966   1.3580   1.4109   1.5916   1.6504   1.6553   1.6662   1.8251
     1.9428   1.9452   2.0147   2.0639   2.0861   2.1290   2.1353   2.1641
     2.2296   2.2907   2.4416   2.4599   2.5264   2.5946   2.5983   2.6044
     2.6519   2.6779   2.7811   2.7884   2.8370   3.1796   3.2724   3.3947
     6.0696   6.0808   6.1490   6.1737   6.2061   6.2221   6.2514   6.2523
     6.4001   6.4225   6.4289   6.4304   6.5058   6.5117   6.6237   6.6318
     6.7032   6.7544   6.8948   6.9044   6.9631   7.1133   7.1199   7.2954
     7.3059   7.3168   7.3419   7.3745   7.3892

          k = 0.3333 0.3663 0.0000 ( 84879 PWs)   bands (ev):

   -53.2978 -53.2964 -53.1540 -53.1524 -53.0817 -53.0791 -53.0771 -53.0746
   -52.9935 -52.9927 -52.6946 -52.6941 -29.6013 -29.6000 -29.5523 -29.5512
   -29.4890 -29.4879 -29.4817 -29.4817 -29.3859 -29.3839 -29.3722 -29.3677
   -29.3514 -29.3483 -29.3477 -29.3462 -29.3258 -29.3197 -29.3032 -29.2993
   -29.2681 -29.2677 -29.2570 -29.2562 -29.2399 -29.2390 -29.2344 -29.2339
   -29.2151 -29.2145 -28.9803 -28.9794 -28.9571 -28.9566 -28.8784 -28.8778
   -13.9120 -13.8687 -13.6579 -13.5217 -13.5040 -13.4585 -13.3948 -13.3613
   -13.2624 -13.1381 -13.0361 -13.0261 -13.0052 -13.0041 -12.8186 -12.8113
   -12.7739 -12.7578 -12.7270 -12.7008 -12.6671 -12.6617 -12.3147 -12.3135
    -1.3704  -1.3453  -1.0612  -1.0107  -0.9605  -0.9495  -0.9273  -0.9179
    -0.8524  -0.8451  -0.6519  -0.6467  -0.5123  -0.4978  -0.4570  -0.4534
    -0.3687  -0.3659  -0.2792  -0.1860  -0.1480  -0.1377  -0.0049   0.0263
     0.1303   0.2423   0.4107   0.6103   0.6813   0.7297   0.8052   0.8456
     0.8759   0.9161   0.9566   1.0403   1.0489   1.0653   1.1110   1.1655
     1.2703   1.3513   1.3601   1.4370   1.4938   1.4947   1.5097   1.5308
     1.5619   1.6405   1.6717   1.6927   1.7298   1.7851   1.8381   1.8621
     1.9580   2.0855   2.1682   2.2774   2.5065   2.5101   2.6787   2.6802
     2.7750   2.7955   2.8169   2.8443   2.9046   3.1537   3.2165   3.3050
     5.9360   5.9373   6.1177   6.1224   6.1807   6.2219   6.2622   6.3651
     6.3946   6.4107   6.4680   6.4722   6.5362   6.5394   6.6337   6.6965
     6.8729   6.8976   7.0189   7.0611   7.0993   7.1015   7.2141   7.2841
     7.3645   7.3880   7.4391   7.4891   7.5214

          k = 0.3333 0.7325 0.0000 ( 84900 PWs)   bands (ev):

   -53.2777 -53.2764 -53.1344 -53.1328 -53.0607 -53.0592 -53.0576 -53.0563
   -52.9743 -52.9735 -52.6737 -52.6732 -29.7755 -29.7739 -29.5724 -29.5709
   -29.5399 -29.5389 -29.5273 -29.5255 -29.5184 -29.5164 -29.4954 -29.4949
   -29.4722 -29.4720 -29.4019 -29.4018 -29.3368 -29.3348 -29.3220 -29.3190
   -29.2902 -29.2868 -29.2678 -29.2670 -29.2508 -29.2491 -29.2197 -29.2193
   -29.1924 -29.1913 -29.1406 -29.1398 -28.9397 -28.9392 -28.9099 -28.9091
   -13.4232 -13.4196 -13.3817 -13.3353 -13.1872 -13.1840 -13.1359 -13.1341
   -13.0762 -13.0451 -12.9951 -12.9821 -12.9156 -12.9122 -12.8815 -12.8735
   -12.8113 -12.7981 -12.7457 -12.7303 -12.6206 -12.6191 -12.3023 -12.3012
    -0.9128  -0.8972  -0.8666  -0.8578  -0.7643  -0.7600  -0.7474  -0.7251
    -0.6749  -0.6187  -0.5590  -0.5543  -0.5150  -0.5133  -0.4685  -0.4408
    -0.4184  -0.3699  -0.3403  -0.3150  -0.3114  -0.2497  -0.1895  -0.1822
     0.0320   0.1106   0.2520   0.2903   0.3294   0.3355   0.4433   0.4662
     0.6653   0.6836   0.7913   0.8213   0.8933   1.0172   1.0957   1.1843
     1.2533   1.2699   1.3682   1.3764   1.4647   1.4935   1.5228   1.5404
     1.5751   1.6041   1.7141   1.7617   1.7895   1.9098   2.0249   2.0299
     2.0735   2.1252   2.2829   2.3013   2.3428   2.3887   2.4573   2.4806
     2.5432   2.6143   2.7443   2.8076   2.8808   2.9264   2.9433   2.9635
     5.9054   5.9285   5.9662   6.0349   6.0519   6.1029   6.3521   6.4602
     6.4696   6.5328   6.6340   6.6734   6.7064   6.7472   6.8287   6.8550
     6.8804   6.9198   6.9317   6.9565   7.0807   7.1492   7.2280   7.2514
     7.3241   7.3266   7.4575   7.4972   7.5862

          k = 0.3333-1.0988 0.0000 ( 85048 PWs)   bands (ev):

   -53.2676 -53.2663 -53.1246 -53.1230 -53.0496 -53.0490 -53.0480 -53.0477
   -52.9647 -52.9638 -52.6632 -52.6627 -29.8837 -29.8820 -29.6766 -29.6750
   -29.6325 -29.6321 -29.6253 -29.6246 -29.5584 -29.5579 -29.4962 -29.4948
   -29.4822 -29.4816 -29.4318 -29.4309 -29.3161 -29.3142 -29.2976 -29.2962
   -29.2653 -29.2644 -29.2641 -29.2635 -29.2578 -29.2573 -29.2428 -29.2419
   -29.1955 -29.1949 -29.1689 -29.1678 -28.9314 -28.9309 -28.8912 -28.8904
   -13.4353 -13.4315 -13.2142 -13.2093 -13.2025 -13.2022 -13.1596 -13.1580
   -13.1124 -13.1089 -13.0046 -12.9653 -12.7558 -12.7540 -12.7318 -12.7279
   -12.6605 -12.6592 -12.6539 -12.6491 -12.6078 -12.5995 -12.1559 -12.1548
    -1.2351  -1.2232  -1.2172  -1.1546  -1.0854  -1.0390  -0.9202  -0.9185
    -0.9184  -0.8582  -0.6932  -0.4892  -0.4738  -0.4424  -0.3189  -0.3067
    -0.2718  -0.2712  -0.2650  -0.1913  -0.0661  -0.0658  -0.0633  -0.0595
     0.0968   0.1275   0.3818   0.4368   0.4448   0.5733   0.6568   0.7311
     0.7422   0.7450   0.8090   0.9987   1.0154   1.0243   1.0275   1.0583
     1.1250   1.1413   1.1514   1.2073   1.3688   1.3879   1.6040   1.7040
     1.7143   1.7607   1.8016   1.8886   1.9886   2.0389   2.1336   2.1620
     2.1832   2.2006   2.2265   2.2893   2.3128   2.3152   2.3220   2.4049
     2.4514   2.5062   2.5137   2.5549   2.5551   2.8002   2.8547   2.8926
     5.8802   5.8915   5.9535   6.0135   6.0938   6.2242   6.2309   6.3040
     6.4711   6.5487   6.7467   6.7482   6.7832   6.8796   6.9027   6.9591
     7.0017   7.0036   7.0130   7.0299   7.0984   7.1015   7.2460   7.2474
     7.2649   7.4204   7.5624   7.5718   7.5872

     the Fermi energy is     4.6698 ev

!    total energy              =   -2155.90221449 Ry
     estimated scf accuracy    <          3.6E-09 Ry
     smearing contrib. (-TS)   =      -0.00000000 Ry
     internal energy E=F+TS    =   -2155.90221449 Ry

     The total energy is F=E-TS. E is the sum of the following terms:
     one-electron contribution =  -14880.41732388 Ry
     hartree contribution      =    7518.83040551 Ry
     xc contribution           =    -340.13378870 Ry
     ewald contribution        =    5545.81849257 Ry

     convergence has been achieved in   8 iterations

     Forces acting on atoms (cartesian axes, Ry/au):

     atom    1 type  1   force =     0.00000000    0.00000000   -0.00040974
     atom    2 type  1   force =     0.00000000    0.00000000    0.00059416
     atom    3 type  1   force =     0.00000000    0.00000000    0.00045688
     atom    4 type  1   force =     0.00000000    0.00000000    0.00025587
     atom    5 type  1   force =     0.00000000    0.00000000    0.00031641
     atom    6 type  1   force =     0.00000000    0.00000000   -0.00013510
     atom    7 type  1   force =     0.00000000    0.00000000   -0.00036257
     atom    8 type  1   force =     0.00000000    0.00000000    0.00009591
     atom    9 type  1   force =     0.00000000    0.00000000   -0.00065117
     atom   10 type  1   force =     0.00000000    0.00000000   -0.00032897
     atom   11 type  1   force =     0.00000000    0.00000000   -0.00011601
     atom   12 type  1   force =     0.00000000    0.00000000   -0.00052585
     atom   13 type  2   force =     0.00000000    0.00000000    0.00054843
     atom   14 type  2   force =     0.00000000    0.00000000    0.00012772
     atom   15 type  2   force =     0.00000000    0.00000000    0.00021369
     atom   16 type  2   force =     0.00016937    0.00000000   -0.00087142
     atom   17 type  2   force =    -0.00016937    0.00000000   -0.00087142
     atom   18 type  2   force =     0.00000000    0.00000000   -0.00030803
     atom   19 type  2   force =     0.00000000    0.00000000    0.00015474
     atom   20 type  2   force =     0.00003011    0.00000000    0.00068293
     atom   21 type  2   force =    -0.00003011    0.00000000    0.00068293
     atom   22 type  2   force =     0.00000000    0.00000000    0.00025468
     atom   23 type  2   force =     0.00000000    0.00000000   -0.00031464
     atom   24 type  2   force =     0.00003609    0.00000000    0.00040155
     atom   25 type  2   force =    -0.00003609    0.00000000    0.00040155
     atom   26 type  2   force =     0.00000000    0.00000000   -0.00039130
     atom   27 type  2   force =     0.00000000    0.00000000    0.00031376
     atom   28 type  2   force =    -0.00000248    0.00000000   -0.00028300
     atom   29 type  2   force =     0.00000248    0.00000000   -0.00028300
     atom   30 type  2   force =     0.00000000    0.00000000   -0.00012051
     atom   31 type  2   force =     0.00000000    0.00000000   -0.00002712
     atom   32 type  2   force =    -0.00017020    0.00000000    0.00021144
     atom   33 type  2   force =     0.00017020    0.00000000    0.00021144
     atom   34 type  2   force =     0.00000000    0.00000000   -0.00018209
     atom   35 type  2   force =    -0.00003679    0.00000000    0.00012892
     atom   36 type  2   force =     0.00003679    0.00000000    0.00012892

     Total force =     0.002450     Total SCF correction =     0.000339
     SCF correction compared to forces is large: reduce conv_thr to get better values


     Computing stress (Cartesian axis) and pressure

          total   stress  (Ry/bohr**3)                   (kbar)     P=        0.13
   0.00000049   0.00000000   0.00000000            0.07        0.00        0.00
   0.00000000  -0.00000020   0.00000000            0.00       -0.03        0.00
   0.00000000   0.00000000   0.00000234            0.00        0.00        0.34

     Energy error            =      9.7E-06 Ry
     Gradient error          =      8.7E-04 Ry/Bohr
     Cell gradient error     =      7.2E-02 kbar

     bfgs converged in   3 scf cycles and   2 bfgs steps
     (criteria: energy <  1.0E-04 Ry, force <  1.0E-03 Ry/Bohr, cell <  5.0E-01 kbar)

     End of BFGS Geometry Optimization

     Final enthalpy           =   -2155.9022144948 Ry

     File ./Out/pwscf.bfgs deleted, as requested
Begin final coordinates
     new unit-cell volume =   3825.91283 a.u.^3 (   566.94179 Ang^3 )
     density =      2.80704 g/cm^3

CELL_PARAMETERS (angstrom)
   6.517113099   0.000000000   0.000000000
   0.000000000   2.965483676   0.000000000
   0.000000000   0.000000000  29.335106809

ATOMIC_POSITIONS (angstrom)
Ti            3.2585563555        0.0000000000        6.5701744546
Ti            0.0000000000        1.4827417502        6.0669566217
Ti            0.0000000000        0.0000000000        9.4057785262
Ti            3.2585563555        1.4827417502        9.8138931602
Ti            3.2585563555        0.0000000000       13.2033650448
Ti            0.0000000000        1.4827417502       12.8612244439
Ti            0.0000000000        0.0000000000       16.1347698369
Ti            3.2585563555        1.4827417502       16.4764873570
Ti            3.2585563555        0.0000000000       19.9298329203
Ti            0.0000000000        1.4827417502       19.5254139343
Ti            0.0000000000        0.0000000000       22.7713241396
Ti            3.2585563555        1.4827417502       23.2696965062
O             0.0000000000        0.0000000000        5.0013248561
O             3.2585563555        0.0000000000        8.3678413126
O             0.0000000000        0.0000000000        7.5851500723
O             2.0296199326        1.4827417502        6.2035884028
O             4.4874929730        1.4827417502        6.2035884028
O             0.0000000000        0.0000000000       11.7011727177
O             3.2585563555        0.0000000000       10.9575509565
O             5.2334871733        1.4827418384        9.6257665976
O             1.2836259258        1.4827418384        9.6257665976
O             3.2585563555        0.0000000000       15.0551705178
O             0.0000000000        0.0000000000       14.2828830186
O             1.9901673155        1.4827417502       13.0084872279
O             4.5269455901        1.4827417502       13.0084872279
O             0.0000000000        0.0000000000       18.3820621658
O             3.2585563555        0.0000000000       17.6360211566
O             5.2488192899        1.4827418384       16.3292645771
O             1.2682938092        1.4827418384       16.3292645771
O             3.2585563555        0.0000000000       21.7509245809
O             0.0000000000        0.0000000000       20.9728366667
O             1.9754348012        1.4827417502       19.7077679006
O             4.5416781044        1.4827417502       19.7077679006
O             3.2585563555        0.0000000000       24.3347727014
O             5.2886041680        1.4827418384       23.1384375363
O             1.2285089312        1.4827418384       23.1384375363
End final coordinates



     Writing config-only to output data dir ./Out/pwscf.save/

     Final scf calculation at the relaxed structure.
     The G-vectors are recalculated for the final unit cell
     Results may differ from those at the preceding step.
 
     Parallelization info
     --------------------
     sticks:   dense  smooth     PW     G-vecs:    dense   smooth      PW
     Min          73      73     20                18863    18863    2752
     Max          74      74     21                18881    18881    2781
     Sum        2639    2639    733               679485   679485   99367
 
     Using Slab Decomposition
 


     bravais-lattice index     =            0
     lattice parameter (alat)  =      12.3151  a.u.
     unit-cell volume          =    3825.9128 (a.u.)^3
     number of atoms/cell      =           36
     number of atomic types    =            2
     number of electrons       =       288.00
     number of Kohn-Sham states=          173
     kinetic-energy cutoff     =     120.0000  Ry
     charge density cutoff     =     480.0000  Ry
     scf convergence threshold =      1.0E-08
     mixing beta               =       0.4000
     number of iterations used =           20  plain     mixing
     press convergence thresh. =      5.0E-01
     Exchange-correlation= PBE
                           (   1   4   3   4   0   0   0)

     celldm(1)=  12.315136  celldm(2)=   0.000000  celldm(3)=   0.000000
     celldm(4)=   0.000000  celldm(5)=   0.000000  celldm(6)=   0.000000

     crystal axes: (cart. coord. in units of alat)
               a(1) = (   1.000034   0.000000   0.000000 )  
               a(2) = (   0.000000   0.455046   0.000000 )  
               a(3) = (   0.000000   0.000000   4.501397 )  

     reciprocal axes: (cart. coord. in units 2 pi/alat)
               b(1) = (  0.999966  0.000000  0.000000 )  
               b(2) = (  0.000000  2.197581  0.000000 )  
               b(3) = (  0.000000  0.000000  0.222153 )  


     PseudoPot. # 1 for Ti read from file:
     /cm/shared/apps/KO/pseudo/sg15/Ti_ONCV_PBE-1.2.upf
     MD5 check sum: 1aea57736bd12dcfee93c97d0b9b5968
     Pseudo is Norm-conserving, Zval = 12.0
     Generated using ONCVPSP code by D. R. Hamann
     Using radial grid of  602 points,  6 beta functions with: 
                l(1) =   0
                l(2) =   0
                l(3) =   1
                l(4) =   1
                l(5) =   2
                l(6) =   2

     PseudoPot. # 2 for O  read from file:
     /cm/shared/apps/KO/pseudo/sg15/O_ONCV_PBE-1.2.upf
     MD5 check sum: e36c48deb68f4e355fffe4602be2c42c
     Pseudo is Norm-conserving, Zval =  6.0
     Generated using ONCVPSP code by D. R. Hamann
     Using radial grid of  602 points,  4 beta functions with: 
                l(1) =   0
                l(2) =   0
                l(3) =   1
                l(4) =   1

     atomic species   valence    mass     pseudopotential
        Ti            12.00    47.86700     Ti( 1.00)
        O              6.00    15.99900     O ( 1.00)

      4 Sym. Ops. (no inversion) found



   Cartesian axes

     site n.     atom                  positions (alat units)
         1           Ti  tau(   1) = (   0.5000171   0.0000000   1.0081764  )
         2           Ti  tau(   2) = (   0.0000000   0.2275229   0.9309590  )
         3           Ti  tau(   3) = (   0.0000000   0.0000000   1.4432926  )
         4           Ti  tau(   4) = (   0.5000171   0.2275229   1.5059168  )
         5           Ti  tau(   5) = (   0.5000171   0.0000000   2.0260225  )
         6           Ti  tau(   6) = (   0.0000000   0.2275229   1.9735219  )
         7           Ti  tau(   7) = (   0.0000000   0.0000000   2.4758391  )
         8           Ti  tau(   8) = (   0.5000171   0.2275229   2.5282748  )
         9           Ti  tau(   9) = (   0.5000171   0.0000000   3.0581818  )
        10           Ti  tau(  10) = (   0.0000000   0.2275229   2.9961248  )
        11           Ti  tau(  11) = (   0.0000000   0.0000000   3.4942014  )
        12           Ti  tau(  12) = (   0.5000171   0.2275229   3.5706753  )
        13           O   tau(  13) = (   0.0000000   0.0000000   0.7674405  )
        14           O   tau(  14) = (   0.5000171   0.0000000   1.2840238  )
        15           O   tau(  15) = (   0.0000000   0.0000000   1.1639219  )
        16           O   tau(  16) = (   0.3114400   0.2275229   0.9519248  )
        17           O   tau(  17) = (   0.6885943   0.2275229   0.9519248  )
        18           O   tau(  18) = (   0.0000000   0.0000000   1.7955150  )
        19           O   tau(  19) = (   0.5000171   0.0000000   1.6814081  )
        20           O   tau(  20) = (   0.8030652   0.2275229   1.4770492  )
        21           O   tau(  21) = (   0.1969691   0.2275229   1.4770492  )
        22           O   tau(  22) = (   0.5000171   0.0000000   2.3101774  )
        23           O   tau(  23) = (   0.0000000   0.0000000   2.1916718  )
        24           O   tau(  24) = (   0.3053861   0.2275229   1.9961190  )
        25           O   tau(  25) = (   0.6946482   0.2275229   1.9961190  )
        26           O   tau(  26) = (   0.0000000   0.0000000   2.8206804  )
        27           O   tau(  27) = (   0.5000171   0.0000000   2.7062023  )
        28           O   tau(  28) = (   0.8054179   0.2275229   2.5056838  )
        29           O   tau(  29) = (   0.1946164   0.2275229   2.5056838  )
        30           O   tau(  30) = (   0.5000171   0.0000000   3.3376237  )
        31           O   tau(  31) = (   0.0000000   0.0000000   3.2182281  )
        32           O   tau(  32) = (   0.3031254   0.2275229   3.0241065  )
        33           O   tau(  33) = (   0.6969089   0.2275229   3.0241065  )
        34           O   tau(  34) = (   0.5000171   0.0000000   3.7341085  )
        35           O   tau(  35) = (   0.8115228   0.2275229   3.5505340  )
        36           O   tau(  36) = (   0.1885115   0.2275229   3.5505340  )

     number of k points=     8  Gaussian smearing, width (Ry)=  0.0200
                       cart. coord. in units 2pi/alat
        k(    1) = (   0.0000000   0.0000000   0.0000000), wk =   0.1111111
        k(    2) = (   0.0000000   0.3662634   0.0000000), wk =   0.2222222
        k(    3) = (   0.0000000   0.7325269   0.0000000), wk =   0.2222222
        k(    4) = (   0.0000000  -1.0987903   0.0000000), wk =   0.1111111
        k(    5) = (   0.3333219   0.0000000   0.0000000), wk =   0.2222222
        k(    6) = (   0.3333219   0.3662634   0.0000000), wk =   0.4444444
        k(    7) = (   0.3333219   0.7325269   0.0000000), wk =   0.4444444
        k(    8) = (   0.3333219  -1.0987903   0.0000000), wk =   0.2222222

     Dense  grid:   679485 G-vectors     FFT dimensions: (  90,  40, 400)

     Estimated max dynamical RAM per process >     123.70 MB

     Estimated total dynamical RAM >       4.35 GB

     Initial potential from superposition of free atoms

     starting charge     286.6604, renormalised to     288.0000

     negative rho (up, down):  4.958E-04 0.000E+00
     Starting wfcs are random

     total cpu time spent up to now is      286.1 secs

     per-process dynamical memory:   232.8 Mb

     Self-consistent Calculation

     iteration #  1     ecut=   120.00 Ry     beta= 0.40
     Davidson diagonalization with overlap
     c_bands:  2 eigenvalues not converged
     c_bands:  3 eigenvalues not converged
     c_bands:  1 eigenvalues not converged
     c_bands:  1 eigenvalues not converged
     c_bands:  3 eigenvalues not converged
     c_bands:  2 eigenvalues not converged
     c_bands:  3 eigenvalues not converged
     ethr =  1.00E-06,  avg # of iterations = 60.0

     negative rho (up, down):  2.525E-04 0.000E+00

     total cpu time spent up to now is      355.4 secs

     total energy              =   -2151.07409598 Ry
     estimated scf accuracy    <      16.10312694 Ry

     iteration #  2     ecut=   120.00 Ry     beta= 0.40
     Davidson diagonalization with overlap
     ethr =  5.59E-03,  avg # of iterations =  4.4

     negative rho (up, down):  1.495E-04 0.000E+00

     total cpu time spent up to now is      362.3 secs

     total energy              =   -2153.68922339 Ry
     estimated scf accuracy    <       8.05022912 Ry

     iteration #  3     ecut=   120.00 Ry     beta= 0.40
     Davidson diagonalization with overlap
     ethr =  2.80E-03,  avg # of iterations =  6.8

     negative rho (up, down):  1.355E-04 0.000E+00

     total cpu time spent up to now is      369.6 secs

     total energy              =   -2151.97564804 Ry
     estimated scf accuracy    <     124.01044161 Ry

     iteration #  4     ecut=   120.00 Ry     beta= 0.40
     Davidson diagonalization with overlap
     ethr =  2.80E-03,  avg # of iterations =  1.9

     negative rho (up, down):  8.737E-05 0.000E+00

     total cpu time spent up to now is      374.6 secs

     total energy              =   -2155.79931944 Ry
     estimated scf accuracy    <       0.87267439 Ry

     iteration #  5     ecut=   120.00 Ry     beta= 0.40
     Davidson diagonalization with overlap
     ethr =  3.03E-04,  avg # of iterations = 11.0

     negative rho (up, down):  3.113E-05 0.000E+00

     total cpu time spent up to now is      383.3 secs

     total energy              =   -2155.85459415 Ry
     estimated scf accuracy    <       0.19883990 Ry

     iteration #  6     ecut=   120.00 Ry     beta= 0.40
     Davidson diagonalization with overlap
     c_bands:  1 eigenvalues not converged
     ethr =  6.90E-05,  avg # of iterations = 12.0

     negative rho (up, down):  2.426E-06 0.000E+00

     total cpu time spent up to now is      392.3 secs

     total energy              =   -2155.89972810 Ry
     estimated scf accuracy    <       0.03355574 Ry

     iteration #  7     ecut=   120.00 Ry     beta= 0.40
     Davidson diagonalization with overlap
     c_bands:  2 eigenvalues not converged
     c_bands:  4 eigenvalues not converged
     ethr =  1.17E-05,  avg # of iterations = 10.5

     negative rho (up, down):  1.319E-07 0.000E+00

     total cpu time spent up to now is      400.2 secs

     total energy              =   -2155.90068005 Ry
     estimated scf accuracy    <       0.02579827 Ry

     iteration #  8     ecut=   120.00 Ry     beta= 0.40
     Davidson diagonalization with overlap
     c_bands:  3 eigenvalues not converged
     ethr =  8.96E-06,  avg # of iterations =  7.2

     total cpu time spent up to now is      406.5 secs

     total energy              =   -2155.90185384 Ry
     estimated scf accuracy    <       0.00823935 Ry

     iteration #  9     ecut=   120.00 Ry     beta= 0.40
     Davidson diagonalization with overlap
     ethr =  2.86E-06,  avg # of iterations = 11.9

     total cpu time spent up to now is      414.2 secs

     total energy              =   -2155.90260480 Ry
     estimated scf accuracy    <       0.00457080 Ry

     iteration # 10     ecut=   120.00 Ry     beta= 0.40
     Davidson diagonalization with overlap
     ethr =  1.59E-06,  avg # of iterations =  4.5

     total cpu time spent up to now is      419.8 secs

     total energy              =   -2155.90259292 Ry
     estimated scf accuracy    <       0.00335889 Ry

     iteration # 11     ecut=   120.00 Ry     beta= 0.40
     Davidson diagonalization with overlap
     ethr =  1.17E-06,  avg # of iterations =  2.9

     total cpu time spent up to now is      425.0 secs

     total energy              =   -2155.90257258 Ry
     estimated scf accuracy    <       0.00267211 Ry

     iteration # 12     ecut=   120.00 Ry     beta= 0.40
     Davidson diagonalization with overlap
     ethr =  9.28E-07,  avg # of iterations =  1.2

     total cpu time spent up to now is      429.8 secs

     total energy              =   -2155.90246981 Ry
     estimated scf accuracy    <       0.00230283 Ry

     iteration # 13     ecut=   120.00 Ry     beta= 0.40
     Davidson diagonalization with overlap
     ethr =  8.00E-07,  avg # of iterations =  1.1

     total cpu time spent up to now is      434.5 secs

     total energy              =   -2155.90238924 Ry
     estimated scf accuracy    <       0.00174809 Ry

     iteration # 14     ecut=   120.00 Ry     beta= 0.40
     Davidson diagonalization with overlap
     ethr =  6.07E-07,  avg # of iterations =  3.5

     total cpu time spent up to now is      439.8 secs

     total energy              =   -2155.90232579 Ry
     estimated scf accuracy    <       0.00126452 Ry

     iteration # 15     ecut=   120.00 Ry     beta= 0.40
     Davidson diagonalization with overlap
     c_bands:  2 eigenvalues not converged
     c_bands:  1 eigenvalues not converged
     ethr =  4.39E-07,  avg # of iterations =  8.2

     total cpu time spent up to now is      446.0 secs

     total energy              =   -2155.90224045 Ry
     estimated scf accuracy    <       0.00088145 Ry

     iteration # 16     ecut=   120.00 Ry     beta= 0.40
     Davidson diagonalization with overlap
     ethr =  3.06E-07,  avg # of iterations =  6.5

     total cpu time spent up to now is      451.8 secs

     total energy              =   -2155.90218177 Ry
     estimated scf accuracy    <       0.00042348 Ry

     iteration # 17     ecut=   120.00 Ry     beta= 0.40
     Davidson diagonalization with overlap
     ethr =  1.47E-07,  avg # of iterations =  9.2

     total cpu time spent up to now is      458.4 secs

     total energy              =   -2155.90219628 Ry
     estimated scf accuracy    <       0.00009706 Ry

     iteration # 18     ecut=   120.00 Ry     beta= 0.40
     Davidson diagonalization with overlap
     c_bands:  1 eigenvalues not converged
     ethr =  3.37E-08,  avg # of iterations = 10.1

     total cpu time spent up to now is      466.6 secs

     total energy              =   -2155.90221539 Ry
     estimated scf accuracy    <       0.00001207 Ry

     iteration # 19     ecut=   120.00 Ry     beta= 0.40
     Davidson diagonalization with overlap
     ethr =  4.19E-09,  avg # of iterations =  7.2

     total cpu time spent up to now is      473.0 secs

     total energy              =   -2155.90221574 Ry
     estimated scf accuracy    <       0.00000892 Ry

     iteration # 20     ecut=   120.00 Ry     beta= 0.40
     Davidson diagonalization with overlap
     ethr =  3.10E-09,  avg # of iterations =  1.2

     total cpu time spent up to now is      477.7 secs

     total energy              =   -2155.90221359 Ry
     estimated scf accuracy    <       0.00000733 Ry

     iteration # 21     ecut=   120.00 Ry     beta= 0.40
     Davidson diagonalization with overlap
     ethr =  2.54E-09,  avg # of iterations =  3.9

     total cpu time spent up to now is      483.5 secs

     total energy              =   -2155.90221426 Ry
     estimated scf accuracy    <       0.00000067 Ry

     iteration # 22     ecut=   120.00 Ry     beta= 0.40
     Davidson diagonalization with overlap
     ethr =  2.33E-10,  avg # of iterations =  7.8

     total cpu time spent up to now is      492.1 secs

     total energy              =   -2155.90221471 Ry
     estimated scf accuracy    <       0.00000114 Ry

     iteration # 23     ecut=   120.00 Ry     beta= 0.40
     Davidson diagonalization with overlap
     ethr =  2.33E-10,  avg # of iterations =  1.6

     total cpu time spent up to now is      497.1 secs

     total energy              =   -2155.90221444 Ry
     estimated scf accuracy    <       0.00000152 Ry

     iteration # 24     ecut=   120.00 Ry     beta= 0.40
     Davidson diagonalization with overlap
     ethr =  2.33E-10,  avg # of iterations =  4.0

     total cpu time spent up to now is      502.9 secs

     total energy              =   -2155.90221437 Ry
     estimated scf accuracy    <       0.00000043 Ry

     iteration # 25     ecut=   120.00 Ry     beta= 0.40
     Davidson diagonalization with overlap
     ethr =  1.49E-10,  avg # of iterations =  5.0

     total cpu time spent up to now is      509.2 secs

     total energy              =   -2155.90221445 Ry
     estimated scf accuracy    <       0.00000003 Ry

     iteration # 26     ecut=   120.00 Ry     beta= 0.40
     Davidson diagonalization with overlap
     ethr =  1.01E-11,  avg # of iterations =  5.0

     total cpu time spent up to now is      516.4 secs

     total energy              =   -2155.90221446 Ry
     estimated scf accuracy    <       0.00000001 Ry

     iteration # 27     ecut=   120.00 Ry     beta= 0.40
     Davidson diagonalization with overlap
     ethr =  3.97E-12,  avg # of iterations =  5.6

     total cpu time spent up to now is      523.4 secs

     End of self-consistent calculation

          k = 0.0000 0.0000 0.0000 ( 84933 PWs)   bands (ev):

   -53.3078 -53.3064 -53.1638 -53.1622 -53.0938 -53.0899 -53.0856 -53.0819
   -53.0030 -53.0021 -52.7050 -52.7046 -29.6251 -29.6238 -29.5127 -29.5117
   -29.5015 -29.5012 -29.4253 -29.4238 -29.4179 -29.4160 -29.4056 -29.3992
   -29.3968 -29.3888 -29.3068 -29.3014 -29.2475 -29.2447 -29.2433 -29.2433
   -29.2428 -29.2424 -29.2357 -29.2344 -29.1931 -29.1852 -29.1769 -29.1692
   -29.1118 -29.1110 -28.9883 -28.9876 -28.9585 -28.9581 -28.7677 -28.7672
   -14.3007 -14.2284 -14.0235 -13.8725 -13.7946 -13.7352 -13.6316 -13.5681
   -13.3294 -13.1908 -13.0402 -13.0391 -12.9769 -12.9740 -12.6474 -12.6109
   -12.6024 -12.5960 -12.5796 -12.5632 -12.5492 -12.5201 -12.2574 -12.2558
    -1.8583  -1.7721  -1.6844  -1.6730  -1.6513  -1.6494  -1.5717  -1.5075
    -1.2065  -1.1832  -0.9061  -0.7253  -0.4751  -0.4261  -0.4230  -0.2928
    -0.2878   0.0303   0.0410   0.0650   0.0650   0.0835   0.1046   0.1068
     0.1600   0.1610   0.3540   0.3558   0.4618   0.5323   0.6097   0.9041
     0.9841   1.0710   1.1119   1.2239   1.2435   1.2472   1.3106   1.3171
     1.4575   1.5166   1.5988   1.6216   1.7091   1.7105   1.8529   1.9783
     2.0010   2.0125   2.0468   2.0794   2.1111   2.1250   2.3745   2.3951
     2.4026   2.4132   2.6541   2.6598   2.6822   2.6829   2.7061   2.7130
     2.7376   2.7417   3.1446   3.1813   3.2123   3.3666   3.5167   3.6514
     5.7157   5.7252   5.7649   5.8089   5.8339   5.8349   6.1251   6.1612
     6.1679   6.1693   6.3435   6.3559   6.3595   6.4121   6.4305   6.4828
     6.6535   6.6539   6.6656   6.6758   6.7914   6.9199   6.9740   7.0803
     7.1269   7.2698   7.3491   7.3512   7.4070

          k = 0.0000 0.3663 0.0000 ( 84963 PWs)   bands (ev):

   -53.2977 -53.2964 -53.1540 -53.1525 -53.0832 -53.0798 -53.0761 -53.0728
   -52.9935 -52.9926 -52.6945 -52.6942 -29.6012 -29.5999 -29.5520 -29.5508
   -29.4980 -29.4970 -29.4815 -29.4814 -29.3916 -29.3897 -29.3771 -29.3729
   -29.3714 -29.3653 -29.3466 -29.3452 -29.3255 -29.3236 -29.2959 -29.2883
   -29.2671 -29.2659 -29.2420 -29.2388 -29.2368 -29.2362 -29.2262 -29.2252
   -29.2170 -29.2163 -28.9802 -28.9795 -28.9522 -28.9518 -28.8786 -28.8781
   -14.0394 -13.9779 -13.7938 -13.6562 -13.5798 -13.5251 -13.4318 -13.3823
   -13.1846 -13.0808 -13.0317 -13.0225 -12.8558 -12.8536 -12.7370 -12.7127
   -12.7019 -12.6920 -12.6849 -12.6655 -12.6529 -12.6320 -12.3192 -12.3179
    -1.4975  -1.4419  -1.3858  -1.3708  -1.3323  -1.3304  -1.2922  -1.2254
    -0.9324  -0.9110  -0.6781  -0.6454  -0.6082  -0.5907  -0.4928  -0.4770
    -0.4721  -0.4317  -0.3966  -0.2916  -0.2890  -0.2084  -0.1743  -0.1133
     0.1045   0.2496   0.3247   0.6782   0.6844   0.7691   0.8868   1.0135
     1.1491   1.1938   1.1965   1.2965   1.3034   1.3678   1.4503   1.4682
     1.4930   1.5440   1.6416   1.6622   1.6820   1.7155   1.7362   1.7611
     1.7858   1.7982   1.8126   1.8215   1.9029   1.9161   2.0311   2.1192
     2.1425   2.2554   2.3195   2.3455   2.3754   2.4309   2.4645   2.5066
     2.6955   2.7108   2.7383   2.7555   2.7571   3.2896   3.3707   3.4848
     5.8278   5.8288   5.9654   6.0535   6.0647   6.0665   6.0911   6.0914
     6.1408   6.2075   6.2474   6.4689   6.4869   6.5198   6.5471   6.6077
     6.8224   6.8698   6.9019   6.9352   7.0447   7.0700   7.0997   7.1317
     7.2211   7.2485   7.2541   7.2943   7.5318

          k = 0.0000 0.7325 0.0000 ( 84944 PWs)   bands (ev):

   -53.2776 -53.2763 -53.1345 -53.1329 -53.0614 -53.0595 -53.0570 -53.0553
   -52.9743 -52.9734 -52.6736 -52.6733 -29.7751 -29.7735 -29.5699 -29.5686
   -29.5394 -29.5383 -29.5264 -29.5246 -29.5108 -29.5090 -29.4723 -29.4721
   -29.4698 -29.4686 -29.4320 -29.4312 -29.3379 -29.3360 -29.3226 -29.3174
   -29.3143 -29.3108 -29.2684 -29.2659 -29.2359 -29.2346 -29.2199 -29.2195
   -29.1889 -29.1878 -29.1414 -29.1407 -28.9403 -28.9399 -28.9099 -28.9092
   -13.4545 -13.4438 -13.4178 -13.3589 -13.1543 -13.1401 -13.1389 -13.0566
   -13.0411 -13.0407 -12.9229 -12.9083 -12.9039 -12.9032 -12.8941 -12.8752
   -12.8594 -12.8521 -12.7889 -12.7665 -12.6252 -12.6227 -12.3024 -12.3014
    -0.9526  -0.8977  -0.8872  -0.8694  -0.8614  -0.8520  -0.8054  -0.7704
    -0.7160  -0.7126  -0.6377  -0.6231  -0.6043  -0.5898  -0.5458  -0.5389
    -0.4704  -0.4573  -0.4505  -0.3745  -0.3386  -0.2990  -0.2694  -0.0886
     0.0665   0.2520   0.2644   0.3255   0.3774   0.4278   0.4642   0.5103
     0.5167   0.5405   0.7166   0.7615   0.7756   1.0915   1.1432   1.2740
     1.3311   1.3745   1.4116   1.5905   1.6220   1.6261   1.6826   1.7055
     1.7301   1.7805   1.8043   1.8517   1.9180   2.0417   2.0620   2.0662
     2.0674   2.2624   2.3160   2.3202   2.3234   2.3899   2.3994   2.4037
     2.6121   2.6221   2.6353   2.6580   2.7445   2.7984   2.8475   2.9233
     6.1375   6.1748   6.1861   6.1904   6.2636   6.3146   6.4293   6.4555
     6.4943   6.5226   6.6333   6.6435   6.6486   6.6709   6.7595   6.7739
     6.8103   6.8418   6.8430   6.9666   7.0281   7.1210   7.2555   7.2914
     7.3170   7.3494   7.3658   7.3919   7.4853

          k = 0.0000-1.0988 0.0000 ( 84892 PWs)   bands (ev):

   -53.2676 -53.2662 -53.1247 -53.1231 -53.0494 -53.0489 -53.0478 -53.0476
   -52.9646 -52.9637 -52.6631 -52.6628 -29.8832 -29.8816 -29.6739 -29.6725
   -29.6317 -29.6310 -29.6186 -29.6173 -29.5357 -29.5350 -29.4951 -29.4938
   -29.4822 -29.4817 -29.4562 -29.4550 -29.3104 -29.3084 -29.2981 -29.2953
   -29.2713 -29.2709 -29.2705 -29.2702 -29.2577 -29.2574 -29.2439 -29.2423
   -29.1957 -29.1951 -29.1694 -29.1682 -28.9347 -28.9343 -28.8911 -28.8904
   -13.4370 -13.4329 -13.1185 -13.1126 -13.0308 -13.0237 -13.0051 -12.9974
   -12.9833 -12.9625 -12.9588 -12.9450 -12.9384 -12.9367 -12.9079 -12.8909
   -12.8653 -12.8372 -12.7293 -12.7220 -12.6097 -12.5931 -12.1560 -12.1550
    -1.3013  -1.2010  -0.9546  -0.8943  -0.8768  -0.8317  -0.7824  -0.7560
    -0.7005  -0.6233  -0.6055  -0.5677  -0.4630  -0.4527  -0.4423  -0.4347
    -0.4292  -0.3425  -0.2945  -0.2763  -0.2724  -0.2385  -0.1517  -0.0739
    -0.0505   0.0883   0.1739   0.1995   0.3464   0.3570   0.3697   0.3758
     0.7288   0.8150   0.9587   0.9624   1.0057   1.0071   1.0401   1.0557
     1.0621   1.1482   1.2021   1.3236   1.3294   1.4029   1.4229   1.4616
     1.6277   1.7213   1.7798   1.8117   1.8742   1.9989   2.0814   2.1443
     2.1683   2.2140   2.3346   2.4217   2.5084   2.5102   2.5227   2.5370
     2.5371   2.5429   2.5602   2.5814   2.6763   2.7116   2.7339   2.8761
     5.8913   6.1750   6.4095   6.4188   6.4394   6.6138   6.6772   6.6785
     6.6934   6.7356   6.7731   6.7772   6.8762   6.8781   6.8805   6.9795
     6.9974   7.0327   7.0359   7.0400   7.0629   7.1043   7.1060   7.1609
     7.1718   7.2283   7.2286   7.2522   7.3578

          k = 0.3333 0.0000 0.0000 ( 84927 PWs)   bands (ev):

   -53.3077 -53.3064 -53.1638 -53.1622 -53.0919 -53.0889 -53.0867 -53.0837
   -53.0031 -53.0022 -52.7050 -52.7046 -29.6253 -29.6239 -29.5018 -29.5015
   -29.4969 -29.4958 -29.4252 -29.4236 -29.4104 -29.4085 -29.3965 -29.3915
   -29.3701 -29.3628 -29.3058 -29.3053 -29.2812 -29.2783 -29.2613 -29.2602
   -29.2427 -29.2422 -29.2356 -29.2343 -29.1894 -29.1832 -29.1790 -29.1729
   -29.1119 -29.1112 -28.9882 -28.9874 -28.9667 -28.9663 -28.7678 -28.7673
   -14.1526 -14.0993 -13.8663 -13.7348 -13.6985 -13.6581 -13.5942 -13.5486
   -13.4315 -13.2750 -13.1703 -13.1673 -12.9696 -12.9653 -12.7254 -12.7212
   -12.6898 -12.6631 -12.6422 -12.6308 -12.6118 -12.5866 -12.2536 -12.2523
    -1.6898  -1.6456  -1.3712  -1.2950  -1.2513  -1.2484  -1.2404  -1.2260
    -1.1523  -1.1354  -0.5620  -0.4611  -0.4298  -0.3363  -0.2948  -0.2898
    -0.1423   0.0390   0.0479   0.1159   0.1320   0.1630   0.1652   0.2276
     0.2296   0.2305   0.2387   0.3335   0.3543   0.3562   0.4522   0.6088
     0.7062   0.7834   0.8924   0.9191   1.0257   1.0366   1.1157   1.2512
     1.2967   1.3581   1.4109   1.5917   1.6505   1.6553   1.6662   1.8251
     1.9428   1.9452   2.0148   2.0640   2.0862   2.1292   2.1354   2.1643
     2.2296   2.2907   2.4418   2.4601   2.5264   2.5946   2.5983   2.6045
     2.6520   2.6780   2.7811   2.7885   2.8371   3.1797   3.2725   3.3949
     6.0697   6.0809   6.1491   6.1738   6.2062   6.2222   6.2513   6.2523
     6.4002   6.4226   6.4290   6.4305   6.5059   6.5118   6.6237   6.6318
     6.7033   6.7544   6.8949   6.9045   6.9632   7.1134   7.1200   7.2954
     7.3059   7.3169   7.3418   7.3753   7.3892

          k = 0.3333 0.3663 0.0000 ( 84877 PWs)   bands (ev):

   -53.2977 -53.2964 -53.1540 -53.1525 -53.0816 -53.0790 -53.0770 -53.0744
   -52.9935 -52.9926 -52.6946 -52.6942 -29.6013 -29.5999 -29.5523 -29.5511
   -29.4890 -29.4879 -29.4817 -29.4817 -29.3860 -29.3841 -29.3720 -29.3675
   -29.3512 -29.3482 -29.3477 -29.3464 -29.3256 -29.3195 -29.3031 -29.2992
   -29.2679 -29.2676 -29.2569 -29.2560 -29.2399 -29.2389 -29.2344 -29.2338
   -29.2151 -29.2144 -28.9803 -28.9795 -28.9571 -28.9567 -28.8784 -28.8779
   -13.9119 -13.8686 -13.6578 -13.5216 -13.5039 -13.4585 -13.3947 -13.3612
   -13.2623 -13.1379 -13.0360 -13.0260 -13.0051 -13.0041 -12.8185 -12.8112
   -12.7737 -12.7576 -12.7269 -12.7007 -12.6671 -12.6617 -12.3148 -12.3137
    -1.3703  -1.3452  -1.0610  -1.0105  -0.9604  -0.9495  -0.9273  -0.9179
    -0.8522  -0.8450  -0.6517  -0.6465  -0.5122  -0.4976  -0.4570  -0.4534
    -0.3686  -0.3658  -0.2790  -0.1859  -0.1480  -0.1378  -0.0049   0.0263
     0.1305   0.2423   0.4108   0.6102   0.6812   0.7299   0.8053   0.8457
     0.8761   0.9162   0.9567   1.0403   1.0488   1.0654   1.1111   1.1656
     1.2704   1.3514   1.3603   1.4371   1.4939   1.4949   1.5097   1.5308
     1.5620   1.6406   1.6718   1.6927   1.7299   1.7852   1.8381   1.8622
     1.9580   2.0856   2.1683   2.2775   2.5065   2.5100   2.6788   2.6803
     2.7750   2.7957   2.8170   2.8443   2.9047   3.1537   3.2166   3.3051
     5.9361   5.9373   6.1178   6.1224   6.1809   6.2220   6.2623   6.3652
     6.3947   6.4108   6.4681   6.4724   6.5361   6.5394   6.6339   6.6966
     6.8730   6.8977   7.0189   7.0611   7.0993   7.1016   7.2143   7.2842
     7.3646   7.3881   7.4391   7.4907   7.5226

          k = 0.3333 0.7325 0.0000 ( 84900 PWs)   bands (ev):

   -53.2776 -53.2763 -53.1345 -53.1329 -53.0605 -53.0591 -53.0575 -53.0562
   -52.9743 -52.9734 -52.6736 -52.6733 -29.7754 -29.7738 -29.5724 -29.5710
   -29.5399 -29.5389 -29.5272 -29.5254 -29.5183 -29.5162 -29.4953 -29.4949
   -29.4722 -29.4721 -29.4019 -29.4017 -29.3368 -29.3349 -29.3218 -29.3189
   -29.2901 -29.2867 -29.2676 -29.2668 -29.2506 -29.2489 -29.2197 -29.2192
   -29.1923 -29.1912 -29.1406 -29.1399 -28.9397 -28.9393 -28.9099 -28.9092
   -13.4231 -13.4196 -13.3815 -13.3351 -13.1870 -13.1838 -13.1359 -13.1341
   -13.0761 -13.0450 -12.9949 -12.9820 -12.9156 -12.9122 -12.8813 -12.8733
   -12.8111 -12.7979 -12.7455 -12.7301 -12.6205 -12.6192 -12.3024 -12.3014
    -0.9127  -0.8971  -0.8665  -0.8576  -0.7643  -0.7600  -0.7472  -0.7250
    -0.6747  -0.6186  -0.5589  -0.5541  -0.5150  -0.5133  -0.4685  -0.4409
    -0.4184  -0.3698  -0.3401  -0.3149  -0.3113  -0.2496  -0.1895  -0.1822
     0.0321   0.1108   0.2521   0.2904   0.3294   0.3355   0.4434   0.4664
     0.6654   0.6836   0.7914   0.8214   0.8934   1.0172   1.0957   1.1843
     1.2533   1.2699   1.3684   1.3766   1.4648   1.4936   1.5228   1.5405
     1.5752   1.6041   1.7142   1.7618   1.7896   1.9100   2.0250   2.0300
     2.0736   2.1253   2.2828   2.3012   2.3429   2.3888   2.4573   2.4805
     2.5433   2.6145   2.7443   2.8076   2.8808   2.9264   2.9433   2.9637
     5.9055   5.9285   5.9663   6.0349   6.0519   6.1031   6.3522   6.4602
     6.4696   6.5329   6.6341   6.6735   6.7063   6.7472   6.8288   6.8551
     6.8805   6.9200   6.9318   6.9566   7.0808   7.1492   7.2280   7.2514
     7.3241   7.3266   7.4577   7.4970   7.5858

          k = 0.3333-1.0988 0.0000 ( 85048 PWs)   bands (ev):

   -53.2676 -53.2662 -53.1247 -53.1231 -53.0494 -53.0489 -53.0478 -53.0476
   -52.9646 -52.9637 -52.6631 -52.6628 -29.8836 -29.8820 -29.6766 -29.6751
   -29.6323 -29.6319 -29.6251 -29.6245 -29.5583 -29.5579 -29.4961 -29.4947
   -29.4822 -29.4817 -29.4317 -29.4309 -29.3161 -29.3143 -29.2974 -29.2960
   -29.2653 -29.2645 -29.2639 -29.2633 -29.2576 -29.2571 -29.2427 -29.2418
   -29.1955 -29.1949 -29.1689 -29.1678 -28.9313 -28.9310 -28.8912 -28.8904
   -13.4352 -13.4315 -13.2140 -13.2091 -13.2024 -13.2021 -13.1596 -13.1582
   -13.1122 -13.1087 -13.0045 -12.9651 -12.7558 -12.7541 -12.7317 -12.7278
   -12.6603 -12.6591 -12.6537 -12.6489 -12.6077 -12.5994 -12.1559 -12.1549
    -1.2350  -1.2231  -1.2171  -1.1546  -1.0853  -1.0389  -0.9202  -0.9187
    -0.9182  -0.8581  -0.6931  -0.4892  -0.4738  -0.4424  -0.3188  -0.3065
    -0.2716  -0.2711  -0.2648  -0.1911  -0.0661  -0.0658  -0.0633  -0.0595
     0.0969   0.1276   0.3819   0.4369   0.4449   0.5734   0.6570   0.7311
     0.7422   0.7450   0.8091   0.9988   1.0155   1.0244   1.0277   1.0584
     1.1251   1.1413   1.1516   1.2074   1.3689   1.3880   1.6041   1.7040
     1.7144   1.7606   1.8018   1.8888   1.9887   2.0390   2.1338   2.1622
     2.1833   2.2005   2.2266   2.2894   2.3129   2.3152   2.3220   2.4050
     2.4515   2.5063   2.5138   2.5548   2.5549   2.8003   2.8547   2.8927
     5.8803   5.8916   5.9536   6.0136   6.0939   6.2242   6.2308   6.3040
     6.4713   6.5487   6.7468   6.7482   6.7832   6.8795   6.9026   6.9592
     7.0019   7.0038   7.0132   7.0301   7.0984   7.1016   7.2460   7.2475
     7.2650   7.4204   7.5645   7.5719   7.5868

     the Fermi energy is     4.6699 ev

!    total energy              =   -2155.90221446 Ry
     estimated scf accuracy    <          4.1E-09 Ry
     smearing contrib. (-TS)   =      -0.00000000 Ry
     internal energy E=F+TS    =   -2155.90221446 Ry

     The total energy is F=E-TS. E is the sum of the following terms:
     one-electron contribution =  -14880.40983634 Ry
     hartree contribution      =    7518.82286668 Ry
     xc contribution           =    -340.13373737 Ry
     ewald contribution        =    5545.81849257 Ry

     convergence has been achieved in  27 iterations

     Forces acting on atoms (cartesian axes, Ry/au):

     atom    1 type  1   force =     0.00000000    0.00000000   -0.00039929
     atom    2 type  1   force =     0.00000000    0.00000000    0.00059949
     atom    3 type  1   force =     0.00000000    0.00000000    0.00047201
     atom    4 type  1   force =     0.00000000    0.00000000    0.00026880
     atom    5 type  1   force =     0.00000000    0.00000000    0.00031914
     atom    6 type  1   force =     0.00000000    0.00000000   -0.00013523
     atom    7 type  1   force =     0.00000000    0.00000000   -0.00037195
     atom    8 type  1   force =     0.00000000    0.00000000    0.00008914
     atom    9 type  1   force =     0.00000000    0.00000000   -0.00065465
     atom   10 type  1   force =     0.00000000    0.00000000   -0.00033356
     atom   11 type  1   force =     0.00000000    0.00000000   -0.00012190
     atom   12 type  1   force =     0.00000000    0.00000000   -0.00052887
     atom   13 type  2   force =     0.00000000    0.00000000    0.00054893
     atom   14 type  2   force =     0.00000000    0.00000000    0.00011713
     atom   15 type  2   force =     0.00000000    0.00000000    0.00020289
     atom   16 type  2   force =     0.00016840    0.00000000   -0.00087328
     atom   17 type  2   force =    -0.00016840    0.00000000   -0.00087328
     atom   18 type  2   force =     0.00000000    0.00000000   -0.00031118
     atom   19 type  2   force =     0.00000000    0.00000000    0.00014899
     atom   20 type  2   force =     0.00003035    0.00000000    0.00068207
     atom   21 type  2   force =    -0.00003035    0.00000000    0.00068207
     atom   22 type  2   force =     0.00000000    0.00000000    0.00025443
     atom   23 type  2   force =     0.00000000    0.00000000   -0.00031323
     atom   24 type  2   force =     0.00003676    0.00000000    0.00040021
     atom   25 type  2   force =    -0.00003676    0.00000000    0.00040021
     atom   26 type  2   force =     0.00000000    0.00000000   -0.00038740
     atom   27 type  2   force =     0.00000000    0.00000000    0.00031529
     atom   28 type  2   force =    -0.00000251    0.00000000   -0.00028409
     atom   29 type  2   force =     0.00000251    0.00000000   -0.00028409
     atom   30 type  2   force =     0.00000000    0.00000000   -0.00011745
     atom   31 type  2   force =     0.00000000    0.00000000   -0.00002018
     atom   32 type  2   force =    -0.00016910    0.00000000    0.00021279
     atom   33 type  2   force =     0.00016910    0.00000000    0.00021279
     atom   34 type  2   force =     0.00000000    0.00000000   -0.00017778
     atom   35 type  2   force =    -0.00003615    0.00000000    0.00013052
     atom   36 type  2   force =     0.00003615    0.00000000    0.00013052

     Total force =     0.002456     Total SCF correction =     0.000262
     SCF correction compared to forces is large: reduce conv_thr to get better values


     Computing stress (Cartesian axis) and pressure

          total   stress  (Ry/bohr**3)                   (kbar)     P=        0.13
   0.00000048   0.00000000   0.00000000            0.07        0.00        0.00
   0.00000000  -0.00000022   0.00000000            0.00       -0.03        0.00
   0.00000000   0.00000000   0.00000230            0.00        0.00        0.34


     Writing all to output data dir ./Out/pwscf.save/
 
     init_run     :      3.91s CPU      4.77s WALL (       2 calls)
     electrons    :    461.16s CPU    466.83s WALL (       4 calls)
     update_pot   :      0.92s CPU      0.93s WALL (       2 calls)
     forces       :      4.63s CPU      4.68s WALL (       4 calls)
     stress       :     60.04s CPU     60.34s WALL (       4 calls)

     Called by init_run:
     wfcinit      :      3.08s CPU      3.71s WALL (       2 calls)
     potinit      :      0.20s CPU      0.22s WALL (       2 calls)
     hinit0       :      0.18s CPU      0.37s WALL (       2 calls)

     Called by electrons:
     c_bands      :    435.70s CPU    440.48s WALL (      57 calls)
     sum_band     :     23.94s CPU     24.27s WALL (      57 calls)
     v_of_rho     :      0.84s CPU      0.96s WALL (      59 calls)
     mix_rho      :      0.62s CPU      0.68s WALL (      57 calls)

     Called by c_bands:
     init_us_2    :      5.53s CPU      5.60s WALL (     992 calls)
     init_us_2:cp :      5.52s CPU      5.60s WALL (     992 calls)
     cegterg      :    417.66s CPU    422.02s WALL (     473 calls)

     Called by *egterg:
     cdiaghg      :     58.11s CPU     58.86s WALL (    3885 calls)
     h_psi        :    229.90s CPU    232.26s WALL (    3949 calls)
     g_psi        :      1.75s CPU      1.76s WALL (    3460 calls)

     Called by h_psi:
     h_psi:calbec :     37.26s CPU     37.57s WALL (    3949 calls)
     vloc_psi     :    152.77s CPU    154.03s WALL (    3949 calls)
     add_vuspsi   :     37.10s CPU     37.35s WALL (    3949 calls)

     General routines
     calbec       :     42.78s CPU     43.13s WALL (    4109 calls)
     fft          :      0.64s CPU      0.91s WALL (     622 calls)
     ffts         :      0.03s CPU      0.04s WALL (      57 calls)
     fftw         :    155.27s CPU    156.58s WALL (  564310 calls)
 
     Parallel routines
 
     PWSCF        :   8m51.84s CPU   9m 2.88s WALL

 
   This run was terminated on:  15:50:56  17Jul2026            

=------------------------------------------------------------------------------=
   JOB DONE.
=------------------------------------------------------------------------------=
