
     Program PWSCF v.7.1 starts on 23Jul2026 at 14: 2: 7 

     This program is part of the open-source Quantum ESPRESSO suite
     for quantum simulation of materials; please cite
         "P. Giannozzi et al., J. Phys.:Condens. Matter 21 395502 (2009);
         "P. Giannozzi et al., J. Phys.:Condens. Matter 29 465901 (2017);
         "P. Giannozzi et al., J. Chem. Phys. 152 154105 (2020);
          URL http://www.quantum-espresso.org", 
     in publications or presentations arising from this work. More details at
     http://www.quantum-espresso.org/quote

     Parallel version (MPI), running on    36 processors

     MPI processes distributed on     1 nodes
     176689 MiB available memory on the printing compute node when the environment starts
 
     Waiting for input...
     Reading input from standard input

     Current dimensions of program PWSCF are:
     Max number of different atomic species (ntypx) = 10
     Max number of k-points (npk) =  40000
     Max angular momentum in pseudopotentials (lmaxx) =  4
     Message from routine setup:
     using ibrav=0 with symmetry is DISCOURAGED, use correct ibrav instead
 
     K-points division:     npool     =       3
     R & G space division:  proc/nbgrp/npool/nimage =      12
     Subspace diagonalization in iterative solution of the eigenvalue problem:
     a serial algorithm will be used

 
     Parallelization info
     --------------------
     sticks:   dense  smooth     PW     G-vecs:    dense   smooth      PW
     Min         120     120     35                 2202     2202     357
     Max         122     122     36                 2203     2203     360
     Sum        1449    1449    429                26427    26427    4299
 
     Using Slab Decomposition
 


     bravais-lattice index     =            0
     lattice parameter (alat)  =       8.6808  a.u.
     unit-cell volume          =     421.3304 (a.u.)^3
     number of atoms/cell      =            6
     number of atomic types    =            2
     number of electrons       =        48.00
     number of Kohn-Sham states=           24
     kinetic-energy cutoff     =      60.0000  Ry
     charge density cutoff     =     240.0000  Ry
     scf convergence threshold =      1.0E-06
     mixing beta               =       0.7000
     number of iterations used =            8  plain     mixing
     Exchange-correlation= PBE
                           (   1   4   3   4   0   0   0)

     celldm(1)=   8.680835  celldm(2)=   0.000000  celldm(3)=   0.000000
     celldm(4)=   0.000000  celldm(5)=   0.000000  celldm(6)=   0.000000

     crystal axes: (cart. coord. in units of alat)
               a(1) = (   1.000000   0.000000   0.000000 )  
               a(2) = (   0.000000   1.000000   0.000000 )  
               a(3) = (   0.000000   0.000000   0.644078 )  

     reciprocal axes: (cart. coord. in units 2 pi/alat)
               b(1) = (  1.000000  0.000000  0.000000 )  
               b(2) = (  0.000000  1.000000  0.000000 )  
               b(3) = (  0.000000  0.000000  1.552608 )  


     PseudoPot. # 1 for Ti read from file:
     ./Ti_ONCV_PBE-1.2.upf
     MD5 check sum: 1aea57736bd12dcfee93c97d0b9b5968
     Pseudo is Norm-conserving, Zval = 12.0
     Generated using ONCVPSP code by D. R. Hamann
     Using radial grid of  602 points,  6 beta functions with: 
                l(1) =   0
                l(2) =   0
                l(3) =   1
                l(4) =   1
                l(5) =   2
                l(6) =   2

     PseudoPot. # 2 for O  read from file:
     ./O_ONCV_PBE-1.2.upf
     MD5 check sum: e36c48deb68f4e355fffe4602be2c42c
     Pseudo is Norm-conserving, Zval =  6.0
     Generated using ONCVPSP code by D. R. Hamann
     Using radial grid of  602 points,  4 beta functions with: 
                l(1) =   0
                l(2) =   0
                l(3) =   1
                l(4) =   1

     atomic species   valence    mass     pseudopotential
        Ti            12.00    47.86700     Ti( 1.00)
        O              6.00    15.99900     O ( 1.00)

     16 Sym. Ops., with inversion, found ( 8 have fractional translation)



   Cartesian axes

     site n.     atom                  positions (alat units)
         1           Ti  tau(   1) = (   0.0000000   0.0000000   0.0000000  )
         2           Ti  tau(   2) = (   0.5000000   0.5000000   0.3220389  )
         3           O   tau(   3) = (   0.3047800   0.3047800   0.0000000  )
         4           O   tau(   4) = (   0.6952200   0.6952200   0.0000000  )
         5           O   tau(   5) = (   0.8047800   0.1952200   0.3220389  )
         6           O   tau(   6) = (   0.1952200   0.8047800   0.3220389  )

     number of k points=    50
                       cart. coord. in units 2pi/alat
        k(    1) = (   0.0000000   0.0000000   0.0000000), wk =   0.0061728
        k(    2) = (   0.0000000   0.0000000   0.1725120), wk =   0.0123457
        k(    3) = (   0.0000000   0.0000000   0.3450239), wk =   0.0123457
        k(    4) = (   0.0000000   0.0000000   0.5175359), wk =   0.0123457
        k(    5) = (   0.0000000   0.0000000   0.6900478), wk =   0.0123457
        k(    6) = (   0.0000000   0.1666667   0.0000000), wk =   0.0246914
        k(    7) = (   0.0000000   0.1666667   0.1725120), wk =   0.0493827
        k(    8) = (   0.0000000   0.1666667   0.3450239), wk =   0.0493827
        k(    9) = (   0.0000000   0.1666667   0.5175359), wk =   0.0493827
        k(   10) = (   0.0000000   0.1666667   0.6900478), wk =   0.0493827
        k(   11) = (   0.0000000   0.3333333   0.0000000), wk =   0.0246914
        k(   12) = (   0.0000000   0.3333333   0.1725120), wk =   0.0493827
        k(   13) = (   0.0000000   0.3333333   0.3450239), wk =   0.0493827
        k(   14) = (   0.0000000   0.3333333   0.5175359), wk =   0.0493827
        k(   15) = (   0.0000000   0.3333333   0.6900478), wk =   0.0493827
        k(   16) = (   0.0000000  -0.5000000   0.0000000), wk =   0.0123457
        k(   17) = (   0.0000000  -0.5000000   0.1725120), wk =   0.0246914
        k(   18) = (   0.0000000  -0.5000000   0.3450239), wk =   0.0246914
        k(   19) = (   0.0000000  -0.5000000   0.5175359), wk =   0.0246914
        k(   20) = (   0.0000000  -0.5000000   0.6900478), wk =   0.0246914
        k(   21) = (   0.1666667   0.1666667   0.0000000), wk =   0.0246914
        k(   22) = (   0.1666667   0.1666667   0.1725120), wk =   0.0493827
        k(   23) = (   0.1666667   0.1666667   0.3450239), wk =   0.0493827
        k(   24) = (   0.1666667   0.1666667   0.5175359), wk =   0.0493827
        k(   25) = (   0.1666667   0.1666667   0.6900478), wk =   0.0493827
        k(   26) = (   0.1666667   0.3333333   0.0000000), wk =   0.0493827
        k(   27) = (   0.1666667   0.3333333   0.1725120), wk =   0.0987654
        k(   28) = (   0.1666667   0.3333333   0.3450239), wk =   0.0987654
        k(   29) = (   0.1666667   0.3333333   0.5175359), wk =   0.0987654
        k(   30) = (   0.1666667   0.3333333   0.6900478), wk =   0.0987654
        k(   31) = (   0.1666667  -0.5000000   0.0000000), wk =   0.0246914
        k(   32) = (   0.1666667  -0.5000000   0.1725120), wk =   0.0493827
        k(   33) = (   0.1666667  -0.5000000   0.3450239), wk =   0.0493827
        k(   34) = (   0.1666667  -0.5000000   0.5175359), wk =   0.0493827
        k(   35) = (   0.1666667  -0.5000000   0.6900478), wk =   0.0493827
        k(   36) = (   0.3333333   0.3333333   0.0000000), wk =   0.0246914
        k(   37) = (   0.3333333   0.3333333   0.1725120), wk =   0.0493827
        k(   38) = (   0.3333333   0.3333333   0.3450239), wk =   0.0493827
        k(   39) = (   0.3333333   0.3333333   0.5175359), wk =   0.0493827
        k(   40) = (   0.3333333   0.3333333   0.6900478), wk =   0.0493827
        k(   41) = (   0.3333333  -0.5000000   0.0000000), wk =   0.0246914
        k(   42) = (   0.3333333  -0.5000000   0.1725120), wk =   0.0493827
        k(   43) = (   0.3333333  -0.5000000   0.3450239), wk =   0.0493827
        k(   44) = (   0.3333333  -0.5000000   0.5175359), wk =   0.0493827
        k(   45) = (   0.3333333  -0.5000000   0.6900478), wk =   0.0493827
        k(   46) = (  -0.5000000  -0.5000000   0.0000000), wk =   0.0061728
        k(   47) = (  -0.5000000  -0.5000000   0.1725120), wk =   0.0123457
        k(   48) = (  -0.5000000  -0.5000000   0.3450239), wk =   0.0123457
        k(   49) = (  -0.5000000  -0.5000000   0.5175359), wk =   0.0123457
        k(   50) = (  -0.5000000  -0.5000000   0.6900478), wk =   0.0123457

     Dense  grid:    26427 G-vectors     FFT dimensions: (  48,  48,  30)

     Estimated max dynamical RAM per process >       6.58 MB

     Estimated total dynamical RAM >     223.88 MB

     Initial potential from superposition of free atoms

     starting charge      47.7767, renormalised to      48.0000
     Starting wfcs are random

     total cpu time spent up to now is        0.4 secs

     per-process dynamical memory:   116.8 Mb

     Self-consistent Calculation

     iteration #  1     ecut=    60.00 Ry     beta= 0.70
     Davidson diagonalization with overlap
     ethr =  1.00E-02,  avg # of iterations = 10.5

     total cpu time spent up to now is        0.8 secs

     total energy              =    -358.07501959 Ry
     estimated scf accuracy    <       2.24336697 Ry

     iteration #  2     ecut=    60.00 Ry     beta= 0.70
     Davidson diagonalization with overlap
     ethr =  4.67E-03,  avg # of iterations =  7.8

     total cpu time spent up to now is        1.1 secs

     total energy              =    -356.39137807 Ry
     estimated scf accuracy    <      16.55104061 Ry

     iteration #  3     ecut=    60.00 Ry     beta= 0.70
     Davidson diagonalization with overlap
     ethr =  4.67E-03,  avg # of iterations =  6.4

     total cpu time spent up to now is        1.4 secs

     total energy              =    -359.23749235 Ry
     estimated scf accuracy    <       0.21669675 Ry

     iteration #  4     ecut=    60.00 Ry     beta= 0.70
     Davidson diagonalization with overlap
     ethr =  4.51E-04,  avg # of iterations =  4.1

     total cpu time spent up to now is        1.5 secs

     total energy              =    -359.19852080 Ry
     estimated scf accuracy    <       0.20305216 Ry

     iteration #  5     ecut=    60.00 Ry     beta= 0.70
     Davidson diagonalization with overlap
     ethr =  4.23E-04,  avg # of iterations =  3.2

     total cpu time spent up to now is        1.7 secs

     total energy              =    -359.21585342 Ry
     estimated scf accuracy    <       0.02475858 Ry

     iteration #  6     ecut=    60.00 Ry     beta= 0.70
     Davidson diagonalization with overlap
     ethr =  5.16E-05,  avg # of iterations =  6.3

     total cpu time spent up to now is        1.9 secs

     total energy              =    -359.24166435 Ry
     estimated scf accuracy    <       0.04443629 Ry

     iteration #  7     ecut=    60.00 Ry     beta= 0.70
     Davidson diagonalization with overlap
     ethr =  5.16E-05,  avg # of iterations =  4.9

     total cpu time spent up to now is        2.1 secs

     total energy              =    -359.24616300 Ry
     estimated scf accuracy    <       0.00158542 Ry

     iteration #  8     ecut=    60.00 Ry     beta= 0.70
     Davidson diagonalization with overlap
     ethr =  3.30E-06,  avg # of iterations =  6.7

     total cpu time spent up to now is        2.4 secs

     total energy              =    -359.24779563 Ry
     estimated scf accuracy    <       0.01901757 Ry

     iteration #  9     ecut=    60.00 Ry     beta= 0.70
     Davidson diagonalization with overlap
     ethr =  3.30E-06,  avg # of iterations =  5.8

     total cpu time spent up to now is        2.6 secs

     total energy              =    -359.24831369 Ry
     estimated scf accuracy    <       0.00278188 Ry

     iteration # 10     ecut=    60.00 Ry     beta= 0.70
     Davidson diagonalization with overlap
     ethr =  3.30E-06,  avg # of iterations =  4.3

     total cpu time spent up to now is        2.8 secs

     total energy              =    -359.24848340 Ry
     estimated scf accuracy    <       0.00054932 Ry

     iteration # 11     ecut=    60.00 Ry     beta= 0.70
     Davidson diagonalization with overlap
     ethr =  1.14E-06,  avg # of iterations =  4.8

     total cpu time spent up to now is        3.0 secs

     total energy              =    -359.24860936 Ry
     estimated scf accuracy    <       0.00004167 Ry

     iteration # 12     ecut=    60.00 Ry     beta= 0.70
     Davidson diagonalization with overlap
     ethr =  8.68E-08,  avg # of iterations =  5.0

     total cpu time spent up to now is        3.2 secs

     total energy              =    -359.24862677 Ry
     estimated scf accuracy    <       0.00000513 Ry

     iteration # 13     ecut=    60.00 Ry     beta= 0.70
     Davidson diagonalization with overlap
     ethr =  1.07E-08,  avg # of iterations =  4.9

     total cpu time spent up to now is        3.4 secs

     End of self-consistent calculation

          k = 0.0000 0.0000 0.0000 (  3321 PWs)   bands (ev):

   -47.6098 -47.5925 -23.9312 -23.9312 -23.7642 -23.7642 -23.7177 -23.6834
    -8.9612  -7.7903  -7.0421  -7.0421   3.4638   3.8880   4.3365   5.4203
     5.4203   6.6964   6.6964   7.2628   8.5312   8.7888   8.7888   9.2525

          k = 0.0000 0.0000 0.1725 (  3278 PWs)   bands (ev):

   -47.6045 -47.5883 -23.9174 -23.9174 -23.7713 -23.7618 -23.7618 -23.7398
    -8.8294  -7.7160  -7.1024  -7.1024   3.6457   4.0248   4.4804   5.2855
     5.2855   6.8930   6.9511   6.9511   8.0367   8.5517   8.5517   9.1940

          k = 0.0000 0.0000 0.3450 (  3294 PWs)   bands (ev):

   -47.5910 -47.5778 -23.9046 -23.8809 -23.8809 -23.8804 -23.7569 -23.7569
    -8.4842  -7.5417  -7.2591  -7.2591   4.1225   4.3693   4.8962   5.1486
     5.1486   6.1134   7.0409   7.3810   7.3810   7.9467   7.9467   8.9065

          k = 0.0000 0.0000 0.5175 (  3326 PWs)   bands (ev):

   -47.5750 -47.5663 -24.0517 -24.0369 -23.8349 -23.8349 -23.7555 -23.7555
    -8.0355  -7.4360  -7.4360  -7.3932   4.6612   4.7232   5.2265   5.2265
     5.4671   5.5596   6.1556   7.2161   7.2161   7.6773   7.6773   8.2668

          k = 0.0000 0.0000 0.6900 (  3322 PWs)   bands (ev):

   -47.5632 -47.5602 -24.1438 -24.1389 -23.7953 -23.7953 -23.7639 -23.7639
    -7.6308  -7.5496  -7.5496  -7.4006   4.7594   4.7930   5.4727   5.4727
     5.4984   5.7240   6.4177   6.6071   6.6071   7.3715   7.8081   7.8081

          k = 0.0000 0.1667 0.0000 (  3321 PWs)   bands (ev):

   -47.6086 -47.5937 -23.9223 -23.9215 -23.7750 -23.7741 -23.7154 -23.6857
    -8.8627  -7.7951  -7.1384  -7.0805   3.6445   3.9988   4.5167   5.4310
     5.4403   6.5277   6.6529   7.2764   8.3055   8.3588   8.5691   9.1490

          k = 0.0000 0.1667 0.1725 (  3304 PWs)   bands (ev):

   -47.6034 -47.5894 -23.9096 -23.9081 -23.7771 -23.7764 -23.7626 -23.7375
    -8.7372  -7.7154  -7.1983  -7.1377   3.8118   4.1394   4.6143   5.2766
     5.3651   6.7061   6.7653   7.0684   7.7514   8.3471   8.3996   9.0754

          k = 0.0000 0.1667 0.3450 (  3299 PWs)   bands (ev):

   -47.5901 -47.5787 -23.9130 -23.8889 -23.8699 -23.8646 -23.7637 -23.7616
    -8.4083  -7.5301  -7.3451  -7.2811   4.2380   4.4942   4.8327   5.1175
     5.4541   6.0418   6.6417   7.2947   7.3308   7.9271   7.9811   8.8613

          k = 0.0000 0.1667 0.5175 (  3305 PWs)   bands (ev):

   -47.5744 -47.5669 -24.0543 -24.0412 -23.8288 -23.8270 -23.7601 -23.7586
    -8.0069  -7.5425  -7.4214  -7.3285   4.6916   4.8202   4.9002   5.1674
     5.6150   5.8775   5.9972   7.1489   7.3001   7.5922   7.6833   8.3857

          k = 0.0000 0.1667 0.6900 (  3317 PWs)   bands (ev):

   -47.5630 -47.5604 -24.1464 -24.1421 -23.7922 -23.7910 -23.7653 -23.7642
    -7.7523  -7.6688  -7.4065  -7.2911   4.6537   4.7212   5.0614   5.2601
     5.7987   5.9573   6.5271   6.7454   6.8037   7.6165   7.6877   7.7250

          k = 0.0000 0.3333 0.0000 (  3294 PWs)   bands (ev):

   -47.6054 -47.5968 -23.8986 -23.8964 -23.8023 -23.8000 -23.7091 -23.6919
    -8.5893  -7.8965  -7.2913  -7.1768   4.0352   4.2473   5.0993   5.4597
     5.4772   6.2003   6.4323   7.2562   7.3708   7.9815   8.3570   8.8473

          k = 0.0000 0.3333 0.1725 (  3303 PWs)   bands (ev):

   -47.6004 -47.5923 -23.8881 -23.8839 -23.8060 -23.8008 -23.7563 -23.7397
    -8.4781  -7.8058  -7.3473  -7.2264   4.1888   4.3997   4.9889   5.2549
     5.5889   6.3948   6.5593   6.9822   7.0750   7.7914   8.3605   8.8402

          k = 0.0000 0.3333 0.3450 (  3302 PWs)   bands (ev):

   -47.5877 -47.5811 -23.9178 -23.9010 -23.8506 -23.8397 -23.7806 -23.7746
    -8.1987  -7.6013  -7.4655  -7.3385   4.5348   4.7980   4.8973   5.0480
     5.8605   6.0334   6.0854   6.9157   7.0247   7.7726   8.1670   8.6819

          k = 0.0000 0.3333 0.5175 (  3312 PWs)   bands (ev):

   -47.5728 -47.5685 -24.0582 -24.0503 -23.8132 -23.8084 -23.7726 -23.7684
    -7.9290  -7.6832  -7.3838  -7.3070   4.6647   4.8302   4.8648   5.1826
     5.5074   5.8750   6.3574   7.0285   7.0990   7.5755   7.8793   8.4763

          k = 0.0000 0.3333 0.6900 (  3320 PWs)   bands (ev):

   -47.5624 -47.5609 -24.1513 -24.1487 -23.7850 -23.7814 -23.7693 -23.7658
    -7.8505  -7.8019  -7.2558  -7.1875   4.3500   4.4342   5.0904   5.2583
     5.8018   6.1968   6.4428   6.9107   7.3828   7.3923   7.7198   8.1060

          k = 0.0000-0.5000 0.0000 (  3274 PWs)   bands (ev):

   -47.6011 -47.6011 -23.8776 -23.8776 -23.8220 -23.8220 -23.7005 -23.7005
    -8.2155  -8.2155  -7.2799  -7.2799   4.3239   4.3239   5.4833   5.4833
     6.0145   6.0145   6.2051   6.2051   7.6103   7.6103   8.5072   8.5072

          k = 0.0000-0.5000 0.1725 (  3306 PWs)   bands (ev):

   -47.5964 -47.5964 -23.8661 -23.8661 -23.8252 -23.8252 -23.7472 -23.7472
    -8.1196  -8.1196  -7.3262  -7.3262   4.4781   4.4781   5.2449   5.2449
     6.0215   6.0215   6.4885   6.4885   7.2018   7.2018   8.5745   8.5745

          k = 0.0000-0.5000 0.3450 (  3306 PWs)   bands (ev):

   -47.5843 -47.5843 -23.9127 -23.9127 -23.8311 -23.8311 -23.7889 -23.7889
    -7.9030  -7.9030  -7.4090  -7.4090   4.8190   4.8190   5.0770   5.0770
     5.7237   5.7237   6.5244   6.5244   7.2029   7.2029   8.4585   8.4585

          k = 0.0000-0.5000 0.5175 (  3324 PWs)   bands (ev):

   -47.5706 -47.5706 -24.0574 -24.0574 -23.7961 -23.7961 -23.7824 -23.7824
    -7.8172  -7.8172  -7.3357  -7.3357   4.7021   4.7021   5.0199   5.0199
     5.7539   5.7539   6.5645   6.5645   7.4224   7.4224   8.2351   8.2351

          k = 0.0000-0.5000 0.6900 (  3312 PWs)   bands (ev):

   -47.5616 -47.5616 -24.1528 -24.1528 -23.7776 -23.7776 -23.7704 -23.7704
    -7.8684  -7.8684  -7.1731  -7.1731   4.2550   4.2550   5.2211   5.2211
     5.9804   5.9804   6.7552   6.7552   7.3017   7.3017   8.2030   8.2030

          k = 0.1667 0.1667 0.0000 (  3311 PWs)   bands (ev):

   -47.6076 -47.5947 -23.9344 -23.8950 -23.8030 -23.7622 -23.7134 -23.6876
    -8.7791  -7.8142  -7.2327  -7.0756   3.6431   4.2129   4.6758   5.4051
     5.4779   6.3026   6.7518   7.3058   7.9657   8.2676   8.4550   9.0712

          k = 0.1667 0.1667 0.1725 (  3302 PWs)   bands (ev):

   -47.6025 -47.5903 -23.9204 -23.8836 -23.8053 -23.7641 -23.7600 -23.7394
    -8.6579  -7.7286  -7.2883  -7.1358   3.7995   4.3603   4.7124   5.3171
     5.3787   6.4623   6.9445   6.9789   7.5404   8.2607   8.3591   8.9405

          k = 0.1667 0.1667 0.3450 (  3311 PWs)   bands (ev):

   -47.5893 -47.5794 -23.9128 -23.8893 -23.8834 -23.8431 -23.7787 -23.7555
    -8.3424  -7.5239  -7.4234  -7.2886   4.2003   4.7064   4.7548   5.2106
     5.5905   5.9025   6.6265   7.0104   7.3767   7.8679   8.0788   8.7961

          k = 0.1667 0.1667 0.5175 (  3309 PWs)   bands (ev):

   -47.5739 -47.5674 -24.0561 -24.0424 -23.8368 -23.8093 -23.7715 -23.7547
    -7.9778  -7.5540  -7.4610  -7.3071   4.6670   4.8692   4.8706   4.9705
     5.6802   5.9658   6.1368   7.0544   7.1723   7.6788   7.7536   8.4644

          k = 0.1667 0.1667 0.6900 (  3318 PWs)   bands (ev):

   -47.5628 -47.5605 -24.1496 -24.1417 -23.7962 -23.7824 -23.7678 -23.7640
    -7.8361  -7.5734  -7.4927  -7.2082   4.4447   4.9464   5.0420   5.0697
     5.3879   6.4161   6.5649   6.8224   6.9162   7.5128   7.8087   7.8328

          k = 0.1667 0.3333 0.0000 (  3295 PWs)   bands (ev):

   -47.6048 -47.5974 -23.9271 -23.8780 -23.8217 -23.7711 -23.7079 -23.6930
    -8.5506  -7.9469  -7.3092  -7.1448   3.8116   4.3756   5.1868   5.4101
     5.4830   6.1938   6.6108   7.3874   7.4330   8.0108   8.1574   8.7535

          k = 0.1667 0.3333 0.1725 (  3296 PWs)   bands (ev):

   -47.5999 -47.5929 -23.9139 -23.8662 -23.8253 -23.7732 -23.7553 -23.7419
    -8.4394  -7.8545  -7.3598  -7.2002   3.9594   4.5356   4.9560   5.2537
     5.6469   6.4417   6.6755   6.9164   7.3777   7.8279   8.2159   8.6682

          k = 0.1667 0.3333 0.3450 (  3308 PWs)   bands (ev):

   -47.5872 -47.5815 -23.9141 -23.9009 -23.8712 -23.8298 -23.7892 -23.7601
    -8.1604  -7.6494  -7.4581  -7.3342   4.3297   4.7570   4.8937   5.0878
     5.7741   6.0973   6.4016   6.8684   7.2683   7.7487   8.0823   8.5766

          k = 0.1667 0.3333 0.5175 (  3313 PWs)   bands (ev):

   -47.5725 -47.5687 -24.0574 -24.0476 -23.8310 -23.7957 -23.7826 -23.7578
    -7.8980  -7.6558  -7.4328  -7.3142   4.6102   4.7129   4.8158   5.1724
     5.4244   6.0658   6.4904   6.9138   7.2060   7.5790   7.9673   8.5124

          k = 0.1667 0.3333 0.6900 (  3311 PWs)   bands (ev):

   -47.5623 -47.5610 -24.1520 -24.1448 -23.7932 -23.7766 -23.7714 -23.7645
    -7.8745  -7.7084  -7.3461  -7.1636   4.2649   4.5603   5.0578   5.2576
     5.3748   6.3549   6.5650   6.7736   7.2811   7.7096   7.8419   8.2230

          k = 0.1667-0.5000 0.0000 (  3296 PWs)   bands (ev):

   -47.6011 -47.6011 -23.9026 -23.9026 -23.7972 -23.7972 -23.7005 -23.7005
    -8.2368  -8.2368  -7.2519  -7.2519   4.1379   4.1379   5.4478   5.4478
     5.9014   5.9014   6.7239   6.7239   7.6886   7.6886   8.3218   8.3218

          k = 0.1667-0.5000 0.1725 (  3300 PWs)   bands (ev):

   -47.5964 -47.5964 -23.8910 -23.8910 -23.8001 -23.8001 -23.7475 -23.7475
    -8.1377  -8.1377  -7.3005  -7.3005   4.2881   4.2881   5.1548   5.1548
     6.1386   6.1386   6.8557   6.8557   7.2698   7.2698   8.3799   8.3799

          k = 0.1667-0.5000 0.3450 (  3296 PWs)   bands (ev):

   -47.5843 -47.5843 -23.9106 -23.9106 -23.8476 -23.8476 -23.7749 -23.7749
    -7.9066  -7.9066  -7.3998  -7.3998   4.6504   4.6504   4.8828   4.8828
     6.0028   6.0028   6.7508   6.7508   7.2780   7.2780   8.3112   8.3112

          k = 0.1667-0.5000 0.5175 (  3314 PWs)   bands (ev):

   -47.5706 -47.5706 -24.0542 -24.0542 -23.8138 -23.8138 -23.7684 -23.7684
    -7.7843  -7.7843  -7.3662  -7.3662   4.6084   4.6084   4.9642   4.9642
     5.7434   5.7434   6.7751   6.7751   7.4063   7.4063   8.2731   8.2731

          k = 0.1667-0.5000 0.6900 (  3310 PWs)   bands (ev):

   -47.5616 -47.5616 -24.1498 -24.1498 -23.7847 -23.7847 -23.7670 -23.7670
    -7.8283  -7.8283  -7.2137  -7.2137   4.2818   4.2818   5.1480   5.1480
     5.8627   5.8627   6.6830   6.6830   7.5228   7.5228   8.2829   8.2829

          k = 0.3333 0.3333 0.0000 (  3287 PWs)   bands (ev):

   -47.6032 -47.5989 -23.9407 -23.9052 -23.7952 -23.7583 -23.7047 -23.6961
    -8.4391  -8.0898  -7.2764  -7.1402   3.6899   4.1581   5.3700   5.4379
     5.5572   6.4026   6.9214   7.4479   7.6181   7.7581   8.0028   8.5614

          k = 0.3333 0.3333 0.1725 (  3301 PWs)   bands (ev):

   -47.5984 -47.5943 -23.9264 -23.8935 -23.7988 -23.7563 -23.7555 -23.7468
    -8.3304  -7.9944  -7.3259  -7.1988   3.8346   4.3086   4.9754   5.1662
     5.9777   6.7424   6.9471   7.0685   7.4422   7.8611   7.8807   8.3545

          k = 0.3333 0.3333 0.3450 (  3305 PWs)   bands (ev):

   -47.5860 -47.5827 -23.9086 -23.8958 -23.8886 -23.8477 -23.7736 -23.7525
    -8.0565  -7.7680  -7.4268  -7.3451   4.2101   4.6746   4.6827   4.8500
     6.1130   6.4564   6.6393   7.1125   7.3820   7.7381   7.8566   8.2891

          k = 0.3333 0.3333 0.5175 (  3311 PWs)   bands (ev):

   -47.5717 -47.5695 -24.0532 -24.0448 -23.8405 -23.8152 -23.7675 -23.7530
    -7.8140  -7.6079  -7.5115  -7.3622   4.5534   4.5985   4.6312   4.9854
     5.5946   6.0811   6.8263   6.9053   7.2936   7.6891   8.0525   8.4974

          k = 0.3333 0.3333 0.6900 (  3307 PWs)   bands (ev):

   -47.5620 -47.5612 -24.1488 -24.1417 -23.7981 -23.7851 -23.7670 -23.7640
    -7.8337  -7.6199  -7.4306  -7.2039   4.2400   4.6572   4.8432   5.0076
     5.4412   6.1566   6.5745   6.6421   7.5940   7.8852   8.1450   8.4477

          k = 0.3333-0.5000 0.0000 (  3302 PWs)   bands (ev):

   -47.6011 -47.6011 -23.9324 -23.9324 -23.7677 -23.7677 -23.7004 -23.7004
    -8.2744  -8.2744  -7.1981  -7.1981   3.8275   3.8275   5.3823   5.3823
     6.1320   6.1320   7.1914   7.1914   7.8528   7.8528   8.0816   8.0816

          k = 0.3333-0.5000 0.1725 (  3298 PWs)   bands (ev):

   -47.5963 -47.5963 -23.9189 -23.9189 -23.7710 -23.7710 -23.7491 -23.7491
    -8.1712  -8.1712  -7.2520  -7.2520   3.9733   3.9733   5.0577   5.0577
     6.4853   6.4853   7.3350   7.3350   7.4324   7.4324   8.0097   8.0097

          k = 0.3333-0.5000 0.3450 (  3314 PWs)   bands (ev):

   -47.5843 -47.5843 -23.9040 -23.9040 -23.8723 -23.8723 -23.7576 -23.7576
    -7.9149  -7.9149  -7.3826  -7.3826   4.3401   4.3401   4.7138   4.7138
     6.4462   6.4462   7.0559   7.0559   7.5222   7.5222   7.9419   7.9419

          k = 0.3333-0.5000 0.5175 (  3316 PWs)   bands (ev):

   -47.5706 -47.5706 -24.0473 -24.0473 -23.8340 -23.8340 -23.7563 -23.7563
    -7.6974  -7.6974  -7.4496  -7.4496   4.5116   4.5116   4.7383   4.7383
     5.8733   5.8733   6.9439   6.9439   7.5496   7.5496   8.2879   8.2879

          k = 0.3333-0.5000 0.6900 (  3308 PWs)   bands (ev):

   -47.5616 -47.5616 -24.1437 -24.1437 -23.7946 -23.7946 -23.7646 -23.7646
    -7.7247  -7.7247  -7.3184  -7.3184   4.3786   4.3786   4.9076   4.9076
     5.7442   5.7442   6.6089   6.6089   7.8216   7.8216   8.4530   8.4530

          k =-0.5000-0.5000 0.0000 (  3312 PWs)   bands (ev):

   -47.6011 -47.6011 -23.9439 -23.9439 -23.7564 -23.7564 -23.7004 -23.7004
    -8.2920  -8.2920  -7.1727  -7.1727   3.6935   3.6935   5.3521   5.3521
     6.3951   6.3951   7.0714   7.0714   7.9382   7.9382   8.1855   8.1855

          k =-0.5000-0.5000 0.1725 (  3316 PWs)   bands (ev):

   -47.5963 -47.5963 -23.9294 -23.9294 -23.7553 -23.7553 -23.7545 -23.7545
    -8.1873  -8.1873  -7.2295  -7.2295   3.8380   3.8380   5.0224   5.0224
     6.8677   6.8677   7.1574   7.1574   7.5205   7.5205   8.0171   8.0171

          k =-0.5000-0.5000 0.3450 (  3316 PWs)   bands (ev):

   -47.5843 -47.5843 -23.8920 -23.8920 -23.8912 -23.8912 -23.7511 -23.7511
    -7.9189  -7.9189  -7.3736  -7.3736   4.2103   4.2103   4.6569   4.6569
     6.6721   6.6721   7.3854   7.3854   7.3927   7.3927   7.7898   7.7898

          k =-0.5000-0.5000 0.5175 (  3292 PWs)   bands (ev):

   -47.5706 -47.5706 -24.0436 -24.0436 -23.8424 -23.8424 -23.7521 -23.7521
    -7.6079  -7.6079  -7.5358  -7.5358   4.5147   4.5147   4.5918   4.5918
     5.9521   5.9521   6.9581   6.9581   7.7027   7.7027   8.2627   8.2627

          k =-0.5000-0.5000 0.6900 (  3292 PWs)   bands (ev):

   -47.5616 -47.5616 -24.1405 -24.1405 -23.7991 -23.7991 -23.7640 -23.7640
    -7.6430  -7.6430  -7.3996  -7.3996   4.5197   4.5197   4.6813   4.6813
     5.7224   5.7224   6.5855   6.5855   7.9375   7.9375   8.5419   8.5419

     highest occupied level (ev):     9.2525

!    total energy              =    -359.24862876 Ry
     estimated scf accuracy    <       0.00000013 Ry

     The total energy is the sum of the following terms:
     one-electron contribution =    -121.82011472 Ry
     hartree contribution      =      83.65667103 Ry
     xc contribution           =     -56.77342433 Ry
     ewald contribution        =    -264.31176074 Ry

     convergence has been achieved in  13 iterations

     Forces acting on atoms (cartesian axes, Ry/au):

     atom    1 type  1   force =     0.00000000    0.00000000    0.00000000
     atom    2 type  1   force =     0.00000000    0.00000000    0.00000000
     atom    3 type  2   force =    -0.00241255   -0.00241255   -0.00000000
     atom    4 type  2   force =     0.00241255    0.00241255   -0.00000000
     atom    5 type  2   force =    -0.00241255    0.00241255   -0.00000000
     atom    6 type  2   force =     0.00241255   -0.00241255   -0.00000000

     Total force =     0.006824     Total SCF correction =     0.000106
 
     init_run     :      0.05s CPU      0.24s WALL (       1 calls)
     electrons    :      2.85s CPU      3.03s WALL (       1 calls)
     forces       :      0.02s CPU      0.02s WALL (       1 calls)

     Called by init_run:
     wfcinit      :      0.03s CPU      0.12s WALL (       1 calls)
     potinit      :      0.01s CPU      0.01s WALL (       1 calls)
     hinit0       :      0.01s CPU      0.08s WALL (       1 calls)

     Called by electrons:
     c_bands      :      2.62s CPU      2.76s WALL (      13 calls)
     sum_band     :      0.20s CPU      0.21s WALL (      13 calls)
     v_of_rho     :      0.02s CPU      0.03s WALL (      14 calls)
     mix_rho      :      0.00s CPU      0.01s WALL (      13 calls)

     Called by c_bands:
     init_us_2    :      0.03s CPU      0.03s WALL (     476 calls)
     init_us_2:cp :      0.03s CPU      0.03s WALL (     476 calls)
     cegterg      :      2.21s CPU      2.29s WALL (     221 calls)

     Called by *egterg:
     cdiaghg      :      0.66s CPU      0.74s WALL (    1530 calls)
     h_psi        :      1.32s CPU      1.38s WALL (    1547 calls)
     g_psi        :      0.01s CPU      0.01s WALL (    1309 calls)

     Called by h_psi:
     h_psi:calbec :      0.08s CPU      0.10s WALL (    1547 calls)
     vloc_psi     :      1.17s CPU      1.21s WALL (    1547 calls)
     add_vuspsi   :      0.06s CPU      0.06s WALL (    1547 calls)

     General routines
     calbec       :      0.09s CPU      0.10s WALL (    1615 calls)
     fft          :      0.01s CPU      0.07s WALL (     141 calls)
     ffts         :      0.00s CPU      0.00s WALL (      13 calls)
     fftw         :      1.15s CPU      1.20s WALL (   45562 calls)
 
     Parallel routines
 
     PWSCF        :      2.94s CPU      3.48s WALL

 
   This run was terminated on:  14: 2:11  23Jul2026            

=------------------------------------------------------------------------------=
   JOB DONE.
=------------------------------------------------------------------------------=
