../4_layer/output final structure
1.0
   6.502766464   0.000000000   0.000000000
   0.000000000   2.961493854   0.000000000
   0.000000000   0.000000000  34.972942352
   Ti    O
    8   16
Cartesian
              3.2513830380        0.0000000000       13.3470461998
              0.0000000000        1.4807468392       12.8191708959
              0.0000000000        0.0000000000       16.1548315287
              3.2513830380        1.4807468392       16.6071917999
              3.2513830380        0.0000000000       20.0880811136
              0.0000000000        1.4807468392       19.6312593093
              0.0000000000        0.0000000000       22.8907052689
              3.2513830380        1.4807468392       23.4223009798
              0.0000000000        0.0000000000       11.7535613790
              3.2513830380        0.0000000000       15.1411926766
              0.0000000000        0.0000000000       14.3430311025
              2.0228766407        1.4807468392       12.9706235683
              4.4798896294        1.4807468392       12.9706235683
              0.0000000000        0.0000000000       18.4972480004
              3.2513830380        0.0000000000       17.7410308901
              5.2269155552        1.4807469272       16.4040769497
              1.2758509081        1.4807469272       16.4040769497
              3.2513830380        0.0000000000       21.8991088646
              0.0000000000        0.0000000000       21.0955737467
              1.9750875505        1.4807468392       19.8417019316
              4.5276787196        1.4807468392       19.8417019316
              3.2513830380        0.0000000000       24.4877159895
              5.2751201865        1.4807469272       23.2711632322
              1.2276462768        1.4807469272       23.2711632322
