../8_layer/output final structure
1.0
   6.525273598   0.000000000   0.000000000
   0.000000000   2.967221862   0.000000000
   0.000000000   0.000000000  47.965885162
   Ti    O
   16   32
Cartesian
               3.2626366046        0.0000000000       13.2140667313
               0.0000000000        1.4836108430       12.7293562527
               0.0000000000        0.0000000000       16.0729380141
               3.2626366046        1.4836108430       16.4537919165
               3.2626366046        0.0000000000       19.8177787073
               0.0000000000        1.4836108430       19.5128598318
               0.0000000000        0.0000000000       22.7921893410
               3.2626366046        1.4836108430       23.0753822137
               3.2626366046        0.0000000000       26.4420623214
               0.0000000000        1.4836108430       26.1587164976
               0.0000000000        0.0000000000       29.4161471391
               3.2626366046        1.4836108430       29.7213499872
               3.2626366046        0.0000000000       33.1606938901
               0.0000000000        1.4836108430       32.7797749451
               0.0000000000        0.0000000000       36.0202489944
               3.2626366046        1.4836108430       36.5053798065
               0.0000000000        0.0000000000       11.6629389966
               3.2626366046        0.0000000000       15.0141211483
               0.0000000000        0.0000000000       14.2475604456
               2.0332185642        1.4836108430       12.8512525756
               4.4920548398        1.4836108430       12.8512525756
               0.0000000000        0.0000000000       18.3445614905
               3.2626366046        0.0000000000       17.5989024608
               5.2389292190        1.4836109312       16.2838898328
               1.2863443789        1.4836109312       16.2838898328
               3.2626366046        0.0000000000       21.6811857107
               0.0000000000        0.0000000000       20.9219497713
               1.9951034875        1.4836108430       19.6415608008
               4.5301699166        1.4836108430       19.6415608008
               0.0000000000        0.0000000000       24.9810575281
               3.2626366046        0.0000000000       24.2531333911
               5.2506546921        1.4836109312       22.9504421892
               1.2746189058        1.4836109312       22.9504421892
               3.2626366046        0.0000000000       28.3121402133
               0.0000000000        0.0000000000       27.5529388818
               1.9880392199        1.4836108430       26.2836624223
               4.5372341841        1.4836108430       26.2836624223
               0.0000000000        0.0000000000       31.6343151033
               3.2626366046        0.0000000000       30.8895684304
               5.2577141632        1.4836109312       29.5918743463
               1.2675594347        1.4836109312       29.5918743463
               3.2626366046        0.0000000000       34.9861398615
               0.0000000000        0.0000000000       34.2200855355
               1.9761594155        1.4836108430       32.9493551592
               4.5491139885        1.4836108430       32.9493551592
               3.2626366046        0.0000000000       37.5718588883
               5.2961827427        1.4836109312       36.3848361859
               1.2290908552        1.4836109312       36.3848361859
