vc-relax TiO2-R
1.0
   4.641475601   0.000000000   0.000000000
   0.000000000   4.641475601   0.000000000
   0.000000000   0.000000000   2.968636543
Ti O
2  4
Cartesian
            0.0000000000        0.0000000000        0.0000000000
            2.3207378004        2.3207378004        1.4843182717
            1.4157671296        1.4157671296       -0.0000000000
            3.2257084714        3.2257084714       -0.0000000000
            3.7365049300        0.9049706710        1.4843182717
            0.9049706710        3.7365049300        1.4843182717
