
     Program PWSCF v.7.1 starts on 13Jul2026 at 13:58:19 

     This program is part of the open-source Quantum ESPRESSO suite
     for quantum simulation of materials; please cite
         "P. Giannozzi et al., J. Phys.:Condens. Matter 21 395502 (2009);
         "P. Giannozzi et al., J. Phys.:Condens. Matter 29 465901 (2017);
         "P. Giannozzi et al., J. Chem. Phys. 152 154105 (2020);
          URL http://www.quantum-espresso.org", 
     in publications or presentations arising from this work. More details at
     http://www.quantum-espresso.org/quote

     Parallel version (MPI), running on    36 processors

     MPI processes distributed on     1 nodes
     179014 MiB available memory on the printing compute node when the environment starts
 
     Waiting for input...
     Reading input from standard input

     Current dimensions of program PWSCF are:
     Max number of different atomic species (ntypx) = 10
     Max number of k-points (npk) =  40000
     Max angular momentum in pseudopotentials (lmaxx) =  4
     Message from routine setup:
     using ibrav=0 with symmetry is DISCOURAGED, use correct ibrav instead
 
     K-points division:     npool     =       3
     R & G space division:  proc/nbgrp/npool/nimage =      12
     Subspace diagonalization in iterative solution of the eigenvalue problem:
     a serial algorithm will be used

 
     Parallelization info
     --------------------
     sticks:   dense  smooth     PW     G-vecs:    dense   smooth      PW
     Min         114     114     33                 2214     2214     353
     Max         115     115     34                 2217     2217     356
     Sum        1369    1369    405                26589    26589    4251
 
     Using Slab Decomposition
 


     bravais-lattice index     =            0
     lattice parameter (alat)  =       8.4977  a.u.
     unit-cell volume          =     423.6931 (a.u.)^3
     number of atoms/cell      =            6
     number of atomic types    =            2
     number of electrons       =        56.00
     number of Kohn-Sham states=           28
     kinetic-energy cutoff     =      60.0000  Ry
     charge density cutoff     =     240.0000  Ry
     scf convergence threshold =      1.0E-06
     mixing beta               =       0.7000
     number of iterations used =            8  plain     mixing
     Exchange-correlation= PBE
                           (   1   4   3   4   0   0   0)

     celldm(1)=   8.497720  celldm(2)=   0.000000  celldm(3)=   0.000000
     celldm(4)=   0.000000  celldm(5)=   0.000000  celldm(6)=   0.000000

     crystal axes: (cart. coord. in units of alat)
               a(1) = (   1.000000   0.000000   0.000000 )  
               a(2) = (   0.000000   1.000000   0.000000 )  
               a(3) = (   0.000000   0.000000   0.690469 )  

     reciprocal axes: (cart. coord. in units 2 pi/alat)
               b(1) = (  1.000000  0.000000  0.000000 )  
               b(2) = (  0.000000  1.000000  0.000000 )  
               b(3) = (  0.000000  0.000000  1.448291 )  


     PseudoPot. # 1 for Ru read from file:
     ./Ru_ONCV_PBE-1.2.upf
     MD5 check sum: 197966c748556f6a714a34a8c7eb0781
     Pseudo is Norm-conserving, Zval = 16.0
     Generated using ONCVPSP code by D. R. Hamann
     Using radial grid of  602 points,  6 beta functions with: 
                l(1) =   0
                l(2) =   0
                l(3) =   1
                l(4) =   1
                l(5) =   2
                l(6) =   2

     PseudoPot. # 2 for O  read from file:
     ./O_ONCV_PBE-1.2.upf
     MD5 check sum: e36c48deb68f4e355fffe4602be2c42c
     Pseudo is Norm-conserving, Zval =  6.0
     Generated using ONCVPSP code by D. R. Hamann
     Using radial grid of  602 points,  4 beta functions with: 
                l(1) =   0
                l(2) =   0
                l(3) =   1
                l(4) =   1

     atomic species   valence    mass     pseudopotential
        Ru            16.00   101.07000     Ru( 1.00)
        O              6.00    15.99900     O ( 1.00)

     16 Sym. Ops., with inversion, found ( 8 have fractional translation)



   Cartesian axes

     site n.     atom                  positions (alat units)
         1           Ru  tau(   1) = (   0.0000000   0.0000000   0.0000000  )
         2           Ru  tau(   2) = (   0.5000000   0.5000000   0.3452344  )
         3           O   tau(   3) = (   0.3053000   0.3053000   0.0000000  )
         4           O   tau(   4) = (   0.6947000   0.6947000   0.0000000  )
         5           O   tau(   5) = (   0.8053000   0.1947000   0.3452344  )
         6           O   tau(   6) = (   0.1947000   0.8053000   0.3452344  )

     number of k points=    48
                       cart. coord. in units 2pi/alat
        k(    1) = (   0.0000000   0.0000000   0.0000000), wk =   0.0053333
        k(    2) = (   0.0000000   0.0000000   0.0965528), wk =   0.0106667
        k(    3) = (   0.0000000   0.0000000   0.1931055), wk =   0.0106667
        k(    4) = (   0.0000000   0.0000000   0.2896583), wk =   0.0106667
        k(    5) = (   0.0000000   0.0000000   0.3862110), wk =   0.0106667
        k(    6) = (   0.0000000   0.0000000   0.4827638), wk =   0.0106667
        k(    7) = (   0.0000000   0.0000000   0.5793166), wk =   0.0106667
        k(    8) = (   0.0000000   0.0000000   0.6758693), wk =   0.0106667
        k(    9) = (   0.0000000   0.2000000   0.0000000), wk =   0.0213333
        k(   10) = (   0.0000000   0.2000000   0.0965528), wk =   0.0426667
        k(   11) = (   0.0000000   0.2000000   0.1931055), wk =   0.0426667
        k(   12) = (   0.0000000   0.2000000   0.2896583), wk =   0.0426667
        k(   13) = (   0.0000000   0.2000000   0.3862110), wk =   0.0426667
        k(   14) = (   0.0000000   0.2000000   0.4827638), wk =   0.0426667
        k(   15) = (   0.0000000   0.2000000   0.5793166), wk =   0.0426667
        k(   16) = (   0.0000000   0.2000000   0.6758693), wk =   0.0426667
        k(   17) = (   0.0000000   0.4000000   0.0000000), wk =   0.0213333
        k(   18) = (   0.0000000   0.4000000   0.0965528), wk =   0.0426667
        k(   19) = (   0.0000000   0.4000000   0.1931055), wk =   0.0426667
        k(   20) = (   0.0000000   0.4000000   0.2896583), wk =   0.0426667
        k(   21) = (   0.0000000   0.4000000   0.3862110), wk =   0.0426667
        k(   22) = (   0.0000000   0.4000000   0.4827638), wk =   0.0426667
        k(   23) = (   0.0000000   0.4000000   0.5793166), wk =   0.0426667
        k(   24) = (   0.0000000   0.4000000   0.6758693), wk =   0.0426667
        k(   25) = (   0.2000000   0.2000000   0.0000000), wk =   0.0213333
        k(   26) = (   0.2000000   0.2000000   0.0965528), wk =   0.0426667
        k(   27) = (   0.2000000   0.2000000   0.1931055), wk =   0.0426667
        k(   28) = (   0.2000000   0.2000000   0.2896583), wk =   0.0426667
        k(   29) = (   0.2000000   0.2000000   0.3862110), wk =   0.0426667
        k(   30) = (   0.2000000   0.2000000   0.4827638), wk =   0.0426667
        k(   31) = (   0.2000000   0.2000000   0.5793166), wk =   0.0426667
        k(   32) = (   0.2000000   0.2000000   0.6758693), wk =   0.0426667
        k(   33) = (   0.2000000   0.4000000   0.0000000), wk =   0.0426667
        k(   34) = (   0.2000000   0.4000000   0.0965528), wk =   0.0853333
        k(   35) = (   0.2000000   0.4000000   0.1931055), wk =   0.0853333
        k(   36) = (   0.2000000   0.4000000   0.2896583), wk =   0.0853333
        k(   37) = (   0.2000000   0.4000000   0.3862110), wk =   0.0853333
        k(   38) = (   0.2000000   0.4000000   0.4827638), wk =   0.0853333
        k(   39) = (   0.2000000   0.4000000   0.5793166), wk =   0.0853333
        k(   40) = (   0.2000000   0.4000000   0.6758693), wk =   0.0853333
        k(   41) = (   0.4000000   0.4000000   0.0000000), wk =   0.0213333
        k(   42) = (   0.4000000   0.4000000   0.0965528), wk =   0.0426667
        k(   43) = (   0.4000000   0.4000000   0.1931055), wk =   0.0426667
        k(   44) = (   0.4000000   0.4000000   0.2896583), wk =   0.0426667
        k(   45) = (   0.4000000   0.4000000   0.3862110), wk =   0.0426667
        k(   46) = (   0.4000000   0.4000000   0.4827638), wk =   0.0426667
        k(   47) = (   0.4000000   0.4000000   0.5793166), wk =   0.0426667
        k(   48) = (   0.4000000   0.4000000   0.6758693), wk =   0.0426667

     Dense  grid:    26589 G-vectors     FFT dimensions: (  48,  48,  30)

     Estimated max dynamical RAM per process >       6.90 MB

     Estimated total dynamical RAM >     235.31 MB

     Initial potential from superposition of free atoms

     starting charge      55.8739, renormalised to      56.0000
     Starting wfcs are random

     total cpu time spent up to now is        0.1 secs

     per-process dynamical memory:   112.5 Mb

     Self-consistent Calculation

     iteration #  1     ecut=    60.00 Ry     beta= 0.70
     Davidson diagonalization with overlap
     ethr =  1.00E-02,  avg # of iterations = 10.2

     total cpu time spent up to now is        0.6 secs

     total energy              =    -504.25995848 Ry
     estimated scf accuracy    <       0.92673743 Ry

     iteration #  2     ecut=    60.00 Ry     beta= 0.70
     Davidson diagonalization with overlap
     ethr =  1.65E-03,  avg # of iterations =  6.4

     total cpu time spent up to now is        0.9 secs

     total energy              =    -504.21836709 Ry
     estimated scf accuracy    <       3.95077721 Ry

     iteration #  3     ecut=    60.00 Ry     beta= 0.70
     Davidson diagonalization with overlap
     ethr =  1.65E-03,  avg # of iterations =  5.9

     total cpu time spent up to now is        1.2 secs

     total energy              =    -504.88056856 Ry
     estimated scf accuracy    <       0.02179573 Ry

     iteration #  4     ecut=    60.00 Ry     beta= 0.70
     Davidson diagonalization with overlap
     ethr =  3.89E-05,  avg # of iterations =  5.1

     total cpu time spent up to now is        1.4 secs

     total energy              =    -504.89178619 Ry
     estimated scf accuracy    <       0.01580605 Ry

     iteration #  5     ecut=    60.00 Ry     beta= 0.70
     Davidson diagonalization with overlap
     ethr =  2.82E-05,  avg # of iterations =  5.1

     total cpu time spent up to now is        1.7 secs

     total energy              =    -504.89591025 Ry
     estimated scf accuracy    <       0.00051667 Ry

     iteration #  6     ecut=    60.00 Ry     beta= 0.70
     Davidson diagonalization with overlap
     ethr =  9.23E-07,  avg # of iterations =  5.7

     total cpu time spent up to now is        1.9 secs

     total energy              =    -504.89645451 Ry
     estimated scf accuracy    <       0.00002883 Ry

     iteration #  7     ecut=    60.00 Ry     beta= 0.70
     Davidson diagonalization with overlap
     ethr =  5.15E-08,  avg # of iterations =  7.8

     total cpu time spent up to now is        2.2 secs

     total energy              =    -504.89647014 Ry
     estimated scf accuracy    <       0.00000258 Ry

     iteration #  8     ecut=    60.00 Ry     beta= 0.70
     Davidson diagonalization with overlap
     ethr =  4.61E-09,  avg # of iterations =  6.7

     total cpu time spent up to now is        2.5 secs

     total energy              =    -504.89647145 Ry
     estimated scf accuracy    <       0.00000521 Ry

     iteration #  9     ecut=    60.00 Ry     beta= 0.70
     Davidson diagonalization with overlap
     ethr =  4.61E-09,  avg # of iterations =  4.0

     total cpu time spent up to now is        2.7 secs

     End of self-consistent calculation

          k = 0.0000 0.0000 0.0000 (  3363 PWs)   bands (ev):

   -60.3123 -60.3055 -30.5948 -30.5948 -30.1561 -30.1561 -30.1534 -30.1291
    -7.0465  -6.0130  -5.0471  -5.0471   4.7066   4.8478   5.9623   6.3770
     6.3770   8.9408   8.9576   8.9576  10.4134  10.8449  10.8449  11.3770
    11.6503  11.7577  11.8473  11.8473

          k = 0.0000 0.0000 0.0966 (  3359 PWs)   bands (ev):

   -60.3118 -60.3051 -30.5942 -30.5942 -30.1611 -30.1548 -30.1548 -30.1374
    -7.0065  -5.9914  -5.0709  -5.0709   4.7534   4.9086   6.0086   6.3902
     6.3902   8.7933   9.0095   9.0095  10.1553  10.6176  10.6176  11.3370
    11.7507  11.8429  12.0697  12.0697

          k = 0.0000 0.0000 0.1931 (  3351 PWs)   bands (ev):

   -60.3103 -60.3041 -30.5923 -30.5923 -30.1829 -30.1608 -30.1514 -30.1514
    -6.8932  -5.9298  -5.1378  -5.1378   4.8830   5.0867   6.1490   6.4340
     6.4340   8.4283   9.1479   9.1479   9.6169  10.1873  10.1873  11.1524
    11.7905  12.1827  12.3440  12.4860

          k = 0.0000 0.0000 0.2897 (  3327 PWs)   bands (ev):

   -60.3080 -60.3025 -30.5895 -30.5895 -30.2147 -30.1953 -30.1462 -30.1462
    -6.7161  -5.8447  -5.2348  -5.2348   5.0799   5.3575   6.3788   6.5157
     6.5157   7.9595   9.0383   9.3143   9.3143   9.7564   9.7564  10.8045
    11.9193  12.3623  12.4907  12.9207

          k = 0.0000 0.0000 0.3862 (  3318 PWs)   bands (ev):

   -60.3054 -60.3008 -30.5864 -30.5864 -30.2507 -30.2349 -30.1403 -30.1403
    -6.4985  -5.7583  -5.3444  -5.3444   5.3119   5.6734   6.6361   6.6361
     6.6927   7.5141   8.4971   9.2020   9.2020   9.6280   9.6280  10.3366
    12.1193  12.3607  12.7137  13.3210

          k = 0.0000 0.0000 0.4828 (  3330 PWs)   bands (ev):

   -60.3027 -60.2993 -30.5833 -30.5833 -30.2847 -30.2729 -30.1347 -30.1347
    -6.2649  -5.6975  -5.4475  -5.4475   5.5380   5.9416   6.7884   6.7884
     7.0860   7.2059   8.0485   8.8355   8.8355   9.7618   9.7618   9.7943
    12.3641  12.3741  12.8233  13.6587

          k = 0.0000 0.0000 0.5793 (  3334 PWs)   bands (ev):

   -60.3004 -60.2983 -30.5810 -30.5810 -30.3103 -30.3031 -30.1302 -30.1302
    -6.0433  -5.6866  -5.5259  -5.5259   5.7227   6.0317   6.9510   6.9510
     7.1496   7.5502   7.7215   8.5173   8.5173   9.2171   9.8657   9.8657
    12.4100  12.6732  12.8041  13.6971

          k = 0.0000 0.0000 0.6759 (  3326 PWs)   bands (ev):

   -60.2988 -60.2981 -30.5797 -30.5797 -30.3232 -30.3208 -30.1278 -30.1278
    -5.8609  -5.7387  -5.5685  -5.5685   5.8572   5.9644   7.0703   7.0703
     7.2928   7.4863   8.0721   8.3225   8.3225   8.6352   9.9176   9.9176
    12.5219  12.6780  13.0036  13.3496

          k = 0.0000 0.2000 0.0000 (  3315 PWs)   bands (ev):

   -60.3116 -60.3061 -30.5940 -30.5939 -30.1575 -30.1574 -30.1510 -30.1314
    -6.8981  -5.9773  -5.2269  -5.1341   4.9989   5.1797   6.2412   6.4109
     6.4279   8.4533   8.5919   8.8305   9.8864   9.9539  10.4614  11.2211
    12.0311  12.1601  12.2972  12.3526

          k = 0.0000 0.2000 0.0966 (  3327 PWs)   bands (ev):

   -60.3111 -60.3057 -30.5934 -30.5933 -30.1594 -30.1564 -30.1555 -30.1393
    -6.8614  -5.9534  -5.2487  -5.1563   5.0417   5.2303   6.2324   6.4159
     6.5019   8.4961   8.5808   8.7273   9.5818  10.0465  10.3823  11.1807
    12.0332  12.2372  12.2414  12.5654

          k = 0.0000 0.2000 0.1931 (  3329 PWs)   bands (ev):

   -60.3097 -60.3046 -30.5917 -30.5917 -30.1809 -30.1641 -30.1522 -30.1512
    -6.7550  -5.8873  -5.3085  -5.2162   5.1645   5.3744   6.2544   6.4449
     6.6796   8.2217   8.5415   8.8270   9.1924   9.9704  10.1504  11.0761
    11.8854  12.4673  12.4708  12.7660

          k = 0.0000 0.2000 0.2897 (  3326 PWs)   bands (ev):

   -60.3075 -60.3030 -30.5893 -30.5893 -30.2127 -30.1975 -30.1469 -30.1466
    -6.5918  -5.8000  -5.3892  -5.3016   5.3440   5.5830   6.3397   6.5100
     6.9376   7.7474   8.2855   9.0055   9.1203   9.7479   9.8298  10.9128
    11.7679  12.6999  12.7357  12.8419

          k = 0.0000 0.2000 0.3862 (  3326 PWs)   bands (ev):

   -60.3049 -60.3012 -30.5866 -30.5865 -30.2489 -30.2364 -30.1407 -30.1405
    -6.3973  -5.7296  -5.4590  -5.3909   5.5422   5.8108   6.4463   6.6191
     7.2444   7.3988   7.8593   9.0842   9.2580   9.4597   9.5698  10.6063
    11.8187  12.6868  12.8884  13.0614

          k = 0.0000 0.2000 0.4828 (  3319 PWs)   bands (ev):

   -60.3024 -60.2996 -30.5841 -30.5840 -30.2829 -30.2736 -30.1348 -30.1347
    -6.2008  -5.7345  -5.4679  -5.4620   5.7100   6.0117   6.4045   6.7257
     7.3188   7.5531   7.6860   8.8672   9.0864   9.4642   9.5765  10.1750
    12.0121  12.6073  12.9140  13.1762

          k = 0.0000 0.2000 0.5793 (  3331 PWs)   bands (ev):

   -60.3002 -60.2985 -30.5821 -30.5821 -30.3088 -30.3031 -30.1301 -30.1301
    -6.0390  -5.7942  -5.4933  -5.4471   5.8113   6.0594   6.3532   6.7212
     7.5159   7.5734   8.1116   8.5731   8.7787   9.5078   9.6543   9.7469
    12.2735  12.5506  12.8282  13.0815

          k = 0.0000 0.2000 0.6759 (  3330 PWs)   bands (ev):

   -60.2988 -60.2982 -30.5811 -30.5811 -30.3220 -30.3201 -30.1276 -30.1276
    -5.9322  -5.8602  -5.4774  -5.4503   5.8680   5.9445   6.4831   6.6191
     7.6831   7.7899   8.3036   8.4862   8.6640   9.1255   9.6923   9.6956
    12.5596  12.5718  12.6872  12.8472

          k = 0.0000 0.4000 0.0000 (  3333 PWs)   bands (ev):

   -60.3099 -60.3078 -30.5925 -30.5925 -30.1597 -30.1596 -30.1450 -30.1374
    -6.5044  -6.0584  -5.4737  -5.3406   5.6964   5.8370   6.4807   6.4997
     7.1021   7.6148   7.6627   8.4711   8.7957   9.1663  10.4417  10.8116
    12.5246  12.7219  12.7908  12.8650

          k = 0.0000 0.4000 0.0966 (  3320 PWs)   bands (ev):

   -60.3095 -60.3074 -30.5921 -30.5920 -30.1593 -30.1590 -30.1517 -30.1448
    -6.4717  -6.0279  -5.4932  -5.3578   5.7459   5.8856   6.4485   6.4522
     7.1660   7.6837   7.7465   8.4181   8.6101   9.0930  10.4851  10.8334
    12.4847  12.5893  12.8888  12.9768

          k = 0.0000 0.4000 0.1931 (  3321 PWs)   bands (ev):

   -60.3081 -60.3062 -30.5908 -30.5907 -30.1761 -30.1702 -30.1531 -30.1523
    -6.3813  -5.9430  -5.5497  -5.4041   5.8738   6.0003   6.4082   6.4087
     7.2514   7.7383   7.9723   8.2293   8.2838   9.0487  10.4802  10.7965
    12.4065  12.5561  12.9401  13.1425

          k = 0.0000 0.4000 0.2897 (  3322 PWs)   bands (ev):

   -60.3061 -60.3044 -30.5890 -30.5889 -30.2080 -30.2024 -30.1477 -30.1474
    -6.2533  -5.8260  -5.6227  -5.4630   6.0098   6.0849   6.4648   6.4996
     7.1972   7.4501   7.9756   8.2795   8.3646   9.1272  10.3376  10.6680
    12.2309  12.5908  13.0650  13.1920

          k = 0.0000 0.4000 0.3862 (  3327 PWs)   bands (ev):

   -60.3038 -60.3024 -30.5870 -30.5869 -30.2446 -30.2400 -30.1412 -30.1410
    -6.1236  -5.7815  -5.6170  -5.5037   6.0647   6.1316   6.4926   6.6259
     7.0989   7.1770   8.0162   8.5566   8.5837   9.2111  10.1180  10.5393
    11.9756  12.5473  13.1177  13.1281

          k = 0.0000 0.4000 0.4828 (  3331 PWs)   bands (ev):

   -60.3015 -60.3005 -30.5852 -30.5851 -30.2792 -30.2758 -30.1349 -30.1348
    -6.0381  -5.8555  -5.4972  -5.4908   6.0229   6.1479   6.2382   6.5396
     7.2059   7.5134   8.1319   8.7391   8.8609   9.1860   9.9110  10.4683
    11.7293  12.3789  12.9530  13.0354

          k = 0.0000 0.4000 0.5793 (  3330 PWs)   bands (ev):

   -60.2997 -60.2990 -30.5839 -30.5838 -30.3058 -30.3037 -30.1300 -30.1299
    -6.0099  -5.9285  -5.4264  -5.3960   5.8725   5.8952   6.2931   6.4423
     7.5353   7.9226   8.1992   8.8956   9.0322   9.0786   9.8087  10.3795
    11.6054  12.1359  12.7674  12.8491

          k = 0.0000 0.4000 0.6759 (  3339 PWs)   bands (ev):

   -60.2986 -60.2984 -30.5833 -30.5832 -30.3199 -30.3191 -30.1273 -30.1272
    -6.0005  -5.9780  -5.3648  -5.3496   5.7432   5.7436   6.3657   6.4113
     7.8318   8.0240   8.4280   8.7656   9.0371   9.1292   9.9273  10.1789
    11.6740  11.8792  12.6558  12.6883

          k = 0.2000 0.2000 0.0000 (  3339 PWs)   bands (ev):

   -60.3111 -60.3067 -30.5955 -30.5923 -30.1596 -30.1561 -30.1492 -30.1332
    -6.7927  -5.9679  -5.4156  -5.0990   4.7745   5.8218   6.3452   6.4864
     6.5030   7.6658   8.7722   8.8400   9.7843   9.8781  10.2315  11.0409
    11.8181  11.8600  12.7360  12.7921

          k = 0.2000 0.2000 0.0966 (  3326 PWs)   bands (ev):

   -60.3106 -60.3063 -30.5949 -30.5918 -30.1598 -30.1557 -30.1548 -30.1411
    -6.7566  -5.9405  -5.4350  -5.1217   4.8268   5.8650   6.2744   6.4912
     6.6146   7.7583   8.5327   8.8850   9.5359  10.0476  10.1930  10.9257
    11.8918  11.9225  12.6906  12.7949

          k = 0.2000 0.2000 0.1931 (  3326 PWs)   bands (ev):

   -60.3092 -60.3051 -30.5929 -30.5906 -30.1794 -30.1658 -30.1524 -30.1514
    -6.6540  -5.8642  -5.4903  -5.1866   4.9767   5.9624   6.2158   6.5136
     6.8416   7.8891   8.1223   9.0005   9.0870  10.0037  10.1448  10.8125
    11.9116  12.0730  12.7097  13.0023

          k = 0.2000 0.2000 0.2897 (  3337 PWs)   bands (ev):

   -60.3071 -60.3034 -30.5901 -30.5888 -30.2114 -30.1988 -30.1475 -30.1463
    -6.4991  -5.7597  -5.5639  -5.2815   5.2062   6.0451   6.2135   6.6710
     7.1244   7.4207   8.3058   8.5596   9.1282   9.6912  10.0713  10.8045
    11.7811  12.2989  12.8186  13.2714

          k = 0.2000 0.2000 0.3862 (  3321 PWs)   bands (ev):

   -60.3046 -60.3016 -30.5869 -30.5868 -30.2478 -30.2373 -30.1410 -30.1405
    -6.3162  -5.7067  -5.5764  -5.3878   5.4846   6.1009   6.2675   6.7402
     7.1406   7.4592   8.0580   8.5558   9.0720   9.5426   9.8927  10.7070
    11.7187  12.4822  12.9547  13.2895

          k = 0.2000 0.2000 0.4828 (  3331 PWs)   bands (ev):

   -60.3021 -60.2999 -30.5850 -30.5838 -30.2822 -30.2740 -30.1349 -30.1348
    -6.1429  -5.7578  -5.4883  -5.4794   5.7496   6.1508   6.3620   6.3827
     7.3270   7.7976   7.8371   8.7296   8.7825   9.6295   9.6724  10.4054
    11.8335  12.5672  12.9769  13.3505

          k = 0.2000 0.2000 0.5793 (  3335 PWs)   bands (ev):

   -60.3000 -60.2987 -30.5838 -30.5814 -30.3087 -30.3027 -30.1305 -30.1299
    -6.0304  -5.7778  -5.5656  -5.3946   5.8445   6.1457   6.2716   6.4675
     7.1583   8.0880   8.2279   8.5310   8.8230   9.4548   9.6863  10.0318
    12.0315  12.5847  12.8390  13.2140

          k = 0.2000 0.2000 0.6759 (  3321 PWs)   bands (ev):

   -60.2987 -60.2982 -30.5831 -30.5801 -30.3229 -30.3185 -30.1281 -30.1272
    -6.0005  -5.7520  -5.6069  -5.3494   5.7544   6.1566   6.3664   6.5422
     7.0035   8.3129   8.4084   8.6622   8.8486   9.2805   9.4900   9.8974
    12.1988  12.6031  12.6882  13.0370

          k = 0.2000 0.4000 0.0000 (  3324 PWs)   bands (ev):

   -60.3097 -60.3080 -30.5949 -30.5929 -30.1596 -30.1574 -30.1442 -30.1381
    -6.5076  -6.1497  -5.4391  -5.2361   5.0782   5.7782   6.3749   6.4719
     7.2055   7.7453   8.2683   8.9448   9.1109   9.4475   9.9931  10.5333
    12.2356  12.2523  12.6798  12.8036

          k = 0.2000 0.4000 0.0966 (  3326 PWs)   bands (ev):

   -60.3093 -60.3076 -30.5943 -30.5924 -30.1592 -30.1566 -30.1512 -30.1457
    -6.4753  -6.1201  -5.4574  -5.2569   5.1268   5.8307   6.3399   6.4279
     7.2823   7.8597   8.2282   8.7589   9.1276   9.3151  10.0720  10.5067
    12.2309  12.3012  12.6706  12.9415

          k = 0.2000 0.4000 0.1931 (  3328 PWs)   bands (ev):

   -60.3079 -60.3064 -30.5926 -30.5911 -30.1754 -30.1700 -30.1528 -30.1519
    -6.3835  -6.0380  -5.5074  -5.3136   5.2649   5.9643   6.2822   6.3653
     7.4544   7.9698   8.1356   8.5100   8.9355   9.3014  10.1032  10.4285
    12.2864  12.3638  12.7552  13.1212

          k = 0.2000 0.4000 0.2897 (  3325 PWs)   bands (ev):

   -60.3059 -60.3046 -30.5901 -30.5893 -30.2076 -30.2026 -30.1476 -30.1469
    -6.2499  -5.9263  -5.5683  -5.3919   5.4687   6.0762   6.2616   6.4223
     7.4189   7.7281   8.2182   8.4520   8.8830   9.3240  10.0122  10.3776
    12.2569  12.4816  12.8397  13.2065

          k = 0.2000 0.4000 0.3862 (  3320 PWs)   bands (ev):

   -60.3036 -60.3025 -30.5873 -30.5872 -30.2445 -30.2403 -30.1412 -30.1408
    -6.1055  -5.8431  -5.5868  -5.4696   5.6927   6.0908   6.2937   6.5489
     7.1072   7.6197   8.1860   8.6825   9.0075   9.1826   9.9660  10.4056
    12.0921  12.5753  12.8546  13.1543

          k = 0.2000 0.4000 0.4828 (  3321 PWs)   bands (ev):

   -60.3014 -60.3006 -30.5854 -30.5846 -30.2796 -30.2761 -30.1350 -30.1349
    -5.9985  -5.8453  -5.5172  -5.5090   5.8733   6.0390   6.3405   6.4139
     7.1346   7.5394   8.3802   8.7397   8.9833   9.2078   9.9707  10.4818
    11.8885  12.5477  12.7915  13.0021

          k = 0.2000 0.4000 0.5793 (  3326 PWs)   bands (ev):

   -60.2996 -60.2991 -30.5841 -30.5826 -30.3067 -30.3038 -30.1305 -30.1301
    -5.9740  -5.8620  -5.5082  -5.4134   5.8608   5.9731   6.3154   6.3809
     7.1874   7.7741   8.4536   8.6612   8.9608   9.3872  10.0124  10.4824
    11.7629  12.4042  12.7099  12.8181

          k = 0.2000 0.4000 0.6759 (  3334 PWs)   bands (ev):

   -60.2985 -60.2984 -30.5834 -30.5816 -30.3215 -30.3189 -30.1280 -30.1274
    -5.9876  -5.8707  -5.4802  -5.3553   5.7322   5.9687   6.3332   6.3823
     7.2562   7.9824   8.4425   8.5385   9.0577   9.4911  10.0775  10.3907
    11.7473  12.2632  12.6579  12.6856

          k = 0.4000 0.4000 0.0000 (  3325 PWs)   bands (ev):

   -60.3092 -60.3085 -30.5968 -30.5955 -30.1574 -30.1560 -30.1423 -30.1400
    -6.4667  -6.3335  -5.2825  -5.1791   4.7865   5.0844   6.2953   6.3470
     7.8234   8.4840   8.6622   9.3330   9.4019   9.6489   9.7294  10.3572
    11.7851  11.8821  12.2326  12.2658

          k = 0.4000 0.4000 0.0966 (  3323 PWs)   bands (ev):

   -60.3087 -60.3081 -30.5961 -30.5949 -30.1566 -30.1548 -30.1499 -30.1479
    -6.4341  -6.3032  -5.3026  -5.2015   4.8382   5.1331   6.2639   6.3205
     7.8965   8.5607   8.6939   9.1830   9.3918   9.4846   9.7480  10.2241
    11.8551  11.9985  12.2950  12.3670

          k = 0.4000 0.4000 0.1931 (  3308 PWs)   bands (ev):

   -60.3074 -60.3068 -30.5941 -30.5932 -30.1732 -30.1708 -30.1520 -30.1515
    -6.3424  -6.2165  -5.3581  -5.2635   4.9888   5.2728   6.2005   6.2683
     8.0833   8.5247   8.7836   8.9777   9.1168   9.5513   9.6342   9.9279
    12.0422  12.2439  12.4748  12.5505

          k = 0.4000 0.4000 0.2897 (  3306 PWs)   bands (ev):

   -60.3055 -60.3050 -30.5911 -30.5906 -30.2060 -30.2038 -30.1469 -30.1465
    -6.2064  -6.0913  -5.4354  -5.3540   5.2225   5.4776   6.1476   6.2322
     8.0910   8.3188   8.5140   8.9173   9.2891   9.4491   9.5169   9.8726
    12.2747  12.4627  12.6713  12.7207

          k = 0.4000 0.4000 0.3862 (  3316 PWs)   bands (ev):

   -60.3033 -60.3028 -30.5878 -30.5877 -30.2435 -30.2416 -30.1410 -30.1407
    -6.0494  -5.9555  -5.5110  -5.4567   5.5105   5.6995   6.1279   6.2355
     7.6535   7.9956   8.5387   9.0439   9.0536   9.2705   9.7626  10.1457
    12.4730  12.5309  12.7622  12.9144

          k = 0.4000 0.4000 0.4828 (  3312 PWs)   bands (ev):

   -60.3011 -60.3008 -30.5850 -30.5846 -30.2792 -30.2775 -30.1352 -30.1352
    -5.9086  -5.8451  -5.5529  -5.5455   5.8127   5.8713   6.1437   6.2703
     7.3272   7.5795   8.5861   8.7654   9.0828   9.3273  10.1023  10.4018
    12.4321  12.5955  12.7619  13.1069

          k = 0.4000 0.4000 0.5793 (  3319 PWs)   bands (ev):

   -60.2994 -60.2992 -30.5830 -30.5821 -30.3070 -30.3053 -30.1309 -30.1307
    -5.8611  -5.7477  -5.6271  -5.5165   5.9297   6.0877   6.1777   6.3024
     7.0702   7.3985   8.4442   8.5326   9.2438   9.4695  10.3492  10.5711
    12.2853  12.6486  12.7179  12.8987

          k = 0.4000 0.4000 0.6759 (  3326 PWs)   bands (ev):

   -60.2985 -60.2984 -30.5819 -30.5807 -30.3221 -30.3205 -30.1285 -30.1282
    -5.8671  -5.6828  -5.6676  -5.4781   5.9220   6.2034   6.2668   6.3231
     6.8842   7.3959   8.3371   8.4009   9.3767   9.5576  10.4753  10.6418
    12.1931  12.6636  12.6780  12.7606

     highest occupied level (ev):    13.6971

!    total energy              =    -504.89647139 Ry
     estimated scf accuracy    <       0.00000070 Ry

     The total energy is the sum of the following terms:
     one-electron contribution =    -163.53224570 Ry
     hartree contribution      =     112.46629229 Ry
     xc contribution           =     -67.47398878 Ry
     ewald contribution        =    -386.35652921 Ry

     convergence has been achieved in   9 iterations

     Forces acting on atoms (cartesian axes, Ry/au):

     atom    1 type  1   force =     0.00000000    0.00000000    0.00000000
     atom    2 type  1   force =     0.00000000    0.00000000    0.00000000
     atom    3 type  2   force =     0.00150824    0.00150824   -0.00000000
     atom    4 type  2   force =    -0.00150824   -0.00150824   -0.00000000
     atom    5 type  2   force =     0.00150824   -0.00150824    0.00000000
     atom    6 type  2   force =    -0.00150824    0.00150824    0.00000000

     Total force =     0.004266     Total SCF correction =     0.000036
 
     init_run     :      0.06s CPU      0.06s WALL (       1 calls)
     electrons    :      2.47s CPU      2.60s WALL (       1 calls)
     forces       :      0.02s CPU      0.02s WALL (       1 calls)

     Called by init_run:
     wfcinit      :      0.04s CPU      0.04s WALL (       1 calls)
     potinit      :      0.01s CPU      0.01s WALL (       1 calls)
     hinit0       :      0.00s CPU      0.01s WALL (       1 calls)

     Called by electrons:
     c_bands      :      2.30s CPU      2.41s WALL (       9 calls)
     sum_band     :      0.15s CPU      0.16s WALL (       9 calls)
     v_of_rho     :      0.01s CPU      0.02s WALL (      10 calls)
     mix_rho      :      0.00s CPU      0.00s WALL (       9 calls)

     Called by c_bands:
     init_us_2    :      0.02s CPU      0.02s WALL (     320 calls)
     init_us_2:cp :      0.02s CPU      0.02s WALL (     320 calls)
     cegterg      :      1.91s CPU      1.97s WALL (     144 calls)

     Called by *egterg:
     cdiaghg      :      0.65s CPU      0.67s WALL (    1064 calls)
     h_psi        :      1.03s CPU      1.08s WALL (    1080 calls)
     g_psi        :      0.01s CPU      0.01s WALL (     920 calls)

     Called by h_psi:
     h_psi:calbec :      0.07s CPU      0.07s WALL (    1080 calls)
     vloc_psi     :      0.92s CPU      0.95s WALL (    1080 calls)
     add_vuspsi   :      0.04s CPU      0.04s WALL (    1080 calls)

     General routines
     calbec       :      0.07s CPU      0.07s WALL (    1144 calls)
     fft          :      0.01s CPU      0.01s WALL (     101 calls)
     ffts         :      0.00s CPU      0.00s WALL (       9 calls)
     fftw         :      0.90s CPU      0.93s WALL (   35350 calls)
 
     Parallel routines
 
     PWSCF        :      2.57s CPU      2.74s WALL

 
   This run was terminated on:  13:58:22  13Jul2026            

=------------------------------------------------------------------------------=
   JOB DONE.
=------------------------------------------------------------------------------=
