vc-relax TiO2-R
1.0
   4.627564750   0.000000000   0.000000000
   0.000000000   4.627564750   0.000000000
   0.000000000   0.000000000   2.960985622
Ti O
2  4
Cartesian
            0.0000000000        0.0000000000        0.0000000000
            2.3137823750        2.3137823750        1.4804928112
            1.4097749382        1.4097749382        0.0000000000
            3.2177898119        3.2177898119        0.0000000000
            3.7235573132        0.9040074369        1.4804928112
            0.9040074369        3.7235573132        1.4804928112
