../6_layer/output final
1.0
   5.509726651   0.000000000   0.000000000
   0.000000000   4.646922051   0.000000000
   0.000000000   0.000000000  36.653774261
   Ti    O
   12   24
Cartesian
               3.9601170242       -0.2518419957       12.5376200848
               1.2052538628        2.5753028824       12.5376200848
               2.2213646976        0.1531749016       14.8960892075
               4.9762276948        2.1702859851       14.8960892075
               0.6867178751       -0.1126489245       17.4894744051
               3.4415808309        2.4361098112       17.4894744051
               4.5347757835        0.1126719293       19.9224420241
               1.7799126220        2.2107889574       19.9224420241
               3.0003730584       -0.1529527091       22.5161213255
               0.2455099998        2.4764135958       22.5161213255
               1.2590331595        0.2514309985       24.8741020446
               4.0138960750        2.0720298882       24.8741020446
               2.6697599852        3.3108308538       11.7302986840
               5.4246233111        3.6595513914       11.7302986840
               5.0647907274        1.4051802407       13.1903760658
               1.0850655767        3.2561709654       14.2203775449
               2.3099272382        0.9182807158       13.1903738808
               3.8399284095        3.7142115561       14.2203753609
               3.4501485247        1.4177680464       15.7130802143
               4.9913755665        3.2169783048       16.6881452253
               0.6952855276        0.9056928403       15.7130813073
               2.2365120763        3.7534042167       16.6881441333
               1.8560621331        1.4176158405       18.2146024602
               3.3647413250        3.2294015843       19.1972796196
               4.6109254589        0.9058449774       18.2146024602
               0.6098780405        3.7409806610       19.1972796196
               0.2306494033        1.4297535380       20.7236731359
               1.7713499522        3.2287976692       21.6994503269
               2.9855121130        0.8937074184       20.7236709519
               4.5262136068        3.7415848533       21.6994525119
               4.1340282442        1.3923567576       23.1908059794
               0.1580665014        3.2407002245       24.2222572196
               1.3791645079        0.9311041989       23.1908037954
               2.9129294270        3.7296822969       24.2222550346
               2.5492105938        1.3371621729       25.6807805403
               5.3040737553        0.9862987138       25.6807827243
