
     Program PWSCF v.7.1 starts on 13Jul2026 at 14: 5:42 

     This program is part of the open-source Quantum ESPRESSO suite
     for quantum simulation of materials; please cite
         "P. Giannozzi et al., J. Phys.:Condens. Matter 21 395502 (2009);
         "P. Giannozzi et al., J. Phys.:Condens. Matter 29 465901 (2017);
         "P. Giannozzi et al., J. Chem. Phys. 152 154105 (2020);
          URL http://www.quantum-espresso.org", 
     in publications or presentations arising from this work. More details at
     http://www.quantum-espresso.org/quote

     Parallel version (MPI), running on    36 processors

     MPI processes distributed on     1 nodes
     168061 MiB available memory on the printing compute node when the environment starts
 
     Waiting for input...
     Reading input from standard input

     Current dimensions of program PWSCF are:
     Max number of different atomic species (ntypx) = 10
     Max number of k-points (npk) =  40000
     Max angular momentum in pseudopotentials (lmaxx) =  4
     Message from routine setup:
     using ibrav=0 with symmetry is DISCOURAGED, use correct ibrav instead
 
     K-points division:     npool     =       2
     R & G space division:  proc/nbgrp/npool/nimage =      18
     Subspace diagonalization in iterative solution of the eigenvalue problem:
     a serial algorithm will be used

 
     Parallelization info
     --------------------
     sticks:   dense  smooth     PW     G-vecs:    dense   smooth      PW
     Min         178     178     49                 5264     5264     787
     Max         179     179     51                 5265     5265     790
     Sum        3209    3209    901                94757    94757   14187
 
     Using Slab Decomposition
 


     bravais-lattice index     =            0
     lattice parameter (alat)  =       8.4977  a.u.
     unit-cell volume          =     423.6931 (a.u.)^3
     number of atoms/cell      =            6
     number of atomic types    =            2
     number of electrons       =        56.00
     number of Kohn-Sham states=           28
     kinetic-energy cutoff     =     140.0000  Ry
     charge density cutoff     =     560.0000  Ry
     scf convergence threshold =      1.0E-06
     mixing beta               =       0.7000
     number of iterations used =            8  plain     mixing
     Exchange-correlation= PBE
                           (   1   4   3   4   0   0   0)

     celldm(1)=   8.497720  celldm(2)=   0.000000  celldm(3)=   0.000000
     celldm(4)=   0.000000  celldm(5)=   0.000000  celldm(6)=   0.000000

     crystal axes: (cart. coord. in units of alat)
               a(1) = (   1.000000   0.000000   0.000000 )  
               a(2) = (   0.000000   1.000000   0.000000 )  
               a(3) = (   0.000000   0.000000   0.690469 )  

     reciprocal axes: (cart. coord. in units 2 pi/alat)
               b(1) = (  1.000000  0.000000  0.000000 )  
               b(2) = (  0.000000  1.000000  0.000000 )  
               b(3) = (  0.000000  0.000000  1.448291 )  


     PseudoPot. # 1 for Ru read from file:
     ./Ru_ONCV_PBE-1.2.upf
     MD5 check sum: 197966c748556f6a714a34a8c7eb0781
     Pseudo is Norm-conserving, Zval = 16.0
     Generated using ONCVPSP code by D. R. Hamann
     Using radial grid of  602 points,  6 beta functions with: 
                l(1) =   0
                l(2) =   0
                l(3) =   1
                l(4) =   1
                l(5) =   2
                l(6) =   2

     PseudoPot. # 2 for O  read from file:
     ./O_ONCV_PBE-1.2.upf
     MD5 check sum: e36c48deb68f4e355fffe4602be2c42c
     Pseudo is Norm-conserving, Zval =  6.0
     Generated using ONCVPSP code by D. R. Hamann
     Using radial grid of  602 points,  4 beta functions with: 
                l(1) =   0
                l(2) =   0
                l(3) =   1
                l(4) =   1

     atomic species   valence    mass     pseudopotential
        Ru            16.00   101.07000     Ru( 1.00)
        O              6.00    15.99900     O ( 1.00)

     16 Sym. Ops., with inversion, found ( 8 have fractional translation)



   Cartesian axes

     site n.     atom                  positions (alat units)
         1           Ru  tau(   1) = (   0.0000000   0.0000000   0.0000000  )
         2           Ru  tau(   2) = (   0.5000000   0.5000000   0.3452344  )
         3           O   tau(   3) = (   0.3053000   0.3053000   0.0000000  )
         4           O   tau(   4) = (   0.6947000   0.6947000   0.0000000  )
         5           O   tau(   5) = (   0.8053000   0.1947000   0.3452344  )
         6           O   tau(   6) = (   0.1947000   0.8053000   0.3452344  )

     number of k points=    50
                       cart. coord. in units 2pi/alat
        k(    1) = (   0.0000000   0.0000000   0.0000000), wk =   0.0069444
        k(    2) = (   0.0000000   0.0000000   0.1810364), wk =   0.0138889
        k(    3) = (   0.0000000   0.0000000   0.3620729), wk =   0.0138889
        k(    4) = (   0.0000000   0.0000000   0.5431093), wk =   0.0138889
        k(    5) = (   0.0000000   0.0000000  -0.7241457), wk =   0.0069444
        k(    6) = (   0.0000000   0.1666667   0.0000000), wk =   0.0277778
        k(    7) = (   0.0000000   0.1666667   0.1810364), wk =   0.0555556
        k(    8) = (   0.0000000   0.1666667   0.3620729), wk =   0.0555556
        k(    9) = (   0.0000000   0.1666667   0.5431093), wk =   0.0555556
        k(   10) = (   0.0000000   0.1666667  -0.7241457), wk =   0.0277778
        k(   11) = (   0.0000000   0.3333333   0.0000000), wk =   0.0277778
        k(   12) = (   0.0000000   0.3333333   0.1810364), wk =   0.0555556
        k(   13) = (   0.0000000   0.3333333   0.3620729), wk =   0.0555556
        k(   14) = (   0.0000000   0.3333333   0.5431093), wk =   0.0555556
        k(   15) = (   0.0000000   0.3333333  -0.7241457), wk =   0.0277778
        k(   16) = (   0.0000000  -0.5000000   0.0000000), wk =   0.0138889
        k(   17) = (   0.0000000  -0.5000000   0.1810364), wk =   0.0277778
        k(   18) = (   0.0000000  -0.5000000   0.3620729), wk =   0.0277778
        k(   19) = (   0.0000000  -0.5000000   0.5431093), wk =   0.0277778
        k(   20) = (   0.0000000  -0.5000000  -0.7241457), wk =   0.0138889
        k(   21) = (   0.1666667   0.1666667   0.0000000), wk =   0.0277778
        k(   22) = (   0.1666667   0.1666667   0.1810364), wk =   0.0555556
        k(   23) = (   0.1666667   0.1666667   0.3620729), wk =   0.0555556
        k(   24) = (   0.1666667   0.1666667   0.5431093), wk =   0.0555556
        k(   25) = (   0.1666667   0.1666667  -0.7241457), wk =   0.0277778
        k(   26) = (   0.1666667   0.3333333   0.0000000), wk =   0.0555556
        k(   27) = (   0.1666667   0.3333333   0.1810364), wk =   0.1111111
        k(   28) = (   0.1666667   0.3333333   0.3620729), wk =   0.1111111
        k(   29) = (   0.1666667   0.3333333   0.5431093), wk =   0.1111111
        k(   30) = (   0.1666667   0.3333333  -0.7241457), wk =   0.0555556
        k(   31) = (   0.1666667  -0.5000000   0.0000000), wk =   0.0277778
        k(   32) = (   0.1666667  -0.5000000   0.1810364), wk =   0.0555556
        k(   33) = (   0.1666667  -0.5000000   0.3620729), wk =   0.0555556
        k(   34) = (   0.1666667  -0.5000000   0.5431093), wk =   0.0555556
        k(   35) = (   0.1666667  -0.5000000  -0.7241457), wk =   0.0277778
        k(   36) = (   0.3333333   0.3333333   0.0000000), wk =   0.0277778
        k(   37) = (   0.3333333   0.3333333   0.1810364), wk =   0.0555556
        k(   38) = (   0.3333333   0.3333333   0.3620729), wk =   0.0555556
        k(   39) = (   0.3333333   0.3333333   0.5431093), wk =   0.0555556
        k(   40) = (   0.3333333   0.3333333  -0.7241457), wk =   0.0277778
        k(   41) = (   0.3333333  -0.5000000   0.0000000), wk =   0.0277778
        k(   42) = (   0.3333333  -0.5000000   0.1810364), wk =   0.0555556
        k(   43) = (   0.3333333  -0.5000000   0.3620729), wk =   0.0555556
        k(   44) = (   0.3333333  -0.5000000   0.5431093), wk =   0.0555556
        k(   45) = (   0.3333333  -0.5000000  -0.7241457), wk =   0.0277778
        k(   46) = (  -0.5000000  -0.5000000   0.0000000), wk =   0.0069444
        k(   47) = (  -0.5000000  -0.5000000   0.1810364), wk =   0.0138889
        k(   48) = (  -0.5000000  -0.5000000   0.3620729), wk =   0.0138889
        k(   49) = (  -0.5000000  -0.5000000   0.5431093), wk =   0.0138889
        k(   50) = (  -0.5000000  -0.5000000  -0.7241457), wk =   0.0069444

     Dense  grid:    94757 G-vectors     FFT dimensions: (  72,  72,  48)

     Estimated max dynamical RAM per process >      16.50 MB

     Estimated total dynamical RAM >     571.01 MB

     Initial potential from superposition of free atoms

     starting charge      55.8739, renormalised to      56.0000
     Starting wfcs are random

     total cpu time spent up to now is        0.3 secs

     per-process dynamical memory:   110.3 Mb

     Self-consistent Calculation

     iteration #  1     ecut=   140.00 Ry     beta= 0.70
     Davidson diagonalization with overlap
     ethr =  1.00E-02,  avg # of iterations = 10.1

     total cpu time spent up to now is        1.8 secs

     total energy              =    -504.26300941 Ry
     estimated scf accuracy    <       0.98032497 Ry

     iteration #  2     ecut=   140.00 Ry     beta= 0.70
     Davidson diagonalization with overlap
     ethr =  1.75E-03,  avg # of iterations =  6.9

     total cpu time spent up to now is        2.8 secs

     total energy              =    -504.23938357 Ry
     estimated scf accuracy    <       4.28902068 Ry

     iteration #  3     ecut=   140.00 Ry     beta= 0.70
     Davidson diagonalization with overlap
     ethr =  1.75E-03,  avg # of iterations =  6.1

     total cpu time spent up to now is        3.6 secs

     total energy              =    -504.96253839 Ry
     estimated scf accuracy    <       0.03230787 Ry

     iteration #  4     ecut=   140.00 Ry     beta= 0.70
     Davidson diagonalization with overlap
     ethr =  5.77E-05,  avg # of iterations =  5.0

     total cpu time spent up to now is        4.4 secs

     total energy              =    -504.96958730 Ry
     estimated scf accuracy    <       0.01681354 Ry

     iteration #  5     ecut=   140.00 Ry     beta= 0.70
     Davidson diagonalization with overlap
     ethr =  3.00E-05,  avg # of iterations =  5.0

     total cpu time spent up to now is        5.1 secs

     total energy              =    -504.97480788 Ry
     estimated scf accuracy    <       0.00112463 Ry

     iteration #  6     ecut=   140.00 Ry     beta= 0.70
     Davidson diagonalization with overlap
     ethr =  2.01E-06,  avg # of iterations =  4.6

     total cpu time spent up to now is        5.8 secs

     total energy              =    -504.97479722 Ry
     estimated scf accuracy    <       0.00055385 Ry

     iteration #  7     ecut=   140.00 Ry     beta= 0.70
     Davidson diagonalization with overlap
     ethr =  9.89E-07,  avg # of iterations =  4.9

     total cpu time spent up to now is        6.6 secs

     total energy              =    -504.97497896 Ry
     estimated scf accuracy    <       0.00005351 Ry

     iteration #  8     ecut=   140.00 Ry     beta= 0.70
     Davidson diagonalization with overlap
     ethr =  9.56E-08,  avg # of iterations =  4.8

     total cpu time spent up to now is        7.3 secs

     total energy              =    -504.97499229 Ry
     estimated scf accuracy    <       0.00000463 Ry

     iteration #  9     ecut=   140.00 Ry     beta= 0.70
     Davidson diagonalization with overlap
     c_bands:  1 eigenvalues not converged
     ethr =  8.26E-09,  avg # of iterations =  6.4

     total cpu time spent up to now is        8.1 secs

     total energy              =    -504.97499455 Ry
     estimated scf accuracy    <       0.00000158 Ry

     iteration # 10     ecut=   140.00 Ry     beta= 0.70
     Davidson diagonalization with overlap
     ethr =  2.81E-09,  avg # of iterations =  2.7

     total cpu time spent up to now is        8.7 secs

     total energy              =    -504.97499430 Ry
     estimated scf accuracy    <       0.00000118 Ry

     iteration # 11     ecut=   140.00 Ry     beta= 0.70
     Davidson diagonalization with overlap
     ethr =  2.11E-09,  avg # of iterations =  4.1

     total cpu time spent up to now is        9.4 secs

     End of self-consistent calculation

          k = 0.0000 0.0000 0.0000 ( 11843 PWs)   bands (ev):

   -60.3207 -60.3139 -30.6018 -30.6018 -30.1681 -30.1597 -30.1597 -30.1438
    -7.0114  -5.9752  -5.0069  -5.0069   4.7140   4.8534   5.9671   6.3788
     6.3788   8.9475   8.9659   8.9659  10.4172  10.8565  10.8565  11.3846
    11.6444  11.7547  11.8352  11.8352

          k = 0.0000 0.0000 0.1810 ( 11846 PWs)   bands (ev):

   -60.3189 -60.3126 -30.5996 -30.5996 -30.1942 -30.1719 -30.1555 -30.1555
    -6.8756  -5.9018  -5.0879  -5.0879   4.8685   5.0630   6.1305   6.4293
     6.4293   8.4857   9.1346   9.1346   9.6961  10.2479  10.2479  11.1886
    11.7781  12.1355  12.3317  12.4244

          k = 0.0000 0.0000 0.3621 ( 11858 PWs)   bands (ev):

   -60.3145 -60.3096 -30.5942 -30.5942 -30.2563 -30.2395 -30.1455 -30.1455
    -6.5204  -5.7424  -5.2782  -5.2782   5.2579   5.5972   6.6050   6.6050
     6.6104   7.6174   8.6298   9.2808   9.2808   9.6098   9.6098  10.4658
    12.0617  12.3524  12.6603  13.2157

          k = 0.0000 0.0000 0.5431 ( 11838 PWs)   bands (ev):

   -60.3096 -60.3070 -30.5888 -30.5888 -30.3165 -30.3076 -30.1353 -30.1353
    -6.0872  -5.6463  -5.4617  -5.4617   5.6657   6.0273   6.8940   6.8940
     7.1434   7.3727   7.8353   8.6279   8.6279   9.4401   9.8368   9.8368
    12.3754  12.5546  12.8172  13.8161

          k = 0.0000 0.0000-0.7241 ( 11814 PWs)   bands (ev):

   -60.3068 -60.3068 -30.5866 -30.5866 -30.3384 -30.3384 -30.1311 -30.1311
    -5.7547  -5.7547  -5.5358  -5.5358   5.9183   5.9183   7.0891   7.0891
     7.3922   7.3922   8.2966   8.2966   8.3525   8.3525   9.9297   9.9297
    12.5876  12.5876  13.1710  13.1710

          k = 0.0000 0.1667 0.0000 ( 11828 PWs)   bands (ev):

   -60.3203 -60.3144 -30.6012 -30.6012 -30.1665 -30.1607 -30.1606 -30.1455
    -6.9083  -5.9490  -5.1378  -5.0702   4.9166   5.0869   6.1582   6.4023
     6.4154   8.5940   8.7118   8.8621  10.0116  10.1799  10.5317  11.2696
    11.9345  12.0616  12.1684  12.2232

          k = 0.0000 0.1667 0.1810 ( 11843 PWs)   bands (ev):

   -60.3185 -60.3131 -30.5992 -30.5991 -30.1927 -30.1739 -30.1562 -30.1558
    -6.7780  -5.8720  -5.2117  -5.1450   5.0658   5.2701   6.2170   6.4385
     6.5869   8.3250   8.6905   8.9300   9.3719  10.0897  10.1733  11.1387
    11.8230  12.3607  12.4024  12.6708

          k = 0.0000 0.1667 0.3621 ( 11833 PWs)   bands (ev):

   -60.3141 -60.3100 -30.5943 -30.5942 -30.2549 -30.2406 -30.1458 -30.1457
    -6.4439  -5.7170  -5.3692  -5.3155   5.4274   5.7110   6.4330   6.5946
     7.0555   7.4948   8.1129   9.2232   9.3328   9.5109   9.5295  10.6538
    11.8355  12.6076  12.8063  13.0579

          k = 0.0000 0.1667 0.5431 ( 11841 PWs)   bands (ev):

   -60.3094 -60.3072 -30.5895 -30.5895 -30.3153 -30.3077 -30.1354 -30.1353
    -6.0662  -5.7111  -5.4530  -5.4250   5.7541   6.0655   6.4308   6.7850
     7.4060   7.5635   7.8390   8.6550   8.8466   9.5811   9.6757   9.7981
    12.2730  12.5086  12.8500  13.2694

          k = 0.0000 0.1667-0.7241 ( 11868 PWs)   bands (ev):

   -60.3068 -60.3068 -30.5876 -30.5876 -30.3377 -30.3377 -30.1310 -30.1310
    -5.8347  -5.8347  -5.4490  -5.4490   5.9153   5.9153   6.6371   6.6371
     7.7253   7.7253   8.3462   8.3462   8.7402   8.7402   9.7657   9.7657
    12.6035  12.6035  12.8317  12.8317

          k = 0.0000 0.3333 0.0000 ( 11828 PWs)   bands (ev):

   -60.3190 -60.3156 -30.6000 -30.5999 -30.1627 -30.1626 -30.1620 -30.1499
    -6.6209  -5.9487  -5.3927  -5.2291   5.4519   5.6335   6.4597   6.4853
     6.7512   7.8770   7.9740   8.7735   8.9837   9.3812  10.3902  10.9629
    12.3723  12.5379  12.7416  12.7902

          k = 0.0000 0.3333 0.1810 ( 11813 PWs)   bands (ev):

   -60.3173 -60.3142 -30.5983 -30.5982 -30.1889 -30.1785 -30.1574 -30.1568
    -6.5053  -5.8501  -5.4656  -5.2906   5.5978   5.7745   6.3878   6.4387
     7.0319   7.9877   8.1790   8.2190   8.6083   9.4015  10.3767  10.9038
    12.2749  12.5179  12.7434  13.0296

          k = 0.0000 0.3333 0.3621 ( 11838 PWs)   bands (ev):

   -60.3132 -60.3108 -30.5945 -30.5944 -30.2515 -30.2435 -30.1464 -30.1462
    -6.2308  -5.6508  -5.6041  -5.4120   5.8708   5.9997   6.4786   6.5829
     7.2603   7.4020   7.7358   8.5979   8.7448   9.4085   9.9991  10.6704
    11.8667  12.7143  13.0313  13.0455

          k = 0.0000 0.3333 0.5431 ( 11858 PWs)   bands (ev):

   -60.3090 -60.3077 -30.5910 -30.5909 -30.3126 -30.3084 -30.1353 -30.1352
    -6.0093  -5.8227  -5.4281  -5.3921   5.9102   6.0465   6.2179   6.5508
     7.3734   7.7529   8.1218   8.9064   8.9996   9.1634   9.6429  10.3356
    11.7255  12.5248  12.7555  12.9055

          k = 0.0000 0.3333-0.7241 ( 11836 PWs)   bands (ev):

   -60.3068 -60.3068 -30.5896 -30.5896 -30.3362 -30.3362 -30.1307 -30.1307
    -5.9318  -5.9318  -5.3384  -5.3384   5.7920   5.7920   6.4063   6.4063
     7.9055   7.9055   8.5059   8.5059   9.2508   9.2508   9.7308   9.7308
    12.0793  12.0793  12.6354  12.6354

          k = 0.0000-0.5000 0.0000 ( 11816 PWs)   bands (ev):

   -60.3173 -60.3173 -30.5993 -30.5993 -30.1636 -30.1636 -30.1559 -30.1559
    -6.2275  -6.2275  -5.3989  -5.3989   5.9416   5.9416   6.5060   6.5060
     7.4376   7.4376   7.7488   7.7488   8.9261   8.9261  10.6063  10.6063
    12.6914  12.6914  12.8692  12.8692

          k = 0.0000-0.5000 0.1810 ( 11846 PWs)   bands (ev):

   -60.3158 -60.3158 -30.5978 -30.5978 -30.1838 -30.1838 -30.1577 -30.1577
    -6.1258  -6.1258  -5.4555  -5.4555   6.1566   6.1566   6.3419   6.3419
     7.5004   7.5004   7.9284   7.9284   8.5732   8.5732  10.6584  10.6584
    12.5243  12.5243  13.1242  13.1242

          k = 0.0000-0.5000 0.3621 ( 11850 PWs)   bands (ev):

   -60.3120 -60.3120 -30.5945 -30.5945 -30.2474 -30.2474 -30.1466 -30.1466
    -5.9294  -5.9294  -5.5323  -5.5323   6.2138   6.2138   6.6187   6.6187
     6.9957   6.9957   8.2352   8.2352   8.7879   8.7879  10.3976  10.3976
    12.3119  12.3119  13.1835  13.1835

          k = 0.0000-0.5000 0.5431 ( 11828 PWs)   bands (ev):

   -60.3083 -60.3083 -30.5916 -30.5916 -30.3100 -30.3100 -30.1353 -30.1353
    -5.9262  -5.9262  -5.3990  -5.3990   5.9533   5.9533   6.3617   6.3617
     7.5859   7.5859   8.4879   8.4879   9.0922   9.0922  10.2149  10.2149
    11.8161  11.8161  12.8928  12.8928

          k = 0.0000-0.5000-0.7241 ( 11840 PWs)   bands (ev):

   -60.3068 -60.3068 -30.5906 -30.5906 -30.3355 -30.3355 -30.1306 -30.1306
    -5.9688  -5.9688  -5.2945  -5.2945   5.6869   5.6869   6.3995   6.3995
     7.9750   7.9750   8.7675   8.7675   8.8943   8.8943  10.3417  10.3417
    11.4863  11.4863  12.6460  12.6460

          k = 0.1667 0.1667 0.0000 ( 11845 PWs)   bands (ev):

   -60.3199 -60.3148 -30.6023 -30.5997 -30.1650 -30.1626 -30.1597 -30.1469
    -6.8252  -5.9319  -5.2999  -5.0449   4.7765   5.5798   6.3352   6.3564
     6.4864   7.9548   8.7945   8.8788   9.9485   9.9665  10.3617  11.1494
    11.8036  11.8443  12.5178  12.6567

          k = 0.1667 0.1667 0.1810 ( 11844 PWs)   bands (ev):

   -60.3181 -60.3134 -30.6000 -30.5980 -30.1915 -30.1753 -30.1570 -30.1556
    -6.6989  -5.8479  -5.3659  -5.1242   4.9531   5.7118   6.2161   6.5310
     6.6778   8.0568   8.3170   9.0273   9.1992  10.0828  10.2065  10.9685
    11.8356  12.0571  12.6514  12.8386

          k = 0.1667 0.1667 0.3621 ( 11858 PWs)   bands (ev):

   -60.3138 -60.3102 -30.5946 -30.5942 -30.2539 -30.2414 -30.1463 -30.1456
    -6.3794  -5.6903  -5.4795  -5.3107   5.4037   5.9510   6.2915   6.7723
     7.2128   7.2613   8.1910   8.6874   9.1540   9.5662   9.8910  10.7486
    11.7190  12.4546  12.9347  13.1815

          k = 0.1667 0.1667 0.5431 ( 11856 PWs)   bands (ev):

   -60.3093 -60.3073 -30.5908 -30.5891 -30.3148 -30.3076 -30.1355 -30.1352
    -6.0442  -5.7269  -5.4909  -5.3910   5.8134   6.1256   6.3420   6.5094
     7.3495   7.8497   7.9406   8.5990   8.8880   9.4881   9.7023  10.0116
    12.0791  12.5454  12.8807  13.3615

          k = 0.1667 0.1667-0.7241 ( 11846 PWs)   bands (ev):

   -60.3068 -60.3068 -30.5895 -30.5868 -30.3391 -30.3355 -30.1314 -30.1306
    -5.9394  -5.7219  -5.5637  -5.3331   5.7824   6.0958   6.4429   6.6535
     7.0795   8.2949   8.4400   8.6303   8.6712   9.1865   9.3587   9.8941
    12.4065  12.6079  12.6253  13.0493

          k = 0.1667 0.3333 0.0000 ( 11848 PWs)   bands (ev):

   -60.3188 -60.3158 -30.6020 -30.5993 -30.1636 -30.1612 -30.1607 -30.1507
    -6.5947  -5.9935  -5.4375  -5.1494   4.9920   5.9879   6.3728   6.5071
     6.8800   7.4862   8.4443   8.8126   9.3731   9.5744  10.0475  10.7936
    12.1302  12.1355  12.7746  12.8861

          k = 0.1667 0.3333 0.1810 ( 11847 PWs)   bands (ev):

   -60.3171 -60.3144 -30.5999 -30.5978 -30.1882 -30.1789 -30.1577 -30.1561
    -6.4794  -5.8929  -5.5042  -5.2208   5.1602   6.1990   6.2783   6.3492
     7.1440   7.8114   8.0659   8.5514   9.0824   9.5643  10.1306  10.6545
    12.1642  12.2838  12.7394  13.1570

          k = 0.1667 0.3333 0.3621 ( 11853 PWs)   bands (ev):

   -60.3131 -60.3110 -30.5948 -30.5945 -30.2512 -30.2439 -30.1466 -30.1459
    -6.2018  -5.6992  -5.6078  -5.3798   5.5746   6.2005   6.2871   6.6824
     7.0336   7.6935   7.9290   8.4515   9.1490   9.3004   9.9677  10.5955
    11.9058  12.5659  12.8619  13.2566

          k = 0.1667 0.3333 0.5431 ( 11861 PWs)   bands (ev):

   -60.3089 -60.3077 -30.5916 -30.5900 -30.3131 -30.3083 -30.1356 -30.1353
    -5.9829  -5.7950  -5.4816  -5.3890   5.9049   6.0390   6.2920   6.4130
     7.1682   7.8734   8.2699   8.7497   8.8222   9.4156   9.7838  10.4358
    11.7419  12.6231  12.7410  12.9232

          k = 0.1667 0.3333-0.7241 ( 11860 PWs)   bands (ev):

   -60.3068 -60.3068 -30.5906 -30.5880 -30.3383 -30.3348 -30.1313 -30.1306
    -5.9721  -5.8117  -5.4644  -5.2909   5.7026   6.0417   6.3528   6.4040
     7.2169   8.1991   8.4831   8.6986   8.8632   9.5695   9.7229  10.0700
    11.8878  12.4652  12.6343  12.6455

          k = 0.1667-0.5000 0.0000 ( 11830 PWs)   bands (ev):

   -60.3173 -60.3173 -30.6005 -30.6005 -30.1626 -30.1626 -30.1559 -30.1559
    -6.2751  -6.2751  -5.3308  -5.3308   5.5338   5.5338   6.4454   6.4454
     7.5729   7.5729   8.3221   8.3221   9.1019   9.1019  10.3349  10.3349
    12.5492  12.5492  12.6396  12.6396

          k = 0.1667-0.5000 0.1810 ( 11838 PWs)   bands (ev):

   -60.3158 -60.3158 -30.5988 -30.5988 -30.1836 -30.1836 -30.1572 -30.1572
    -6.1727  -6.1727  -5.3910  -5.3910   5.6894   5.6894   6.3675   6.3675
     7.6990   7.6990   8.3958   8.3958   8.7259   8.7259  10.3803  10.3803
    12.4364  12.4364  12.9556  12.9556

          k = 0.1667-0.5000 0.3621 ( 11848 PWs)   bands (ev):

   -60.3120 -60.3120 -30.5948 -30.5948 -30.2475 -30.2475 -30.1464 -30.1464
    -5.9551  -5.9551  -5.4963  -5.4963   5.9488   5.9488   6.4365   6.4365
     7.3035   7.3035   8.4957   8.4957   8.9061   8.9061  10.2204  10.2204
    12.3828  12.3828  13.0414  13.0414

          k = 0.1667-0.5000 0.5431 ( 11868 PWs)   bands (ev):

   -60.3083 -60.3083 -30.5912 -30.5912 -30.3104 -30.3104 -30.1355 -30.1355
    -5.8935  -5.8935  -5.4297  -5.4297   5.9325   5.9325   6.3681   6.3681
     7.4184   7.4184   8.6127   8.6127   9.1011   9.1011  10.2818  10.2818
    11.9884  11.9884  12.8292  12.8292

          k = 0.1667-0.5000-0.7241 ( 11868 PWs)   bands (ev):

   -60.3068 -60.3068 -30.5899 -30.5899 -30.3361 -30.3361 -30.1309 -30.1309
    -5.9243  -5.9243  -5.3405  -5.3405   5.7682   5.7682   6.3750   6.3750
     7.7253   7.7253   8.5062   8.5062   9.2404   9.2404  10.3978  10.3978
    11.7310  11.7310  12.6506  12.6506

          k = 0.3333 0.3333 0.0000 ( 11862 PWs)   bands (ev):

   -60.3181 -60.3164 -30.6034 -30.6008 -30.1626 -30.1597 -30.1589 -30.1529
    -6.5081  -6.1565  -5.3606  -5.1184   4.7867   5.5449   6.3117   6.4325
     7.3220   8.0552   8.7129   9.0704   9.3996   9.7123   9.7517  10.5482
    11.7974  11.8636  12.5651  12.6489

          k = 0.3333 0.3333 0.1810 ( 11861 PWs)   bands (ev):

   -60.3165 -60.3150 -30.6010 -30.5990 -30.1861 -30.1804 -30.1572 -30.1556
    -6.3955  -6.0574  -5.4221  -5.1945   4.9659   5.7015   6.2166   6.3581
     7.5849   8.2719   8.3735   8.8295   9.1263   9.7732   9.8658  10.1170
    11.9990  12.1550  12.6154  12.9337

          k = 0.3333 0.3333 0.3621 ( 11848 PWs)   bands (ev):

   -60.3126 -60.3114 -30.5954 -30.5950 -30.2499 -30.2453 -30.1465 -30.1458
    -6.1202  -5.8482  -5.5283  -5.3740   5.4366   5.9539   6.1530   6.4271
     7.3647   8.1126   8.1187   8.8470   9.0423   9.4249   9.7590  10.3244
    12.2085  12.3945  12.8546  13.1058

          k = 0.3333 0.3333 0.5431 ( 11880 PWs)   bands (ev):

   -60.3086 -60.3080 -30.5914 -30.5897 -30.3130 -30.3093 -30.1359 -30.1356
    -5.9091  -5.7531  -5.5479  -5.4313   5.9068   6.0150   6.2168   6.3761
     7.0565   7.6737   8.4556   8.6702   8.9366   9.5164  10.0197  10.5693
    11.9458  12.6132  12.8192  13.0537

          k = 0.3333 0.3333-0.7241 ( 11884 PWs)   bands (ev):

   -60.3068 -60.3068 -30.5900 -30.5874 -30.3389 -30.3354 -30.1318 -30.1310
    -5.9245  -5.6565  -5.6184  -5.3374   5.7636   6.2764   6.3093   6.3673
     6.7793   7.9294   8.3176   8.4462   9.2072   9.6360  10.1638  10.4941
    11.8940  12.6450  12.6572  12.8111

          k = 0.3333-0.5000 0.0000 ( 11822 PWs)   bands (ev):

   -60.3173 -60.3173 -30.6028 -30.6028 -30.1606 -30.1606 -30.1559 -30.1559
    -6.3546  -6.3546  -5.2096  -5.2096   4.9981   4.9981   6.3379   6.3379
     7.9972   7.9972   9.0340   9.0340   9.4919   9.4919   9.9648   9.9648
    12.1297  12.1297  12.1528  12.1528

          k = 0.3333-0.5000 0.1810 ( 11840 PWs)   bands (ev):

   -60.3157 -60.3157 -30.6006 -30.6006 -30.1831 -30.1831 -30.1562 -30.1562
    -6.2489  -6.2489  -5.2792  -5.2792   5.1679   5.1679   6.2596   6.2596
     8.1793   8.1793   8.9064   8.9064   9.2592   9.2592   9.8284   9.8284
    12.2271  12.2271  12.4971  12.4971

          k = 0.3333-0.5000 0.3621 ( 11872 PWs)   bands (ev):

   -60.3120 -60.3120 -30.5955 -30.5955 -30.2476 -30.2476 -30.1461 -30.1461
    -5.9975  -5.9975  -5.4334  -5.4334   5.5870   5.5870   6.2050   6.2050
     7.8282   7.8282   8.7427   8.7427   9.2211   9.2211   9.8954   9.8954
    12.5448  12.5448  12.7459  12.7459

          k = 0.3333-0.5000 0.5431 ( 11876 PWs)   bands (ev):

   -60.3083 -60.3083 -30.5904 -30.5904 -30.3113 -30.3113 -30.1359 -30.1359
    -5.8092  -5.8092  -5.5097  -5.5097   5.9378   5.9378   6.2680   6.2680
     7.2990   7.2990   8.5809   8.5809   9.2716   9.2716  10.3916  10.3916
    12.4524  12.4524  12.7062  12.7062

          k = 0.3333-0.5000-0.7241 ( 11896 PWs)   bands (ev):

   -60.3068 -60.3068 -30.5884 -30.5884 -30.3375 -30.3375 -30.1316 -30.1316
    -5.8025  -5.8025  -5.4653  -5.4653   5.9844   5.9844   6.3240   6.3240
     7.2351   7.2351   8.3724   8.3724   9.4656   9.4656  10.5720  10.5720
    12.2787  12.2787  12.6581  12.6581

          k =-0.5000-0.5000 0.0000 ( 11852 PWs)   bands (ev):

   -60.3173 -60.3173 -30.6040 -30.6040 -30.1597 -30.1597 -30.1559 -30.1559
    -6.3890  -6.3890  -5.1540  -5.1540   4.7893   4.7893   6.2895   6.2895
     8.5947   8.5947   8.6362   8.6362   9.7267   9.7267  10.2581  10.2581
    11.7643  11.7643  11.8738  11.8738

          k =-0.5000-0.5000 0.1810 ( 11864 PWs)   bands (ev):

   -60.3157 -60.3157 -30.6016 -30.6016 -30.1829 -30.1829 -30.1556 -30.1556
    -6.2813  -6.2813  -5.2286  -5.2286   4.9685   4.9685   6.2070   6.2070
     8.7390   8.7390   8.8845   8.8845   9.1482   9.1482   9.9338   9.9338
    12.0813  12.0813  12.2179  12.2179

          k =-0.5000-0.5000 0.3621 ( 11864 PWs)   bands (ev):

   -60.3120 -60.3120 -30.5958 -30.5958 -30.2477 -30.2477 -30.1459 -30.1459
    -6.0156  -6.0156  -5.4048  -5.4048   5.4397   5.4397   6.1213   6.1213
     8.1306   8.1306   8.9751   8.9751   9.0163   9.0163   9.9111   9.9111
    12.4687  12.4687  12.7882  12.7882

          k =-0.5000-0.5000 0.5431 ( 11884 PWs)   bands (ev):

   -60.3083 -60.3083 -30.5900 -30.5900 -30.3118 -30.3118 -30.1361 -30.1361
    -5.7409  -5.7409  -5.5758  -5.5758   5.9924   5.9924   6.1396   6.1396
     7.3012   7.3012   8.5295   8.5295   9.3544   9.3544  10.4537  10.4537
    12.6355  12.6355  12.9249  12.9249

          k =-0.5000-0.5000-0.7241 ( 11936 PWs)   bands (ev):

   -60.3067 -60.3067 -30.5876 -30.5876 -30.3382 -30.3382 -30.1320 -30.1320
    -5.6452  -5.6452  -5.6241  -5.6241   6.1733   6.1733   6.2773   6.2773
     6.9566   6.9566   8.3309   8.3309   9.5231   9.5231  10.6804  10.6804
    12.6606  12.6606  12.6948  12.6948

     highest occupied level (ev):    13.8161

!    total energy              =    -504.97499443 Ry
     estimated scf accuracy    <       0.00000011 Ry

     The total energy is the sum of the following terms:
     one-electron contribution =    -163.69935938 Ry
     hartree contribution      =     112.56965803 Ry
     xc contribution           =     -67.48876389 Ry
     ewald contribution        =    -386.35652920 Ry

     convergence has been achieved in  11 iterations

     Forces acting on atoms (cartesian axes, Ry/au):

     atom    1 type  1   force =     0.00000000    0.00000000    0.00000000
     atom    2 type  1   force =     0.00000000    0.00000000   -0.00000000
     atom    3 type  2   force =     0.00371562    0.00371562    0.00000000
     atom    4 type  2   force =    -0.00371562   -0.00371562    0.00000000
     atom    5 type  2   force =     0.00371562   -0.00371562   -0.00000000
     atom    6 type  2   force =    -0.00371562    0.00371562   -0.00000000

     Total force =     0.010509     Total SCF correction =     0.000027
 
     init_run     :      0.19s CPU      0.21s WALL (       1 calls)
     electrons    :      8.77s CPU      9.08s WALL (       1 calls)
     forces       :      0.05s CPU      0.05s WALL (       1 calls)

     Called by init_run:
     wfcinit      :      0.14s CPU      0.15s WALL (       1 calls)
     potinit      :      0.02s CPU      0.02s WALL (       1 calls)
     hinit0       :      0.01s CPU      0.01s WALL (       1 calls)

     Called by electrons:
     c_bands      :      8.10s CPU      8.36s WALL (      11 calls)
     sum_band     :      0.61s CPU      0.62s WALL (      11 calls)
     v_of_rho     :      0.05s CPU      0.06s WALL (      12 calls)
     mix_rho      :      0.01s CPU      0.01s WALL (      11 calls)

     Called by c_bands:
     init_us_2    :      0.09s CPU      0.10s WALL (     600 calls)
     init_us_2:cp :      0.09s CPU      0.10s WALL (     600 calls)
     cegterg      :      7.14s CPU      7.27s WALL (     275 calls)

     Called by *egterg:
     cdiaghg      :      1.19s CPU      1.20s WALL (    1834 calls)
     h_psi        :      5.16s CPU      5.27s WALL (    1859 calls)
     g_psi        :      0.03s CPU      0.03s WALL (    1559 calls)

     Called by h_psi:
     h_psi:calbec :      0.28s CPU      0.28s WALL (    1859 calls)
     vloc_psi     :      4.64s CPU      4.74s WALL (    1859 calls)
     add_vuspsi   :      0.19s CPU      0.19s WALL (    1859 calls)

     General routines
     calbec       :      0.30s CPU      0.30s WALL (    1959 calls)
     fft          :      0.02s CPU      0.02s WALL (     121 calls)
     ffts         :      0.00s CPU      0.00s WALL (      11 calls)
     fftw         :      4.60s CPU      4.70s WALL (   61258 calls)
 
     Parallel routines
 
     PWSCF        :      9.04s CPU      9.44s WALL

 
   This run was terminated on:  14: 5:52  13Jul2026            

=------------------------------------------------------------------------------=
   JOB DONE.
=------------------------------------------------------------------------------=
