
     Program PWSCF v.7.2 starts on 26Jul2026 at 15: 3:34 
        Git branch: krg.prod
        Last git commit: daa121e36ad33d2e2c57a5cfc9f193e3f68d7ebf
        Last git commit date: Wed Feb 25 11:53:28 2026 -0600
        Last git commit subject: use krg software repo instead

     This program is part of the open-source Quantum ESPRESSO suite
     for quantum simulation of materials; please cite
         "P. Giannozzi et al., J. Phys.:Condens. Matter 21 395502 (2009);
         "P. Giannozzi et al., J. Phys.:Condens. Matter 29 465901 (2017);
         "P. Giannozzi et al., J. Chem. Phys. 152 154105 (2020);
          URL http://www.quantum-espresso.org", 
     in publications or presentations arising from this work. More details at
     http://www.quantum-espresso.org/quote

     Serial multi-threaded version, running on    8 processor cores
     135907 MiB available memory on the printing compute node when the environment starts
 
     Waiting for input...
     Reading input from standard input
Warning: card &FCP ignored
Warning: card / ignored
Warning: card &RISM ignored
Warning: card / ignored

     Current dimensions of program PWSCF are:
     Max number of different atomic species (ntypx) = 10
     Max number of k-points (npk) =  40000
     Max angular momentum in pseudopotentials (lmaxx) =  4
     Message from routine setup:
     using ibrav=0 with symmetry is DISCOURAGED, use correct ibrav instead
 
 
     G-vector sticks info
     --------------------
     sticks:   dense  smooth     PW     G-vecs:    dense   smooth      PW
     Sum        3493    3493    931              1047795  1047795  146885
 
     Using Slab Decomposition
 


     bravais-lattice index     =            0
     lattice parameter (alat)  =      10.4295  a.u.
     unit-cell volume          =    5898.6082 (a.u.)^3
     number of atoms/cell      =           30
     number of atomic types    =            2
     number of electrons       =       240.00
     number of Kohn-Sham states=          144
     kinetic-energy cutoff     =     120.0000  Ry
     charge density cutoff     =     480.0000  Ry
     scf convergence threshold =      1.0E-06
     mixing beta               =       0.4000
     number of iterations used =           20  plain     mixing
     energy convergence thresh.=      1.0E-04
     force convergence thresh. =      1.0E-03
     press convergence thresh. =      5.0E-01
     Exchange-correlation= PBE
                           (   1   4   3   4   0   0   0)
     nstep                     =          500


     GPU acceleration is ACTIVE.


     celldm(1)=  10.429450  celldm(2)=   0.000000  celldm(3)=   0.000000
     celldm(4)=   0.000000  celldm(5)=   0.000000  celldm(6)=   0.000000

     crystal axes: (cart. coord. in units of alat)
               a(1) = (   1.000000   0.000000   0.000000 )  
               a(2) = (   0.000000   0.839903   0.000000 )  
               a(3) = (   0.000000   0.000000   6.190649 )  

     reciprocal axes: (cart. coord. in units 2 pi/alat)
               b(1) = (  1.000000  0.000000  0.000000 )  
               b(2) = (  0.000000  1.190614  0.000000 )  
               b(3) = (  0.000000  0.000000  0.161534 )  


     PseudoPot. # 1 for Ti read from file:
     /cm/shared/apps/KO/pseudo/sg15/Ti_ONCV_PBE-1.2.upf
     MD5 check sum: 1aea57736bd12dcfee93c97d0b9b5968
     Pseudo is Norm-conserving, Zval = 12.0
     Generated using ONCVPSP code by D. R. Hamann
     Using radial grid of  602 points,  6 beta functions with: 
                l(1) =   0
                l(2) =   0
                l(3) =   1
                l(4) =   1
                l(5) =   2
                l(6) =   2

     PseudoPot. # 2 for O  read from file:
     /cm/shared/apps/KO/pseudo/sg15/O_ONCV_PBE-1.2.upf
     MD5 check sum: e36c48deb68f4e355fffe4602be2c42c
     Pseudo is Norm-conserving, Zval =  6.0
     Generated using ONCVPSP code by D. R. Hamann
     Using radial grid of  602 points,  4 beta functions with: 
                l(1) =   0
                l(2) =   0
                l(3) =   1
                l(4) =   1

     atomic species   valence    mass     pseudopotential
     Ti               12.00    47.86700     Ti( 1.00)
     O                 6.00    15.99900     O ( 1.00)

      2 Sym. Ops. (no inversion) found ( 1 have fractional translation)



   Cartesian axes

     site n.     atom                  positions (alat units)
         1        Ti     tau(   1) = (   0.7222615  -0.0405308   2.2719555  )
         2        Ti     tau(   2) = (   0.2222615   0.4604822   2.2719555  )
         3        Ti     tau(   3) = (   0.3995413   0.0192727   2.7012518  )
         4        Ti     tau(   4) = (   0.8995412   0.4006788   2.7012518  )
         5        Ti     tau(   5) = (   0.1434784   0.0062375   3.1677419  )
         6        Ti     tau(   6) = (   0.6434783   0.4137140   3.1677419  )
         7        Ti     tau(   7) = (   0.8370214  -0.0196141   3.6250267  )
         8        Ti     tau(   8) = (   0.3370214   0.4395655   3.6250267  )
         9        Ti     tau(   9) = (   0.5186203   0.0405795   4.0551514  )
        10        Ti     tau(  10) = (   0.0186203   0.3793719   4.0551514  )
        11        O      tau(  11) = (   0.4765170   0.6063829   2.1271406  )
        12        O      tau(  12) = (   0.9765170   0.6534713   2.1271406  )
        13        O      tau(  13) = (   0.9112669   0.2513275   2.3925460  )
        14        O      tau(  14) = (   0.1937921   0.5885682   2.5763611  )
        15        O      tau(  15) = (   0.4112668   0.1686240   2.3925459  )
        16        O      tau(  16) = (   0.6937920   0.6712860   2.5763609  )
        17        O      tau(  17) = (   0.6241977   0.2543942   2.8473820  )
        18        O      tau(  18) = (   0.8994392   0.5793823   3.0240901  )
        19        O      tau(  19) = (   0.1241978   0.1655572   2.8473824  )
        20        O      tau(  20) = (   0.3994392   0.6804720   3.0240899  )
        21        O      tau(  21) = (   0.3323409   0.2569414   3.3061777  )
        22        O      tau(  22) = (   0.6130254   0.5855569   3.4804603  )
        23        O      tau(  23) = (   0.8323409   0.1630100   3.3061777  )
        24        O      tau(  24) = (   0.1130254   0.6742973   3.4804603  )
        25        O      tau(  25) = (   0.0444821   0.2512496   3.7507678  )
        26        O      tau(  26) = (   0.3267620   0.5873810   3.9342829  )
        27        O      tau(  27) = (   0.5444819   0.1687018   3.7507670  )
        28        O      tau(  28) = (   0.8267621   0.6724732   3.9342832  )
        29        O      tau(  29) = (   0.7630565   0.2343452   4.1997576  )
        30        O      tau(  30) = (   0.2630564   0.1856062   4.1997572  )

     number of k points=    12  Gaussian smearing, width (Ry)=  0.0200
                       cart. coord. in units 2pi/alat
        k(    1) = (   0.0000000   0.0000000   0.0000000), wk =   0.0666667
        k(    2) = (   0.0000000   0.1984356   0.0000000), wk =   0.1333333
        k(    3) = (   0.0000000   0.3968713   0.0000000), wk =   0.1333333
        k(    4) = (   0.0000000  -0.5953069   0.0000000), wk =   0.0666667
        k(    5) = (   0.2000000   0.0000000   0.0000000), wk =   0.1333333
        k(    6) = (   0.2000000   0.1984356   0.0000000), wk =   0.2666667
        k(    7) = (   0.2000000   0.3968713   0.0000000), wk =   0.2666667
        k(    8) = (   0.2000000  -0.5953069   0.0000000), wk =   0.1333333
        k(    9) = (   0.4000000   0.0000000   0.0000000), wk =   0.1333333
        k(   10) = (   0.4000000   0.1984356   0.0000000), wk =   0.2666667
        k(   11) = (   0.4000000   0.3968713   0.0000000), wk =   0.2666667
        k(   12) = (   0.4000000  -0.5953069   0.0000000), wk =   0.1333333

     Dense  grid:  1047795 G-vectors     FFT dimensions: (  80,  64, 480)

     Estimated max dynamical RAM per process >       6.45 GB

     Initial potential from superposition of free atoms

     starting charge     238.8836, renormalised to     240.0000

     negative rho (up, down):  1.334E-03 0.000E+00
     Starting wfcs are random

     total cpu time spent up to now is       10.3 secs

     per-process dynamical memory:   109.3 Mb

     Self-consistent Calculation

     iteration #  1     ecut=   120.00 Ry     beta= 0.40
     Davidson diagonalization with overlap
     ethr =  1.00E-02,  avg # of iterations = 17.8

     negative rho (up, down):  6.611E-05 0.000E+00

     total cpu time spent up to now is       25.8 secs

     total energy              =   -1792.82881860 Ry
     estimated scf accuracy    <      12.41606070 Ry

     iteration #  2     ecut=   120.00 Ry     beta= 0.40
     Davidson diagonalization with overlap
     ethr =  5.17E-03,  avg # of iterations =  3.7

     negative rho (up, down):  1.322E-06 0.000E+00

     total cpu time spent up to now is       32.9 secs

     total energy              =   -1795.52124214 Ry
     estimated scf accuracy    <       2.60622838 Ry

     iteration #  3     ecut=   120.00 Ry     beta= 0.40
     Davidson diagonalization with overlap
     ethr =  1.09E-03,  avg # of iterations =  2.3

     negative rho (up, down):  2.297E-07 0.000E+00

     total cpu time spent up to now is       38.7 secs

     total energy              =   -1796.24911554 Ry
     estimated scf accuracy    <       0.50884555 Ry

     iteration #  4     ecut=   120.00 Ry     beta= 0.40
     Davidson diagonalization with overlap
     ethr =  2.12E-04,  avg # of iterations = 11.8

     negative rho (up, down):  1.176E-07 0.000E+00

     total cpu time spent up to now is       47.0 secs

     total energy              =   -1796.37958191 Ry
     estimated scf accuracy    <       0.15427923 Ry

     iteration #  5     ecut=   120.00 Ry     beta= 0.40
     Davidson diagonalization with overlap
     c_bands:  1 eigenvalues not converged
     ethr =  6.43E-05,  avg # of iterations = 12.8

     negative rho (up, down):  1.741E-08 0.000E+00

     total cpu time spent up to now is       54.4 secs

     total energy              =   -1796.40039402 Ry
     estimated scf accuracy    <       0.05132078 Ry

     iteration #  6     ecut=   120.00 Ry     beta= 0.40
     Davidson diagonalization with overlap
     c_bands:  2 eigenvalues not converged
     ethr =  2.14E-05,  avg # of iterations = 10.3

     total cpu time spent up to now is       62.2 secs

     total energy              =   -1796.40421868 Ry
     estimated scf accuracy    <       0.02927885 Ry

     iteration #  7     ecut=   120.00 Ry     beta= 0.40
     Davidson diagonalization with overlap
     ethr =  1.22E-05,  avg # of iterations =  5.8

     total cpu time spent up to now is       68.3 secs

     total energy              =   -1796.40503344 Ry
     estimated scf accuracy    <       0.00480710 Ry

     iteration #  8     ecut=   120.00 Ry     beta= 0.40
     Davidson diagonalization with overlap
     c_bands:  1 eigenvalues not converged
     c_bands:  1 eigenvalues not converged
     c_bands:  1 eigenvalues not converged
     c_bands:  1 eigenvalues not converged
     c_bands:  1 eigenvalues not converged
     c_bands:  1 eigenvalues not converged
     c_bands:  1 eigenvalues not converged
     ethr =  2.00E-06,  avg # of iterations = 16.1

     total cpu time spent up to now is       77.7 secs

     total energy              =   -1796.40712406 Ry
     estimated scf accuracy    <       0.00397319 Ry

     iteration #  9     ecut=   120.00 Ry     beta= 0.40
     Davidson diagonalization with overlap
     c_bands:  1 eigenvalues not converged
     c_bands:  1 eigenvalues not converged
     c_bands:  1 eigenvalues not converged
     ethr =  1.66E-06,  avg # of iterations =  6.3

     total cpu time spent up to now is       84.2 secs

     total energy              =   -1796.40701607 Ry
     estimated scf accuracy    <       0.00111452 Ry

     iteration # 10     ecut=   120.00 Ry     beta= 0.40
     Davidson diagonalization with overlap
     c_bands:  1 eigenvalues not converged
     ethr =  4.64E-07,  avg # of iterations =  6.5

     total cpu time spent up to now is       91.1 secs

     total energy              =   -1796.40724998 Ry
     estimated scf accuracy    <       0.00004616 Ry

     iteration # 11     ecut=   120.00 Ry     beta= 0.40
     Davidson diagonalization with overlap
     c_bands:  1 eigenvalues not converged
     ethr =  1.92E-08,  avg # of iterations =  6.9

     total cpu time spent up to now is       98.7 secs

     total energy              =   -1796.40727245 Ry
     estimated scf accuracy    <       0.00006285 Ry

     iteration # 12     ecut=   120.00 Ry     beta= 0.40
     Davidson diagonalization with overlap
     ethr =  1.92E-08,  avg # of iterations =  1.7

     total cpu time spent up to now is      104.2 secs

     total energy              =   -1796.40727287 Ry
     estimated scf accuracy    <       0.00001528 Ry

     iteration # 13     ecut=   120.00 Ry     beta= 0.40
     Davidson diagonalization with overlap
     ethr =  6.37E-09,  avg # of iterations =  4.6

     total cpu time spent up to now is      110.2 secs

     total energy              =   -1796.40727474 Ry
     estimated scf accuracy    <       0.00000216 Ry

     iteration # 14     ecut=   120.00 Ry     beta= 0.40
     Davidson diagonalization with overlap
     ethr =  9.02E-10,  avg # of iterations =  7.1

     total cpu time spent up to now is      117.5 secs

     total energy              =   -1796.40727551 Ry
     estimated scf accuracy    <       0.00000114 Ry

     iteration # 15     ecut=   120.00 Ry     beta= 0.40
     Davidson diagonalization with overlap
     ethr =  4.74E-10,  avg # of iterations =  1.7

     total cpu time spent up to now is      123.6 secs

     End of self-consistent calculation

          k = 0.0000 0.0000 0.0000 (131099 PWs)   bands (ev):

   -57.8318 -57.8225 -57.8072 -57.7980 -57.6470 -57.6403 -57.4901 -57.4780
   -57.4670 -57.4549 -34.2792 -34.2734 -34.2178 -34.2074 -34.0960 -34.0853
   -34.0663 -34.0655 -34.0293 -34.0184 -34.0067 -33.9944 -33.9530 -33.9449
   -33.8974 -33.8970 -33.8942 -33.8847 -33.8684 -33.8563 -33.8178 -33.8145
   -33.8022 -33.7795 -33.7440 -33.7220 -33.6483 -33.6365 -33.6256 -33.6148
   -18.9265 -18.6776 -18.0903 -18.0152 -17.9294 -17.8060 -17.7893 -17.7246
   -17.5758 -17.5395 -17.5192 -17.5105 -17.3414 -17.1430 -17.0760 -17.0057
   -16.8201 -16.8013 -16.7983 -16.7696  -6.4461  -6.1272  -6.0062  -5.8391
    -5.7651  -5.6739  -5.5771  -5.4907  -5.3954  -5.2534  -5.1498  -5.0811
    -4.9465  -4.8548  -4.8306  -4.7638  -4.7100  -4.6111  -4.5032  -4.4788
    -4.4457  -4.4280  -4.3586  -4.1941  -4.0954  -4.0372  -3.9603  -3.8901
    -3.5980  -3.5285  -3.3556  -3.3027  -3.2606  -3.2417  -3.1936  -3.1012
    -3.0788  -3.0453  -2.9763  -2.8932  -2.8724  -2.8139  -2.6752  -2.6300
    -2.4816  -2.4335  -2.3532  -2.2415  -2.1920  -2.0705  -2.0182  -1.8494
    -1.7501  -1.6767  -1.5741  -1.5574  -1.4560  -1.2240  -1.0213  -0.9087
     1.1495   1.1995   1.2584   1.3533   1.4571   1.4855   1.6521   1.6861
     1.7415   1.7862   1.8376   1.8476   1.9565   2.0153   2.1287   2.1677
     2.2656   2.2873   2.4909   2.5576   2.5758   2.6950   2.7854   2.9521

          k = 0.0000 0.1984 0.0000 (130919 PWs)   bands (ev):

   -57.8313 -57.8229 -57.8067 -57.7985 -57.6465 -57.6407 -57.4899 -57.4782
   -57.4667 -57.4551 -34.2755 -34.2706 -34.2127 -34.2048 -34.0942 -34.0847
   -34.0690 -34.0665 -34.0347 -34.0254 -34.0141 -34.0022 -33.9459 -33.9406
   -33.8980 -33.8950 -33.8893 -33.8818 -33.8679 -33.8557 -33.8232 -33.8180
   -33.7998 -33.7777 -33.7426 -33.7208 -33.6511 -33.6393 -33.6282 -33.6176
   -18.8428 -18.6108 -18.0702 -17.9961 -17.9101 -17.7904 -17.7547 -17.7177
   -17.6231 -17.6100 -17.5744 -17.4686 -17.3114 -17.1683 -17.1015 -17.0192
   -16.8662 -16.8521 -16.8196 -16.8003  -6.3077  -6.1083  -5.8790  -5.7925
    -5.7399  -5.6590  -5.5319  -5.4163  -5.3483  -5.3035  -5.2574  -5.0103
    -4.9125  -4.8690  -4.8111  -4.7805  -4.7204  -4.6224  -4.5151  -4.4804
    -4.4354  -4.4113  -4.3380  -4.1410  -4.0861  -4.0412  -3.9877  -3.8131
    -3.7668  -3.6058  -3.4745  -3.4300  -3.3326  -3.2807  -3.2499  -3.2130
    -3.0949  -3.0478  -2.9105  -2.8762  -2.8147  -2.7720  -2.6387  -2.5836
    -2.5554  -2.4494  -2.3452  -2.2762  -2.0966  -2.0564  -1.9555  -1.8910
    -1.8326  -1.8155  -1.6070  -1.5078  -1.4732  -1.2790  -1.1177  -1.0087
     1.2169   1.2635   1.3120   1.4130   1.4826   1.6098   1.6252   1.7506
     1.7865   1.8493   1.8890   2.0172   2.0571   2.1127   2.1658   2.2116
     2.2653   2.3458   2.4296   2.5717   2.5884   2.6420   2.6945   2.8331

          k = 0.0000 0.3969 0.0000 (130908 PWs)   bands (ev):

   -57.8300 -57.8241 -57.8055 -57.7997 -57.6454 -57.6419 -57.4893 -57.4787
   -57.4662 -57.4556 -34.2678 -34.2646 -34.2019 -34.1983 -34.0928 -34.0864
   -34.0720 -34.0655 -34.0457 -34.0387 -34.0272 -34.0172 -33.9354 -33.9325
   -33.8956 -33.8933 -33.8807 -33.8766 -33.8652 -33.8522 -33.8358 -33.8276
   -33.7946 -33.7736 -33.7395 -33.7184 -33.6569 -33.6453 -33.6339 -33.6233
   -18.6129 -18.4293 -18.0708 -18.0050 -17.8866 -17.8282 -17.7705 -17.6801
   -17.6757 -17.6292 -17.6110 -17.4513 -17.2666 -17.2308 -17.1252 -17.0536
   -16.9970 -16.9776 -16.8596 -16.8420  -5.9969  -5.9465  -5.7343  -5.6960
    -5.6162  -5.5863  -5.4549  -5.4052  -5.3896  -5.3417  -5.2326  -5.2101
    -4.9727  -4.8548  -4.8166  -4.6908  -4.6014  -4.5858  -4.5103  -4.4630
    -4.3425  -4.3024  -4.2336  -4.1915  -4.1704  -3.9669  -3.9145  -3.8311
    -3.7742  -3.7498  -3.6785  -3.5724  -3.5152  -3.4233  -3.4009  -3.3166
    -3.1374  -3.1067  -3.0116  -2.9807  -2.7830  -2.7387  -2.6741  -2.6389
    -2.4217  -2.4137  -2.3640  -2.3236  -2.2569  -2.1458  -2.0294  -1.9752
    -1.8561  -1.7056  -1.5755  -1.4817  -1.4302  -1.3944  -1.2614  -1.2316
     1.3951   1.4233   1.4608   1.5281   1.5933   1.6962   1.8452   1.9055
     1.9433   1.9835   2.0586   2.1485   2.2140   2.2621   2.2743   2.3165
     2.3731   2.3864   2.4253   2.4616   2.5037   2.5734   2.6243   2.6630

          k = 0.0000-0.5953 0.0000 (130926 PWs)   bands (ev):

   -57.8291 -57.8250 -57.8046 -57.8005 -57.6442 -57.6431 -57.4891 -57.4790
   -57.4660 -57.4559 -34.2639 -34.2612 -34.1967 -34.1939 -34.0950 -34.0880
   -34.0699 -34.0633 -34.0512 -34.0468 -34.0339 -34.0246 -33.9313 -33.9283
   -33.8941 -33.8925 -33.8773 -33.8742 -33.8558 -33.8548 -33.8394 -33.8387
   -33.7918 -33.7714 -33.7379 -33.7171 -33.6601 -33.6483 -33.6369 -33.6262
   -18.3138 -18.2958 -18.1884 -18.1863 -17.8481 -17.8477 -17.7901 -17.7703
   -17.5810 -17.5703 -17.5499 -17.5417 -17.2112 -17.2056 -17.1656 -17.1542
   -17.0498 -17.0357 -16.8810 -16.8634  -5.7778  -5.7311  -5.6548  -5.6350
    -5.5574  -5.5483  -5.4710  -5.4488  -5.4451  -5.4394  -5.3746  -5.3170
    -4.9264  -4.8790  -4.7131  -4.7106  -4.5669  -4.5076  -4.3825  -4.3704
    -4.2926  -4.2915  -4.1288  -4.0805  -4.0236  -4.0009  -3.9809  -3.9706
    -3.8783  -3.8098  -3.7331  -3.6831  -3.5804  -3.5067  -3.3662  -3.3616
    -3.2552  -3.2135  -3.0400  -2.9742  -2.8901  -2.8485  -2.7020  -2.6591
    -2.4773  -2.4071  -2.3766  -2.3683  -2.2425  -2.2354  -1.9388  -1.9332
    -1.7505  -1.7442  -1.6052  -1.5995  -1.3955  -1.3728  -1.3114  -1.3000
     1.5374   1.5749   1.5776   1.5956   1.6526   1.7740   1.8849   1.9311
     2.0608   2.0843   2.0875   2.1841   2.2308   2.2932   2.3190   2.3554
     2.4106   2.4222   2.4874   2.5162   2.5613   2.6221   2.6552   2.6928

          k = 0.2000 0.0000 0.0000 (130938 PWs)   bands (ev):

   -57.8309 -57.8234 -57.8063 -57.7989 -57.6463 -57.6409 -57.4889 -57.4791
   -57.4658 -57.4560 -34.2740 -34.2695 -34.2111 -34.2030 -34.0923 -34.0847
   -34.0687 -34.0664 -34.0353 -34.0293 -34.0134 -34.0076 -33.9431 -33.9388
   -33.8965 -33.8952 -33.8880 -33.8805 -33.8675 -33.8556 -33.8248 -33.8197
   -33.7950 -33.7732 -33.7467 -33.7252 -33.6500 -33.6416 -33.6272 -33.6197
   -18.8324 -18.5898 -18.0821 -17.9752 -17.9152 -17.8502 -17.7503 -17.7324
   -17.7076 -17.5530 -17.5101 -17.4512 -17.3361 -17.1307 -17.1027 -17.0425
   -16.8858 -16.8691 -16.8267 -16.7992  -6.2833  -5.9702  -5.9126  -5.6924
    -5.6499  -5.5696  -5.4138  -5.3775  -5.3293  -5.2761  -5.1021  -5.0082
    -4.9464  -4.9201  -4.8047  -4.7272  -4.6513  -4.6044  -4.4747  -4.4510
    -4.3935  -4.3415  -4.2624  -4.2252  -4.1750  -4.0059  -3.9453  -3.9000
    -3.8016  -3.5486  -3.5034  -3.4820  -3.3967  -3.3272  -3.3002  -3.2227
    -3.1576  -3.1239  -3.0355  -2.9998  -2.8930  -2.8749  -2.7936  -2.6291
    -2.4601  -2.4075  -2.3342  -2.2917  -2.2273  -2.1349  -2.0201  -1.9825
    -1.8470  -1.8228  -1.7698  -1.6718  -1.6286  -1.3210  -1.1236  -1.0050
     1.2656   1.3605   1.3832   1.4391   1.5440   1.5493   1.6555   1.7438
     1.8142   1.8835   1.9021   2.0656   2.0798   2.1329   2.1708   2.3471
     2.3844   2.3942   2.4273   2.4857   2.5275   2.6752   2.7774   2.9292

          k = 0.2000 0.1984 0.0000 (130920 PWs)   bands (ev):

   -57.8305 -57.8237 -57.8059 -57.7993 -57.6460 -57.6413 -57.4887 -57.4793
   -57.4656 -57.4562 -34.2762 -34.2651 -34.2136 -34.1975 -34.0939 -34.0867
   -34.0687 -34.0651 -34.0449 -34.0269 -34.0217 -33.9994 -33.9479 -33.9329
   -33.8967 -33.8944 -33.8901 -33.8769 -33.8664 -33.8531 -33.8354 -33.8150
   -33.7939 -33.7722 -33.7466 -33.7252 -33.6534 -33.6400 -33.6306 -33.6180
   -18.7623 -18.5378 -18.0797 -17.9740 -17.9117 -17.8534 -17.7764 -17.7175
   -17.6874 -17.5606 -17.5348 -17.4473 -17.3350 -17.1608 -17.1151 -17.0488
   -16.9345 -16.9174 -16.8157 -16.7926  -6.2695  -6.0095  -5.7761  -5.7058
    -5.5740  -5.5016  -5.4158  -5.3813  -5.3192  -5.2463  -5.2318  -5.1166
    -5.0338  -4.9182  -4.7688  -4.7168  -4.6470  -4.6008  -4.5114  -4.4635
    -4.4161  -4.3700  -4.2285  -4.1749  -4.0611  -4.0341  -3.9305  -3.8449
    -3.7519  -3.7170  -3.6049  -3.4262  -3.3748  -3.2741  -3.2216  -3.2011
    -3.1471  -3.1144  -3.0329  -2.9845  -2.9282  -2.8057  -2.7164  -2.6325
    -2.4918  -2.4496  -2.3351  -2.2798  -2.1911  -2.1022  -2.0206  -1.9715
    -1.9171  -1.8288  -1.7619  -1.7149  -1.6701  -1.3935  -1.2018  -1.0996
     1.2554   1.3162   1.4066   1.4695   1.5384   1.6135   1.7018   1.7702
     1.8212   1.9115   2.0168   2.0841   2.1483   2.2093   2.2315   2.3272
     2.3637   2.3921   2.4196   2.4737   2.5396   2.6597   2.7081   2.7925

          k = 0.2000 0.3969 0.0000 (130913 PWs)   bands (ev):

   -57.8294 -57.8247 -57.8049 -57.8002 -57.6450 -57.6422 -57.4883 -57.4797
   -57.4652 -57.4566 -34.2743 -34.2632 -34.2110 -34.1952 -34.0944 -34.0903
   -34.0703 -34.0665 -34.0484 -34.0295 -34.0262 -34.0033 -33.9443 -33.9307
   -33.8967 -33.8933 -33.8876 -33.8758 -33.8647 -33.8537 -33.8390 -33.8171
   -33.7912 -33.7699 -33.7472 -33.7262 -33.6556 -33.6410 -33.6327 -33.6190
   -18.5745 -18.3958 -18.1481 -18.0131 -17.9122 -17.8422 -17.8040 -17.6846
   -17.6336 -17.5955 -17.5474 -17.4898 -17.3345 -17.1885 -17.1616 -17.1063
   -16.9728 -16.9475 -16.8353 -16.8160  -6.1818  -5.9405  -5.7674  -5.7158
    -5.5361  -5.4815  -5.4558  -5.4242  -5.3816  -5.3295  -5.2227  -5.0686
    -5.0111  -4.9220  -4.7907  -4.7693  -4.6356  -4.5463  -4.5016  -4.4603
    -4.3652  -4.2865  -4.1901  -4.1271  -4.0271  -3.9575  -3.9028  -3.8571
    -3.7674  -3.7093  -3.6275  -3.4617  -3.4028  -3.3297  -3.2878  -3.2119
    -3.1505  -3.0005  -2.9600  -2.9180  -2.8402  -2.7547  -2.6974  -2.6227
    -2.5723  -2.5138  -2.3491  -2.2830  -2.2345  -2.1229  -2.0686  -2.0562
    -2.0171  -1.8100  -1.7610  -1.6477  -1.6045  -1.4975  -1.3417  -1.2986
     1.3080   1.3298   1.4738   1.5448   1.5716   1.6343   1.7870   1.8288
     1.9004   2.0213   2.0630   2.1377   2.1680   2.2015   2.2548   2.3138
     2.3755   2.4266   2.4618   2.5145   2.5460   2.5954   2.6450   2.7532

          k = 0.2000-0.5953 0.0000 (130928 PWs)   bands (ev):

   -57.8287 -57.8254 -57.8042 -57.8009 -57.6441 -57.6432 -57.4881 -57.4799
   -57.4650 -57.4568 -34.2691 -34.2667 -34.2031 -34.2015 -34.0930 -34.0901
   -34.0726 -34.0711 -34.0409 -34.0358 -34.0231 -34.0129 -33.9365 -33.9347
   -33.8954 -33.8942 -33.8818 -33.8789 -33.8623 -33.8617 -33.8269 -33.8266
   -33.7895 -33.7686 -33.7480 -33.7271 -33.6546 -33.6433 -33.6317 -33.6212
   -18.3439 -18.3332 -18.1986 -18.1959 -17.8620 -17.8540 -17.7387 -17.7316
   -17.6237 -17.6137 -17.5223 -17.5191 -17.2978 -17.2858 -17.1545 -17.1399
   -16.9606 -16.9450 -16.8603 -16.8431  -5.9842  -5.9725  -5.7656  -5.7653
    -5.6620  -5.6457  -5.4780  -5.4556  -5.3600  -5.3507  -5.1177  -5.0725
    -4.8855  -4.8734  -4.7415  -4.7148  -4.5838  -4.5662  -4.4885  -4.4638
    -4.3186  -4.2946  -4.2360  -4.1799  -3.9428  -3.9281  -3.8161  -3.8148
    -3.7254  -3.7178  -3.6382  -3.6303  -3.4089  -3.3797  -3.2538  -3.2355
    -3.0994  -3.0389  -2.9224  -2.8753  -2.8237  -2.8115  -2.6525  -2.6260
    -2.5283  -2.5273  -2.4703  -2.3988  -2.2735  -2.2639  -2.0749  -2.0553
    -1.8629  -1.8477  -1.6770  -1.6647  -1.5717  -1.5481  -1.3858  -1.3734
     1.4008   1.4326   1.4866   1.4960   1.6462   1.6628   1.7858   1.8005
     1.9594   1.9714   2.0848   2.0922   2.1573   2.2317   2.2766   2.2867
     2.4161   2.4210   2.5201   2.5422   2.6177   2.6625   2.7241   2.7499

          k = 0.4000 0.0000 0.0000 (131004 PWs)   bands (ev):

   -57.8286 -57.8257 -57.8040 -57.8012 -57.6447 -57.6426 -57.4859 -57.4822
   -57.4628 -57.4591 -34.2646 -34.2632 -34.1984 -34.1956 -34.0883 -34.0882
   -34.0661 -34.0657 -34.0473 -34.0452 -34.0259 -34.0252 -33.9313 -33.9302
   -33.8937 -33.8930 -33.8782 -33.8752 -33.8612 -33.8515 -33.8397 -33.8326
   -33.7770 -33.7577 -33.7562 -33.7369 -33.6526 -33.6501 -33.6298 -33.6277
   -18.5765 -18.3532 -18.2437 -18.0521 -17.9515 -17.9305 -17.7793 -17.7123
   -17.5902 -17.4922 -17.4383 -17.4118 -17.3800 -17.2045 -17.1612 -17.1496
   -16.9500 -16.9319 -16.8950 -16.8717  -5.9068  -5.7092  -5.6350  -5.5262
    -5.4480  -5.4180  -5.3147  -5.2808  -5.1708  -5.1279  -4.9787  -4.9159
    -4.8432  -4.8173  -4.7302  -4.7210  -4.5920  -4.5856  -4.4551  -4.4400
    -4.3452  -4.2844  -4.2805  -4.1640  -4.0357  -4.0252  -3.9729  -3.8975
    -3.8763  -3.8213  -3.7623  -3.6928  -3.6543  -3.6019  -3.5148  -3.3600
    -3.2684  -3.2457  -3.1271  -3.0995  -2.9529  -2.9228  -2.8721  -2.8228
    -2.7758  -2.7587  -2.6600  -2.4554  -2.3951  -2.2546  -2.0320  -2.0230
    -1.9368  -1.9324  -1.7091  -1.5696  -1.5145  -1.4970  -1.3572  -1.2566
     1.4331   1.4380   1.5198   1.6205   1.6705   1.6847   1.7465   1.8655
     1.9681   1.9835   2.0694   2.1801   2.2306   2.2510   2.3450   2.3965
     2.4454   2.4782   2.5153   2.6344   2.6691   2.7598   2.7828   2.8575

          k = 0.4000 0.1984 0.0000 (130983 PWs)   bands (ev):

   -57.8284 -57.8258 -57.8039 -57.8013 -57.6445 -57.6427 -57.4858 -57.4822
   -57.4627 -57.4591 -34.2704 -34.2635 -34.2060 -34.1959 -34.0907 -34.0896
   -34.0699 -34.0666 -34.0469 -34.0343 -34.0258 -34.0116 -33.9384 -33.9305
   -33.8950 -33.8934 -33.8836 -33.8761 -33.8634 -33.8557 -33.8369 -33.8223
   -33.7784 -33.7602 -33.7570 -33.7389 -33.6523 -33.6453 -33.6296 -33.6230
   -18.5437 -18.3426 -18.2543 -18.0795 -17.9476 -17.9117 -17.7714 -17.6953
   -17.5942 -17.5040 -17.4790 -17.4295 -17.3853 -17.2442 -17.1653 -17.1319
   -16.9391 -16.9203 -16.8673 -16.8458  -6.0750  -5.8050  -5.7594  -5.5433
    -5.4852  -5.4215  -5.3545  -5.2639  -5.2271  -5.1515  -5.1260  -4.9857
    -4.9164  -4.8386  -4.7679  -4.6842  -4.5937  -4.5426  -4.5277  -4.4500
    -4.3070  -4.2175  -4.2015  -4.1480  -4.0883  -4.0441  -3.9457  -3.8637
    -3.7861  -3.7150  -3.6890  -3.5952  -3.5328  -3.4509  -3.3692  -3.3052
    -3.2100  -3.1731  -3.0994  -3.0246  -2.9588  -2.8370  -2.8003  -2.7574
    -2.7180  -2.5971  -2.5338  -2.4836  -2.2971  -2.1895  -2.0895  -2.0403
    -1.9972  -1.9214  -1.8183  -1.6863  -1.6096  -1.5959  -1.4342  -1.3578
     1.3491   1.3946   1.4482   1.5613   1.6053   1.6716   1.7106   1.8064
     1.8816   2.0348   2.0751   2.1744   2.2076   2.2833   2.3199   2.3808
     2.4037   2.5031   2.5122   2.5521   2.6269   2.7056   2.7784   2.8291

          k = 0.4000 0.3969 0.0000 (130956 PWs)   bands (ev):

   -57.8280 -57.8261 -57.8035 -57.8017 -57.6442 -57.6431 -57.4857 -57.4824
   -57.4626 -57.4593 -34.2762 -34.2697 -34.2132 -34.2042 -34.0960 -34.0924
   -34.0722 -34.0698 -34.0352 -34.0230 -34.0142 -33.9990 -33.9469 -33.9376
   -33.8965 -33.8952 -33.8904 -33.8823 -33.8643 -33.8626 -33.8238 -33.8141
   -33.7810 -33.7652 -33.7587 -33.7431 -33.6475 -33.6402 -33.6250 -33.6179
   -18.4658 -18.3180 -18.2840 -18.1424 -17.9075 -17.8720 -17.7448 -17.6771
   -17.6156 -17.5729 -17.5235 -17.4686 -17.4013 -17.3153 -17.1427 -17.1173
   -16.8993 -16.8789 -16.8386 -16.8185  -6.2093  -6.0184  -5.9306  -5.7689
    -5.6814  -5.5452  -5.4017  -5.3829  -5.3136  -5.2297  -5.0931  -5.0082
    -4.8926  -4.8042  -4.7818  -4.7266  -4.6887  -4.6457  -4.5177  -4.4972
    -4.3292  -4.2330  -4.1224  -4.0412  -3.9538  -3.8529  -3.7715  -3.7331
    -3.5784  -3.5183  -3.4884  -3.4249  -3.3692  -3.2894  -3.2671  -3.1855
    -3.1149  -3.0213  -2.9814  -2.8952  -2.8463  -2.7543  -2.7058  -2.6744
    -2.5613  -2.5218  -2.4677  -2.3062  -2.2614  -2.2127  -2.1447  -2.0894
    -2.0600  -2.0225  -1.9532  -1.8447  -1.7743  -1.6601  -1.5758  -1.5232
     1.2622   1.2849   1.3732   1.4531   1.5095   1.5474   1.6410   1.7164
     1.8458   1.9286   2.0301   2.0726   2.1477   2.1907   2.3110   2.3343
     2.3965   2.4357   2.4966   2.5508   2.6190   2.7440   2.7811   2.8604

          k = 0.4000-0.5953 0.0000 (130970 PWs)   bands (ev):

   -57.8277 -57.8264 -57.8032 -57.8019 -57.6438 -57.6435 -57.4856 -57.4825
   -57.4625 -57.4594 -34.2764 -34.2753 -34.2126 -34.2123 -34.0967 -34.0967
   -34.0712 -34.0708 -34.0259 -34.0221 -34.0038 -33.9979 -33.9462 -33.9462
   -33.8973 -33.8963 -33.8905 -33.8890 -33.8644 -33.8640 -33.8148 -33.8146
   -33.7820 -33.7678 -33.7593 -33.7453 -33.6440 -33.6388 -33.6216 -33.6167
   -18.3830 -18.3801 -18.2223 -18.2203 -17.8576 -17.8529 -17.6920 -17.6861
   -17.6620 -17.6510 -17.5057 -17.5043 -17.3787 -17.3728 -17.1219 -17.1170
   -16.8669 -16.8526 -16.8341 -16.8194  -6.1913  -6.1896  -5.9153  -5.9138
    -5.7358  -5.7303  -5.4478  -5.4403  -5.2907  -5.2864  -5.0609  -5.0437
    -4.8662  -4.8487  -4.7718  -4.7598  -4.6967  -4.6772  -4.5078  -4.5065
    -4.3051  -4.3001  -4.0382  -3.9982  -3.7944  -3.7936  -3.5877  -3.5405
    -3.4361  -3.4328  -3.3926  -3.3494  -3.3420  -3.3134  -3.1157  -3.0938
    -3.0317  -2.9906  -2.9545  -2.9259  -2.8342  -2.8088  -2.7203  -2.6689
    -2.5524  -2.5463  -2.4385  -2.3771  -2.2843  -2.2766  -2.1049  -2.1028
    -2.0242  -2.0041  -1.9316  -1.8840  -1.7669  -1.7420  -1.5953  -1.5822
     1.2501   1.2594   1.3083   1.3300   1.5020   1.5230   1.6241   1.6275
     1.8642   1.9015   1.9928   2.0127   2.0806   2.1040   2.2211   2.2288
     2.4590   2.4837   2.5280   2.5726   2.6718   2.6728   2.8411   2.8471

     the Fermi energy is     0.1102 ev

!    total energy              =   -1796.40727513 Ry
     estimated scf accuracy    <       0.00000053 Ry
     smearing contrib. (-TS)   =      -0.00000000 Ry
     internal energy E=F+TS    =   -1796.40727513 Ry

     The total energy is F=E-TS. E is the sum of the following terms:
     one-electron contribution =  -35350.45327561 Ry
     hartree contribution      =   17700.40837633 Ry
     xc contribution           =    -283.37480539 Ry
     ewald contribution        =   16137.01242954 Ry

     convergence has been achieved in  15 iterations

     Forces acting on atoms (cartesian axes, Ry/au):

     atom    1 type  1   force =     0.00002481   -0.00001315   -0.00013237
     atom    2 type  1   force =     0.00002481    0.00001315   -0.00013237
     atom    3 type  1   force =    -0.00001261   -0.00076746    0.00033235
     atom    4 type  1   force =    -0.00001261    0.00076746    0.00033235
     atom    5 type  1   force =     0.00042774   -0.00019654    0.00005571
     atom    6 type  1   force =     0.00042774    0.00019654    0.00005571
     atom    7 type  1   force =    -0.00029850    0.00059346   -0.00016573
     atom    8 type  1   force =    -0.00029850   -0.00059346   -0.00016573
     atom    9 type  1   force =    -0.00019184    0.00018527    0.00015949
     atom   10 type  1   force =    -0.00019184   -0.00018527    0.00015949
     atom   11 type  2   force =    -0.00035937    0.00013034   -0.00092397
     atom   12 type  2   force =    -0.00035937   -0.00013034   -0.00092397
     atom   13 type  2   force =    -0.00031782    0.00042861   -0.00010149
     atom   14 type  2   force =    -0.00038032   -0.00021919    0.00020207
     atom   15 type  2   force =    -0.00031782   -0.00042861   -0.00010149
     atom   16 type  2   force =    -0.00038032    0.00021919    0.00020207
     atom   17 type  2   force =     0.00007587    0.00008954    0.00028649
     atom   18 type  2   force =     0.00094026   -0.00062115   -0.00051739
     atom   19 type  2   force =     0.00007587   -0.00008954    0.00028649
     atom   20 type  2   force =     0.00094026    0.00062115   -0.00051739
     atom   21 type  2   force =     0.00014625   -0.00005622    0.00039809
     atom   22 type  2   force =    -0.00001700   -0.00022985   -0.00021895
     atom   23 type  2   force =     0.00014625    0.00005622    0.00039809
     atom   24 type  2   force =    -0.00001700    0.00022985   -0.00021895
     atom   25 type  2   force =     0.00035746    0.00029219   -0.00027033
     atom   26 type  2   force =    -0.00028132   -0.00005701    0.00024898
     atom   27 type  2   force =     0.00035746   -0.00029219   -0.00027033
     atom   28 type  2   force =    -0.00028132    0.00005701    0.00024898
     atom   29 type  2   force =    -0.00011360    0.00022052    0.00064705
     atom   30 type  2   force =    -0.00011360   -0.00022052    0.00064705

     Total force =     0.003425     Total SCF correction =     0.000978
     SCF correction compared to forces is large: reduce conv_thr to get better values


     Computing stress (Cartesian axis) and pressure

          total   stress  (Ry/bohr**3)                   (kbar)     P=        0.46
   0.00000218   0.00000000   0.00000042            0.32        0.00        0.06
   0.00000000   0.00000179   0.00000000            0.00        0.26        0.00
   0.00000042   0.00000000   0.00000550            0.06        0.00        0.81


     BFGS Geometry Optimization
     Energy error            =      0.0E+00 Ry
     Gradient error          =      9.4E-04 Ry/Bohr
     Cell gradient error     =      3.2E-01 kbar

     bfgs converged in   1 scf cycles and   0 bfgs steps
     (criteria: energy <  1.0E-04 Ry, force <  1.0E-03 Ry/Bohr, cell <  5.0E-01 kbar)

     End of BFGS Geometry Optimization

     Final enthalpy           =   -1796.4072751267 Ry
Begin final coordinates
     new unit-cell volume =   5898.60822 a.u.^3 (   874.08356 Ang^3 )
     density =      1.51723 g/cm^3

CELL_PARAMETERS (angstrom)
   5.519027498   0.000000000   0.000000000
   0.000000000   4.635447265   0.000000000
   0.000000000   0.000000000  34.166362763

ATOMIC_POSITIONS (angstrom)
Ti               3.9861809657       -0.2236905190       12.5389850125
Ti               1.2266673809        2.5414140130       12.5389850125
Ti               2.2050792617        0.1063663729       14.9082831604
Ti               4.9645926818        2.2113571211       14.9082831604
Ti               0.7918610834        0.0344246616       17.4828545918
Ti               3.5513744621        2.2832988324       17.4828545918
Ti               4.6195441560       -0.1082507804       20.0066218596
Ti               1.8600305713        2.4259742744       20.0066218596
Ti               2.8622794667        0.2239592975       22.3804919605
Ti               0.1027659850        2.0937641965       22.3804919605
O                2.6299102990        3.3466437213       11.7397474964
O                5.3894240484        3.6065263469       11.7397474964
O                5.0293069026        1.3870833400       13.2045274125
O                1.0695440903        3.2483243029       14.2190076671
O                2.2697929896        0.9306402236       13.2045263945
O                3.8290573458        3.7048460408       14.2190066491
O                3.4449644640        1.4040086022       15.7147795898
O                4.9640297923        3.1976268850       16.6900365690
O                0.6854510439        0.9137148918       15.7147816258
O                2.2045158783        3.7555434587       16.6900355510
O                1.8341983888        1.4180667687       18.2468859134
O                3.3833038216        3.2317044708       19.2087563196
O                4.5937121382        0.8996566567       18.2468859134
O                0.6237901136        3.7214655974       19.2087563196
O                0.2454976775        1.3866536275       20.7005904054
O                1.8034087124        3.2417720956       21.7134153264
O                3.0050108097        0.9310699361       20.7005863324
O                4.5629227910        3.7113982491       21.7134173624
O                4.2113298591        1.2933576713       23.1785776977
O                1.4518156987        1.0243658924       23.1785756617
End final coordinates



     Writing config-only to output data dir ./Out/pwscf.save/

     Final scf calculation at the relaxed structure.
     The G-vectors are recalculated for the final unit cell
     Results may differ from those at the preceding step.
 
     G-vector sticks info
     --------------------
     sticks:   dense  smooth     PW     G-vecs:    dense   smooth      PW
     Sum        3493    3493    931              1047795  1047795  146885
 
     Using Slab Decomposition
 


     bravais-lattice index     =            0
     lattice parameter (alat)  =      10.4295  a.u.
     unit-cell volume          =    5898.6082 (a.u.)^3
     number of atoms/cell      =           30
     number of atomic types    =            2
     number of electrons       =       240.00
     number of Kohn-Sham states=          144
     kinetic-energy cutoff     =     120.0000  Ry
     charge density cutoff     =     480.0000  Ry
     scf convergence threshold =      1.0E-06
     mixing beta               =       0.4000
     number of iterations used =           20  plain     mixing
     press convergence thresh. =      5.0E-01
     Exchange-correlation= PBE
                           (   1   4   3   4   0   0   0)

     GPU acceleration is ACTIVE.


     celldm(1)=  10.429450  celldm(2)=   0.000000  celldm(3)=   0.000000
     celldm(4)=   0.000000  celldm(5)=   0.000000  celldm(6)=   0.000000

     crystal axes: (cart. coord. in units of alat)
               a(1) = (   1.000000   0.000000   0.000000 )  
               a(2) = (   0.000000   0.839903   0.000000 )  
               a(3) = (   0.000000   0.000000   6.190649 )  

     reciprocal axes: (cart. coord. in units 2 pi/alat)
               b(1) = (  1.000000  0.000000  0.000000 )  
               b(2) = (  0.000000  1.190614  0.000000 )  
               b(3) = (  0.000000  0.000000  0.161534 )  


     PseudoPot. # 1 for Ti read from file:
     /cm/shared/apps/KO/pseudo/sg15/Ti_ONCV_PBE-1.2.upf
     MD5 check sum: 1aea57736bd12dcfee93c97d0b9b5968
     Pseudo is Norm-conserving, Zval = 12.0
     Generated using ONCVPSP code by D. R. Hamann
     Using radial grid of  602 points,  6 beta functions with: 
                l(1) =   0
                l(2) =   0
                l(3) =   1
                l(4) =   1
                l(5) =   2
                l(6) =   2

     PseudoPot. # 2 for O  read from file:
     /cm/shared/apps/KO/pseudo/sg15/O_ONCV_PBE-1.2.upf
     MD5 check sum: e36c48deb68f4e355fffe4602be2c42c
     Pseudo is Norm-conserving, Zval =  6.0
     Generated using ONCVPSP code by D. R. Hamann
     Using radial grid of  602 points,  4 beta functions with: 
                l(1) =   0
                l(2) =   0
                l(3) =   1
                l(4) =   1

     atomic species   valence    mass     pseudopotential
     Ti               12.00    47.86700     Ti( 1.00)
     O                 6.00    15.99900     O ( 1.00)

      2 Sym. Ops. (no inversion) found ( 1 have fractional translation)



   Cartesian axes

     site n.     atom                  positions (alat units)
         1        Ti     tau(   1) = (   0.7222615  -0.0405308   2.2719555  )
         2        Ti     tau(   2) = (   0.2222615   0.4604822   2.2719555  )
         3        Ti     tau(   3) = (   0.3995413   0.0192727   2.7012518  )
         4        Ti     tau(   4) = (   0.8995412   0.4006788   2.7012518  )
         5        Ti     tau(   5) = (   0.1434784   0.0062375   3.1677419  )
         6        Ti     tau(   6) = (   0.6434783   0.4137140   3.1677419  )
         7        Ti     tau(   7) = (   0.8370214  -0.0196141   3.6250267  )
         8        Ti     tau(   8) = (   0.3370214   0.4395655   3.6250267  )
         9        Ti     tau(   9) = (   0.5186203   0.0405795   4.0551514  )
        10        Ti     tau(  10) = (   0.0186203   0.3793719   4.0551514  )
        11        O      tau(  11) = (   0.4765170   0.6063829   2.1271406  )
        12        O      tau(  12) = (   0.9765170   0.6534713   2.1271406  )
        13        O      tau(  13) = (   0.9112669   0.2513275   2.3925460  )
        14        O      tau(  14) = (   0.1937921   0.5885682   2.5763611  )
        15        O      tau(  15) = (   0.4112668   0.1686240   2.3925459  )
        16        O      tau(  16) = (   0.6937920   0.6712860   2.5763609  )
        17        O      tau(  17) = (   0.6241977   0.2543942   2.8473820  )
        18        O      tau(  18) = (   0.8994392   0.5793823   3.0240901  )
        19        O      tau(  19) = (   0.1241978   0.1655572   2.8473824  )
        20        O      tau(  20) = (   0.3994392   0.6804720   3.0240899  )
        21        O      tau(  21) = (   0.3323409   0.2569414   3.3061777  )
        22        O      tau(  22) = (   0.6130254   0.5855569   3.4804603  )
        23        O      tau(  23) = (   0.8323409   0.1630100   3.3061777  )
        24        O      tau(  24) = (   0.1130254   0.6742973   3.4804603  )
        25        O      tau(  25) = (   0.0444821   0.2512496   3.7507678  )
        26        O      tau(  26) = (   0.3267620   0.5873810   3.9342829  )
        27        O      tau(  27) = (   0.5444819   0.1687018   3.7507670  )
        28        O      tau(  28) = (   0.8267621   0.6724732   3.9342832  )
        29        O      tau(  29) = (   0.7630565   0.2343452   4.1997576  )
        30        O      tau(  30) = (   0.2630564   0.1856062   4.1997572  )

     number of k points=    12  Gaussian smearing, width (Ry)=  0.0200
                       cart. coord. in units 2pi/alat
        k(    1) = (   0.0000000   0.0000000   0.0000000), wk =   0.0666667
        k(    2) = (   0.0000000   0.1984356   0.0000000), wk =   0.1333333
        k(    3) = (   0.0000000   0.3968713   0.0000000), wk =   0.1333333
        k(    4) = (   0.0000000  -0.5953069   0.0000000), wk =   0.0666667
        k(    5) = (   0.2000000   0.0000000   0.0000000), wk =   0.1333333
        k(    6) = (   0.2000000   0.1984356   0.0000000), wk =   0.2666667
        k(    7) = (   0.2000000   0.3968713   0.0000000), wk =   0.2666667
        k(    8) = (   0.2000000  -0.5953069   0.0000000), wk =   0.1333333
        k(    9) = (   0.4000000   0.0000000   0.0000000), wk =   0.1333333
        k(   10) = (   0.4000000   0.1984356   0.0000000), wk =   0.2666667
        k(   11) = (   0.4000000   0.3968713   0.0000000), wk =   0.2666667
        k(   12) = (   0.4000000  -0.5953069   0.0000000), wk =   0.1333333

     Dense  grid:  1047795 G-vectors     FFT dimensions: (  80,  64, 480)

     Estimated max dynamical RAM per process >       6.46 GB

     Initial potential from superposition of free atoms

     starting charge     238.8836, renormalised to     240.0000

     negative rho (up, down):  1.334E-03 0.000E+00
     Starting wfcs are random

     total cpu time spent up to now is      141.0 secs

     per-process dynamical memory:   177.3 Mb

     Self-consistent Calculation

     iteration #  1     ecut=   120.00 Ry     beta= 0.40
     Davidson diagonalization with overlap
     c_bands:  2 eigenvalues not converged
     c_bands:  2 eigenvalues not converged
     c_bands:  1 eigenvalues not converged
     c_bands:  2 eigenvalues not converged
     c_bands:  3 eigenvalues not converged
     c_bands:  2 eigenvalues not converged
     c_bands:  2 eigenvalues not converged
     c_bands:  2 eigenvalues not converged
     c_bands:  3 eigenvalues not converged
     c_bands:  2 eigenvalues not converged
     c_bands:  3 eigenvalues not converged
     c_bands:  2 eigenvalues not converged
     ethr =  1.00E-06,  avg # of iterations = 60.0

     negative rho (up, down):  7.346E-04 0.000E+00

     total cpu time spent up to now is      184.3 secs

     total energy              =   -1792.28109116 Ry
     estimated scf accuracy    <      13.77709586 Ry

     iteration #  2     ecut=   120.00 Ry     beta= 0.40
     Davidson diagonalization with overlap
     ethr =  5.74E-03,  avg # of iterations =  4.0

     negative rho (up, down):  4.909E-04 0.000E+00

     total cpu time spent up to now is      190.6 secs

     total energy              =   -1794.62797126 Ry
     estimated scf accuracy    <       6.85501123 Ry

     iteration #  3     ecut=   120.00 Ry     beta= 0.40
     Davidson diagonalization with overlap
     ethr =  2.86E-03,  avg # of iterations =  2.8

     negative rho (up, down):  3.730E-04 0.000E+00

     total cpu time spent up to now is      196.4 secs

     total energy              =   -1796.24597128 Ry
     estimated scf accuracy    <       0.79184837 Ry

     iteration #  4     ecut=   120.00 Ry     beta= 0.40
     Davidson diagonalization with overlap
     ethr =  3.30E-04,  avg # of iterations =  4.3

     negative rho (up, down):  2.410E-04 0.000E+00

     total cpu time spent up to now is      202.5 secs

     total energy              =   -1796.34878834 Ry
     estimated scf accuracy    <       0.36062067 Ry

     iteration #  5     ecut=   120.00 Ry     beta= 0.40
     Davidson diagonalization with overlap
     ethr =  1.50E-04,  avg # of iterations =  5.3

     negative rho (up, down):  5.725E-05 0.000E+00

     total cpu time spent up to now is      208.6 secs

     total energy              =   -1796.36875476 Ry
     estimated scf accuracy    <       0.07874050 Ry

     iteration #  6     ecut=   120.00 Ry     beta= 0.40
     Davidson diagonalization with overlap
     c_bands:  2 eigenvalues not converged
     ethr =  3.28E-05,  avg # of iterations =  9.7

     negative rho (up, down):  1.981E-05 0.000E+00

     total cpu time spent up to now is      217.5 secs

     total energy              =   -1796.40216873 Ry
     estimated scf accuracy    <       0.16406024 Ry

     iteration #  7     ecut=   120.00 Ry     beta= 0.40
     Davidson diagonalization with overlap
     ethr =  3.28E-05,  avg # of iterations =  3.3

     negative rho (up, down):  9.524E-06 0.000E+00

     total cpu time spent up to now is      223.2 secs

     total energy              =   -1796.39901067 Ry
     estimated scf accuracy    <       0.04603541 Ry

     iteration #  8     ecut=   120.00 Ry     beta= 0.40
     Davidson diagonalization with overlap
     ethr =  1.92E-05,  avg # of iterations =  5.0

     negative rho (up, down):  3.995E-06 0.000E+00

     total cpu time spent up to now is      229.2 secs

     total energy              =   -1796.40475488 Ry
     estimated scf accuracy    <       0.00383881 Ry

     iteration #  9     ecut=   120.00 Ry     beta= 0.40
     Davidson diagonalization with overlap
     c_bands:  4 eigenvalues not converged
     c_bands:  5 eigenvalues not converged
     c_bands:  2 eigenvalues not converged
     c_bands:  5 eigenvalues not converged
     c_bands:  5 eigenvalues not converged
     c_bands:  4 eigenvalues not converged
     c_bands:  5 eigenvalues not converged
     c_bands:  1 eigenvalues not converged
     ethr =  1.60E-06,  avg # of iterations = 18.9

     negative rho (up, down):  1.648E-06 0.000E+00

     total cpu time spent up to now is      239.0 secs

     total energy              =   -1796.40711090 Ry
     estimated scf accuracy    <       0.00139785 Ry

     iteration # 10     ecut=   120.00 Ry     beta= 0.40
     Davidson diagonalization with overlap
     c_bands:  1 eigenvalues not converged
     ethr =  5.82E-07,  avg # of iterations = 11.3

     negative rho (up, down):  6.188E-07 0.000E+00

     total cpu time spent up to now is      246.4 secs

     total energy              =   -1796.40721686 Ry
     estimated scf accuracy    <       0.00020424 Ry

     iteration # 11     ecut=   120.00 Ry     beta= 0.40
     Davidson diagonalization with overlap
     c_bands:  1 eigenvalues not converged
     ethr =  8.51E-08,  avg # of iterations =  9.3

     negative rho (up, down):  3.529E-07 0.000E+00

     total cpu time spent up to now is      253.9 secs

     total energy              =   -1796.40726927 Ry
     estimated scf accuracy    <       0.00003223 Ry

     iteration # 12     ecut=   120.00 Ry     beta= 0.40
     Davidson diagonalization with overlap
     ethr =  1.34E-08,  avg # of iterations =  2.9

     total cpu time spent up to now is      259.7 secs

     total energy              =   -1796.40727189 Ry
     estimated scf accuracy    <       0.00000847 Ry

     iteration # 13     ecut=   120.00 Ry     beta= 0.40
     Davidson diagonalization with overlap
     ethr =  3.53E-09,  avg # of iterations =  5.5

     negative rho (up, down):  2.033E-08 0.000E+00

     total cpu time spent up to now is      266.8 secs

     total energy              =   -1796.40727523 Ry
     estimated scf accuracy    <       0.00000931 Ry

     iteration # 14     ecut=   120.00 Ry     beta= 0.40
     Davidson diagonalization with overlap
     ethr =  3.53E-09,  avg # of iterations =  1.8

     negative rho (up, down):  3.190E-08 0.000E+00

     total cpu time spent up to now is      273.1 secs

     total energy              =   -1796.40727442 Ry
     estimated scf accuracy    <       0.00000350 Ry

     iteration # 15     ecut=   120.00 Ry     beta= 0.40
     Davidson diagonalization with overlap
     ethr =  1.46E-09,  avg # of iterations =  5.4

     negative rho (up, down):  2.019E-08 0.000E+00

     total cpu time spent up to now is      279.8 secs

     total energy              =   -1796.40727531 Ry
     estimated scf accuracy    <       0.00000126 Ry

     iteration # 16     ecut=   120.00 Ry     beta= 0.40
     Davidson diagonalization with overlap
     ethr =  5.24E-10,  avg # of iterations =  4.3

     total cpu time spent up to now is      285.6 secs

     End of self-consistent calculation

          k = 0.0000 0.0000 0.0000 (131099 PWs)   bands (ev):

   -57.8309 -57.8216 -57.8061 -57.7969 -57.6466 -57.6399 -57.4899 -57.4778
   -57.4664 -57.4543 -34.2785 -34.2727 -34.2170 -34.2066 -34.0952 -34.0845
   -34.0654 -34.0646 -34.0285 -34.0177 -34.0057 -33.9935 -33.9526 -33.9445
   -33.8971 -33.8967 -33.8938 -33.8843 -33.8679 -33.8558 -33.8175 -33.8142
   -33.8020 -33.7790 -33.7438 -33.7214 -33.6481 -33.6363 -33.6250 -33.6143
   -18.9268 -18.6778 -18.0907 -18.0154 -17.9297 -17.8063 -17.7895 -17.7248
   -17.5762 -17.5399 -17.5194 -17.5108 -17.3416 -17.1432 -17.0762 -17.0059
   -16.8202 -16.8012 -16.7984 -16.7695  -6.4463  -6.1273  -6.0063  -5.8393
    -5.7651  -5.6741  -5.5772  -5.4909  -5.3955  -5.2534  -5.1499  -5.0812
    -4.9466  -4.8548  -4.8307  -4.7639  -4.7101  -4.6111  -4.5033  -4.4790
    -4.4459  -4.4279  -4.3587  -4.1943  -4.0955  -4.0374  -3.9604  -3.8903
    -3.5982  -3.5286  -3.3556  -3.3027  -3.2606  -3.2418  -3.1937  -3.1014
    -3.0789  -3.0456  -2.9765  -2.8933  -2.8723  -2.8140  -2.6754  -2.6302
    -2.4817  -2.4336  -2.3533  -2.2415  -2.1923  -2.0708  -2.0183  -1.8496
    -1.7502  -1.6769  -1.5743  -1.5575  -1.4562  -1.2242  -1.0215  -0.9090
     1.1500   1.2001   1.2590   1.3536   1.4575   1.4858   1.6525   1.6865
     1.7420   1.7866   1.8378   1.8480   1.9568   2.0156   2.1291   2.1679
     2.2659   2.2875   2.4911   2.5579   2.5764   2.6955   2.7856   2.9520

          k = 0.0000 0.1984 0.0000 (130919 PWs)   bands (ev):

   -57.8304 -57.8220 -57.8056 -57.7974 -57.6462 -57.6404 -57.4896 -57.4780
   -57.4661 -57.4545 -34.2748 -34.2699 -34.2119 -34.2039 -34.0934 -34.0839
   -34.0681 -34.0656 -34.0339 -34.0246 -34.0132 -34.0012 -33.9455 -33.9402
   -33.8977 -33.8947 -33.8889 -33.8814 -33.8673 -33.8551 -33.8228 -33.8177
   -33.7995 -33.7772 -33.7424 -33.7203 -33.6509 -33.6391 -33.6277 -33.6170
   -18.8432 -18.6110 -18.0706 -17.9963 -17.9103 -17.7907 -17.7549 -17.7180
   -17.6234 -17.6102 -17.5746 -17.4688 -17.3116 -17.1685 -17.1017 -17.0193
   -16.8664 -16.8519 -16.8197 -16.8002  -6.3078  -6.1084  -5.8791  -5.7926
    -5.7400  -5.6591  -5.5319  -5.4165  -5.3484  -5.3036  -5.2575  -5.0104
    -4.9127  -4.8691  -4.8112  -4.7807  -4.7206  -4.6224  -4.5152  -4.4805
    -4.4354  -4.4114  -4.3380  -4.1412  -4.0861  -4.0413  -3.9879  -3.8132
    -3.7670  -3.6059  -3.4746  -3.4299  -3.3328  -3.2808  -3.2500  -3.2132
    -3.0950  -3.0480  -2.9105  -2.8764  -2.8148  -2.7721  -2.6388  -2.5838
    -2.5555  -2.4495  -2.3453  -2.2765  -2.0967  -2.0566  -1.9556  -1.8911
    -1.8328  -1.8156  -1.6072  -1.5079  -1.4734  -1.2792  -1.1178  -1.0089
     1.2174   1.2642   1.3124   1.4134   1.4830   1.6102   1.6256   1.7510
     1.7868   1.8496   1.8894   2.0176   2.0574   2.1130   2.1662   2.2118
     2.2655   2.3461   2.4298   2.5721   2.5886   2.6426   2.6948   2.8322

          k = 0.0000 0.3969 0.0000 (130908 PWs)   bands (ev):

   -57.8291 -57.8232 -57.8044 -57.7986 -57.6450 -57.6415 -57.4891 -57.4785
   -57.4656 -57.4550 -34.2671 -34.2639 -34.2011 -34.1975 -34.0920 -34.0856
   -34.0711 -34.0646 -34.0449 -34.0380 -34.0263 -34.0163 -33.9349 -33.9320
   -33.8953 -33.8930 -33.8803 -33.8761 -33.8646 -33.8518 -33.8355 -33.8273
   -33.7943 -33.7731 -33.7393 -33.7179 -33.6568 -33.6451 -33.6333 -33.6227
   -18.6133 -18.4295 -18.0712 -18.0053 -17.8868 -17.8285 -17.7708 -17.6804
   -17.6760 -17.6296 -17.6110 -17.4515 -17.2668 -17.2309 -17.1254 -17.0538
   -16.9970 -16.9775 -16.8597 -16.8418  -5.9971  -5.9466  -5.7344  -5.6961
    -5.6163  -5.5864  -5.4550  -5.4053  -5.3897  -5.3418  -5.2328  -5.2102
    -4.9728  -4.8550  -4.8166  -4.6908  -4.6015  -4.5859  -4.5104  -4.4630
    -4.3426  -4.3024  -4.2336  -4.1917  -4.1704  -3.9669  -3.9146  -3.8312
    -3.7741  -3.7499  -3.6786  -3.5725  -3.5153  -3.4234  -3.4010  -3.3168
    -3.1375  -3.1069  -3.0117  -2.9809  -2.7832  -2.7389  -2.6742  -2.6389
    -2.4219  -2.4140  -2.3641  -2.3238  -2.2570  -2.1459  -2.0296  -1.9754
    -1.8562  -1.7058  -1.5757  -1.4819  -1.4305  -1.3945  -1.2615  -1.2317
     1.3955   1.4239   1.4612   1.5285   1.5937   1.6967   1.8456   1.9059
     1.9437   1.9838   2.0590   2.1488   2.2143   2.2624   2.2745   2.3168
     2.3734   2.3867   2.4255   2.4621   2.5038   2.5730   2.6246   2.6625

          k = 0.0000-0.5953 0.0000 (130926 PWs)   bands (ev):

   -57.8282 -57.8241 -57.8035 -57.7994 -57.6438 -57.6427 -57.4888 -57.4788
   -57.4653 -57.4553 -34.2632 -34.2605 -34.1959 -34.1931 -34.0943 -34.0873
   -34.0689 -34.0623 -34.0504 -34.0461 -34.0330 -34.0237 -33.9308 -33.9279
   -33.8938 -33.8922 -33.8768 -33.8738 -33.8553 -33.8543 -33.8391 -33.8383
   -33.7916 -33.7708 -33.7377 -33.7166 -33.6599 -33.6481 -33.6363 -33.6256
   -18.3142 -18.2961 -18.1887 -18.1864 -17.8485 -17.8479 -17.7904 -17.7707
   -17.5814 -17.5708 -17.5500 -17.5418 -17.2115 -17.2058 -17.1656 -17.1543
   -17.0501 -17.0357 -16.8811 -16.8632  -5.7780  -5.7314  -5.6550  -5.6349
    -5.5576  -5.5485  -5.4712  -5.4489  -5.4453  -5.4394  -5.3747  -5.3172
    -4.9265  -4.8792  -4.7132  -4.7107  -4.5670  -4.5076  -4.3827  -4.3705
    -4.2926  -4.2917  -4.1288  -4.0806  -4.0236  -4.0009  -3.9808  -3.9705
    -3.8783  -3.8099  -3.7333  -3.6832  -3.5806  -3.5068  -3.3663  -3.3618
    -3.2553  -3.2136  -3.0401  -2.9744  -2.8902  -2.8487  -2.7021  -2.6591
    -2.4775  -2.4072  -2.3768  -2.3684  -2.2428  -2.2356  -1.9390  -1.9334
    -1.7506  -1.7445  -1.6055  -1.5996  -1.3959  -1.3728  -1.3116  -1.2999
     1.5378   1.5753   1.5782   1.5960   1.6530   1.7745   1.8852   1.9315
     2.0611   2.0848   2.0878   2.1844   2.2311   2.2935   2.3193   2.3559
     2.4109   2.4221   2.4875   2.5164   2.5615   2.6218   2.6545   2.6924

          k = 0.2000 0.0000 0.0000 (130938 PWs)   bands (ev):

   -57.8300 -57.8225 -57.8052 -57.7978 -57.6460 -57.6406 -57.4887 -57.4789
   -57.4652 -57.4554 -34.2733 -34.2688 -34.2103 -34.2022 -34.0915 -34.0840
   -34.0678 -34.0655 -34.0345 -34.0285 -34.0125 -34.0066 -33.9427 -33.9384
   -33.8962 -33.8949 -33.8876 -33.8801 -33.8670 -33.8551 -33.8245 -33.8194
   -33.7948 -33.7727 -33.7465 -33.7246 -33.6498 -33.6414 -33.6267 -33.6191
   -18.8328 -18.5900 -18.0825 -17.9755 -17.9154 -17.8505 -17.7507 -17.7325
   -17.7079 -17.5533 -17.5103 -17.4515 -17.3363 -17.1310 -17.1030 -17.0427
   -16.8858 -16.8689 -16.8268 -16.7991  -6.2834  -5.9702  -5.9127  -5.6925
    -5.6501  -5.5698  -5.4138  -5.3777  -5.3295  -5.2762  -5.1022  -5.0083
    -4.9465  -4.9202  -4.8048  -4.7273  -4.6513  -4.6045  -4.4747  -4.4511
    -4.3935  -4.3416  -4.2625  -4.2253  -4.1751  -4.0060  -3.9455  -3.9002
    -3.8018  -3.5488  -3.5034  -3.4820  -3.3967  -3.3274  -3.3004  -3.2229
    -3.1577  -3.1239  -3.0357  -3.0000  -2.8932  -2.8750  -2.7939  -2.6293
    -2.4603  -2.4077  -2.3343  -2.2919  -2.2274  -2.1349  -2.0201  -1.9827
    -1.8471  -1.8230  -1.7700  -1.6721  -1.6287  -1.3212  -1.1238  -1.0053
     1.2661   1.3610   1.3835   1.4397   1.5444   1.5497   1.6559   1.7442
     1.8148   1.8839   1.9026   2.0658   2.0802   2.1332   2.1711   2.3475
     2.3846   2.3945   2.4276   2.4861   2.5277   2.6756   2.7775   2.9290

          k = 0.2000 0.1984 0.0000 (130920 PWs)   bands (ev):

   -57.8296 -57.8228 -57.8048 -57.7982 -57.6456 -57.6409 -57.4885 -57.4791
   -57.4650 -57.4556 -34.2755 -34.2644 -34.2128 -34.1967 -34.0932 -34.0860
   -34.0678 -34.0642 -34.0442 -34.0260 -34.0209 -33.9984 -33.9475 -33.9324
   -33.8964 -33.8941 -33.8898 -33.8764 -33.8658 -33.8526 -33.8350 -33.8147
   -33.7937 -33.7716 -33.7464 -33.7247 -33.6533 -33.6398 -33.6301 -33.6174
   -18.7627 -18.5380 -18.0801 -17.9743 -17.9119 -17.8536 -17.7768 -17.7178
   -17.6876 -17.5609 -17.5349 -17.4475 -17.3352 -17.1610 -17.1154 -17.0489
   -16.9346 -16.9173 -16.8158 -16.7925  -6.2697  -6.0096  -5.7763  -5.7059
    -5.5741  -5.5018  -5.4159  -5.3815  -5.3194  -5.2464  -5.2319  -5.1168
    -5.0339  -4.9182  -4.7689  -4.7169  -4.6471  -4.6009  -4.5115  -4.4636
    -4.4161  -4.3701  -4.2286  -4.1749  -4.0612  -4.0343  -3.9306  -3.8450
    -3.7520  -3.7170  -3.6051  -3.4264  -3.3750  -3.2743  -3.2217  -3.2013
    -3.1472  -3.1145  -3.0331  -2.9846  -2.9284  -2.8058  -2.7165  -2.6326
    -2.4920  -2.4498  -2.3352  -2.2800  -2.1913  -2.1023  -2.0207  -1.9716
    -1.9172  -1.8291  -1.7621  -1.7150  -1.6702  -1.3937  -1.2020  -1.0998
     1.2558   1.3167   1.4072   1.4699   1.5388   1.6139   1.7022   1.7706
     1.8216   1.9119   2.0172   2.0844   2.1486   2.2096   2.2318   2.3275
     2.3640   2.3925   2.4199   2.4740   2.5398   2.6602   2.7068   2.7916

          k = 0.2000 0.3969 0.0000 (130913 PWs)   bands (ev):

   -57.8285 -57.8238 -57.8038 -57.7991 -57.6447 -57.6419 -57.4881 -57.4795
   -57.4646 -57.4560 -34.2736 -34.2625 -34.2102 -34.1944 -34.0936 -34.0895
   -34.0694 -34.0656 -34.0476 -34.0286 -34.0254 -34.0024 -33.9439 -33.9302
   -33.8964 -33.8930 -33.8872 -33.8753 -33.8642 -33.8533 -33.8387 -33.8167
   -33.7909 -33.7693 -33.7470 -33.7256 -33.6554 -33.6409 -33.6321 -33.6184
   -18.5749 -18.3961 -18.1485 -18.0133 -17.9124 -17.8426 -17.8043 -17.6849
   -17.6339 -17.5958 -17.5476 -17.4901 -17.3346 -17.1888 -17.1618 -17.1064
   -16.9729 -16.9475 -16.8354 -16.8159  -6.1819  -5.9406  -5.7676  -5.7160
    -5.5362  -5.4817  -5.4559  -5.4243  -5.3817  -5.3296  -5.2229  -5.0688
    -5.0112  -4.9221  -4.7908  -4.7694  -4.6357  -4.5463  -4.5017  -4.4604
    -4.3652  -4.2866  -4.1902  -4.1272  -4.0271  -3.9575  -3.9029  -3.8572
    -3.7676  -3.7094  -3.6276  -3.4619  -3.4030  -3.3298  -3.2879  -3.2121
    -3.1507  -3.0006  -2.9601  -2.9181  -2.8403  -2.7549  -2.6975  -2.6228
    -2.5724  -2.5140  -2.3493  -2.2831  -2.2347  -2.1230  -2.0688  -2.0563
    -2.0173  -1.8102  -1.7612  -1.6478  -1.6047  -1.4976  -1.3419  -1.2987
     1.3085   1.3302   1.4743   1.5453   1.5721   1.6348   1.7875   1.8292
     1.9007   2.0216   2.0633   2.1380   2.1683   2.2019   2.2551   2.3142
     2.3758   2.4270   2.4621   2.5147   2.5464   2.5958   2.6453   2.7528

          k = 0.2000-0.5953 0.0000 (130928 PWs)   bands (ev):

   -57.8278 -57.8245 -57.8031 -57.7998 -57.6437 -57.6428 -57.4879 -57.4797
   -57.4644 -57.4562 -34.2684 -34.2660 -34.2023 -34.2007 -34.0923 -34.0894
   -34.0717 -34.0702 -34.0401 -34.0350 -34.0222 -34.0120 -33.9360 -33.9342
   -33.8951 -33.8939 -33.8814 -33.8785 -33.8617 -33.8612 -33.8266 -33.8263
   -33.7893 -33.7681 -33.7478 -33.7265 -33.6544 -33.6431 -33.6311 -33.6206
   -18.3443 -18.3336 -18.1987 -18.1962 -17.8622 -17.8543 -17.7389 -17.7319
   -17.6240 -17.6140 -17.5225 -17.5194 -17.2980 -17.2859 -17.1548 -17.1400
   -16.9608 -16.9449 -16.8603 -16.8429  -5.9843  -5.9727  -5.7657  -5.7653
    -5.6621  -5.6458  -5.4782  -5.4556  -5.3601  -5.3508  -5.1178  -5.0726
    -4.8857  -4.8735  -4.7415  -4.7148  -4.5839  -4.5663  -4.4885  -4.4639
    -4.3187  -4.2946  -4.2361  -4.1800  -3.9430  -3.9281  -3.8163  -3.8149
    -3.7254  -3.7178  -3.6383  -3.6305  -3.4090  -3.3799  -3.2540  -3.2356
    -3.0995  -3.0391  -2.9226  -2.8755  -2.8238  -2.8117  -2.6527  -2.6260
    -2.5285  -2.5276  -2.4705  -2.3990  -2.2737  -2.2640  -2.0751  -2.0553
    -1.8632  -1.8480  -1.6772  -1.6649  -1.5720  -1.5482  -1.3859  -1.3733
     1.4013   1.4329   1.4869   1.4965   1.6468   1.6632   1.7863   1.8009
     1.9598   1.9717   2.0852   2.0926   2.1576   2.2320   2.2769   2.2870
     2.4166   2.4213   2.5204   2.5426   2.6179   2.6623   2.7244   2.7451

          k = 0.4000 0.0000 0.0000 (131004 PWs)   bands (ev):

   -57.8277 -57.8248 -57.8029 -57.8001 -57.6443 -57.6422 -57.4857 -57.4819
   -57.4622 -57.4584 -34.2639 -34.2625 -34.1976 -34.1947 -34.0876 -34.0875
   -34.0652 -34.0647 -34.0465 -34.0444 -34.0250 -34.0243 -33.9309 -33.9297
   -33.8934 -33.8927 -33.8778 -33.8747 -33.8607 -33.8510 -33.8393 -33.8323
   -33.7767 -33.7575 -33.7556 -33.7363 -33.6524 -33.6499 -33.6292 -33.6271
   -18.5769 -18.3534 -18.2441 -18.0523 -17.9517 -17.9308 -17.7797 -17.7127
   -17.5905 -17.4923 -17.4386 -17.4120 -17.3802 -17.2048 -17.1614 -17.1497
   -16.9501 -16.9317 -16.8951 -16.8716  -5.9070  -5.7094  -5.6350  -5.5263
    -5.4481  -5.4182  -5.3147  -5.2810  -5.1710  -5.1281  -4.9788  -4.9160
    -4.8433  -4.8175  -4.7304  -4.7212  -4.5920  -4.5857  -4.4552  -4.4401
    -4.3453  -4.2844  -4.2806  -4.1642  -4.0358  -4.0253  -3.9728  -3.8975
    -3.8764  -3.8214  -3.7624  -3.6928  -3.6544  -3.6020  -3.5149  -3.3602
    -3.2685  -3.2459  -3.1273  -3.0997  -2.9530  -2.9230  -2.8722  -2.8230
    -2.7761  -2.7588  -2.6601  -2.4556  -2.3953  -2.2548  -2.0321  -2.0231
    -1.9368  -1.9325  -1.7093  -1.5698  -1.5147  -1.4972  -1.3574  -1.2568
     1.4335   1.4384   1.5203   1.6209   1.6709   1.6851   1.7469   1.8660
     1.9685   1.9839   2.0699   2.1804   2.2309   2.2513   2.3453   2.3968
     2.4457   2.4784   2.5157   2.6347   2.6693   2.7602   2.7831   2.8579

          k = 0.4000 0.1984 0.0000 (130983 PWs)   bands (ev):

   -57.8275 -57.8249 -57.8028 -57.8002 -57.6442 -57.6424 -57.4856 -57.4820
   -57.4621 -57.4585 -34.2697 -34.2628 -34.2052 -34.1951 -34.0900 -34.0889
   -34.0690 -34.0657 -34.0461 -34.0335 -34.0249 -34.0107 -33.9380 -33.9300
   -33.8947 -33.8931 -33.8832 -33.8756 -33.8628 -33.8552 -33.8365 -33.8220
   -33.7782 -33.7600 -33.7565 -33.7383 -33.6521 -33.6452 -33.6290 -33.6224
   -18.5441 -18.3429 -18.2547 -18.0797 -17.9478 -17.9119 -17.7717 -17.6957
   -17.5945 -17.5042 -17.4793 -17.4296 -17.3855 -17.2445 -17.1655 -17.1321
   -16.9392 -16.9201 -16.8674 -16.8457  -6.0751  -5.8051  -5.7596  -5.5434
    -5.4853  -5.4216  -5.3547  -5.2641  -5.2272  -5.1517  -5.1262  -4.9858
    -4.9165  -4.8387  -4.7681  -4.6843  -4.5937  -4.5427  -4.5277  -4.4501
    -4.3071  -4.2175  -4.2016  -4.1480  -4.0884  -4.0442  -3.9458  -3.8638
    -3.7862  -3.7150  -3.6891  -3.5953  -3.5330  -3.4510  -3.3693  -3.3053
    -3.2102  -3.1733  -3.0996  -3.0247  -2.9589  -2.8372  -2.8004  -2.7576
    -2.7182  -2.5973  -2.5339  -2.4837  -2.2973  -2.1897  -2.0896  -2.0404
    -1.9973  -1.9215  -1.8184  -1.6865  -1.6098  -1.5961  -1.4343  -1.3580
     1.3495   1.3950   1.4486   1.5617   1.6058   1.6721   1.7110   1.8068
     1.8820   2.0351   2.0755   2.1747   2.2079   2.2836   2.3203   2.3811
     2.4040   2.5034   2.5124   2.5525   2.6271   2.7056   2.7787   2.8287

          k = 0.4000 0.3969 0.0000 (130956 PWs)   bands (ev):

   -57.8271 -57.8252 -57.8023 -57.8006 -57.6438 -57.6427 -57.4854 -57.4822
   -57.4620 -57.4587 -34.2755 -34.2690 -34.2124 -34.2034 -34.0953 -34.0916
   -34.0713 -34.0689 -34.0345 -34.0222 -34.0133 -33.9980 -33.9465 -33.9371
   -33.8962 -33.8949 -33.8900 -33.8819 -33.8637 -33.8620 -33.8235 -33.8138
   -33.7807 -33.7650 -33.7581 -33.7425 -33.6473 -33.6400 -33.6244 -33.6174
   -18.4662 -18.3184 -18.2842 -18.1426 -17.9078 -17.8723 -17.7451 -17.6774
   -17.6159 -17.5732 -17.5237 -17.4688 -17.4015 -17.3155 -17.1428 -17.1175
   -16.8995 -16.8788 -16.8387 -16.8184  -6.2094  -6.0186  -5.9307  -5.7690
    -5.6816  -5.5454  -5.4018  -5.3831  -5.3138  -5.2298  -5.0933  -5.0083
    -4.8928  -4.8043  -4.7820  -4.7267  -4.6888  -4.6457  -4.5177  -4.4972
    -4.3293  -4.2331  -4.1225  -4.0413  -3.9540  -3.8531  -3.7717  -3.7332
    -3.5786  -3.5184  -3.4886  -3.4249  -3.3694  -3.2896  -3.2672  -3.1856
    -3.1151  -3.0214  -2.9816  -2.8954  -2.8465  -2.7545  -2.7059  -2.6745
    -2.5614  -2.5220  -2.4678  -2.3063  -2.2615  -2.2129  -2.1448  -2.0896
    -2.0602  -2.0226  -1.9533  -1.8448  -1.7745  -1.6603  -1.5759  -1.5233
     1.2626   1.2853   1.3737   1.4535   1.5100   1.5478   1.6414   1.7168
     1.8462   1.9290   2.0304   2.0729   2.1480   2.1910   2.3113   2.3346
     2.3968   2.4361   2.4969   2.5512   2.6193   2.7441   2.7813   2.8604

          k = 0.4000-0.5953 0.0000 (130970 PWs)   bands (ev):

   -57.8268 -57.8255 -57.8021 -57.8008 -57.6434 -57.6431 -57.4854 -57.4822
   -57.4619 -57.4587 -34.2757 -34.2746 -34.2118 -34.2115 -34.0959 -34.0959
   -34.0703 -34.0699 -34.0251 -34.0213 -34.0028 -33.9969 -33.9458 -33.9458
   -33.8970 -33.8960 -33.8901 -33.8886 -33.8638 -33.8635 -33.8144 -33.8143
   -33.7817 -33.7676 -33.7588 -33.7447 -33.6438 -33.6387 -33.6210 -33.6161
   -18.3834 -18.3805 -18.2226 -18.2205 -17.8579 -17.8532 -17.6924 -17.6863
   -17.6623 -17.6512 -17.5059 -17.5045 -17.3789 -17.3729 -17.1221 -17.1172
   -16.8670 -16.8525 -16.8342 -16.8192  -6.1914  -6.1898  -5.9154  -5.9139
    -5.7360  -5.7305  -5.4479  -5.4404  -5.2908  -5.2865  -5.0611  -5.0438
    -4.8663  -4.8487  -4.7719  -4.7598  -4.6968  -4.6773  -4.5078  -4.5065
    -4.3052  -4.3003  -4.0383  -3.9984  -3.7946  -3.7938  -3.5878  -3.5407
    -3.4361  -3.4330  -3.3928  -3.3495  -3.3419  -3.3136  -3.1157  -3.0940
    -3.0319  -2.9908  -2.9547  -2.9262  -2.8344  -2.8090  -2.7204  -2.6690
    -2.5526  -2.5465  -2.4387  -2.3772  -2.2845  -2.2766  -2.1049  -2.1030
    -2.0244  -2.0042  -1.9317  -1.8842  -1.7672  -1.7422  -1.5955  -1.5821
     1.2506   1.2598   1.3087   1.3304   1.5025   1.5235   1.6245   1.6280
     1.8646   1.9019   1.9931   2.0131   2.0808   2.1043   2.2214   2.2291
     2.4593   2.4842   2.5282   2.5731   2.6722   2.6732   2.8416   2.8478

     the Fermi energy is     0.1103 ev

!    total energy              =   -1796.40727546 Ry
     estimated scf accuracy    <       0.00000005 Ry
     smearing contrib. (-TS)   =      -0.00000000 Ry
     internal energy E=F+TS    =   -1796.40727546 Ry

     The total energy is F=E-TS. E is the sum of the following terms:
     one-electron contribution =  -35350.45707527 Ry
     hartree contribution      =   17700.41266033 Ry
     xc contribution           =    -283.37529006 Ry
     ewald contribution        =   16137.01242954 Ry

     convergence has been achieved in  16 iterations

     Forces acting on atoms (cartesian axes, Ry/au):

     atom    1 type  1   force =     0.00001650    0.00002370   -0.00007513
     atom    2 type  1   force =     0.00001650   -0.00002370   -0.00007513
     atom    3 type  1   force =    -0.00000533   -0.00077495    0.00031228
     atom    4 type  1   force =    -0.00000533    0.00077495    0.00031228
     atom    5 type  1   force =     0.00042020   -0.00020576    0.00002709
     atom    6 type  1   force =     0.00042020    0.00020576    0.00002709
     atom    7 type  1   force =    -0.00030128    0.00060087   -0.00016150
     atom    8 type  1   force =    -0.00030128   -0.00060087   -0.00016150
     atom    9 type  1   force =    -0.00018835    0.00018380    0.00014670
     atom   10 type  1   force =    -0.00018835   -0.00018380    0.00014670
     atom   11 type  2   force =    -0.00036356    0.00012780   -0.00089855
     atom   12 type  2   force =    -0.00036356   -0.00012780   -0.00089855
     atom   13 type  2   force =    -0.00031550    0.00042116   -0.00011604
     atom   14 type  2   force =    -0.00038119   -0.00022250    0.00020264
     atom   15 type  2   force =    -0.00031550   -0.00042116   -0.00011604
     atom   16 type  2   force =    -0.00038119    0.00022250    0.00020264
     atom   17 type  2   force =     0.00006923    0.00009406    0.00030013
     atom   18 type  2   force =     0.00094319   -0.00061826   -0.00051735
     atom   19 type  2   force =     0.00006923   -0.00009406    0.00030013
     atom   20 type  2   force =     0.00094319    0.00061826   -0.00051735
     atom   21 type  2   force =     0.00015319   -0.00005517    0.00039125
     atom   22 type  2   force =    -0.00000520   -0.00023207   -0.00023416
     atom   23 type  2   force =     0.00015319    0.00005517    0.00039125
     atom   24 type  2   force =    -0.00000520    0.00023207   -0.00023416
     atom   25 type  2   force =     0.00035868    0.00029446   -0.00026886
     atom   26 type  2   force =    -0.00028425   -0.00004597    0.00025976
     atom   27 type  2   force =     0.00035868   -0.00029446   -0.00026886
     atom   28 type  2   force =    -0.00028425    0.00004597    0.00025976
     atom   29 type  2   force =    -0.00011633    0.00021906    0.00063173
     atom   30 type  2   force =    -0.00011633   -0.00021906    0.00063173

     Total force =     0.003407     Total SCF correction =     0.000616
     SCF correction compared to forces is large: reduce conv_thr to get better values


     Computing stress (Cartesian axis) and pressure

          total   stress  (Ry/bohr**3)                   (kbar)     P=        0.45
   0.00000207   0.00000000   0.00000037            0.30        0.00        0.05
   0.00000000   0.00000160   0.00000000            0.00        0.24        0.00
   0.00000037   0.00000000   0.00000543            0.05        0.00        0.80


     Writing all to output data dir ./Out/pwscf.save/
 
     init_run     :     17.35s CPU     19.64s WALL (       2 calls)
     electrons    :    252.25s CPU    257.99s WALL (       2 calls)
     forces       :      3.28s CPU      3.02s WALL (       2 calls)
     stress       :     12.54s CPU     12.58s WALL (       2 calls)

     Called by init_run:
     wfcinit      :     10.89s CPU     12.45s WALL (       2 calls)
     potinit      :      0.16s CPU      0.12s WALL (       2 calls)
     hinit0       :      5.41s CPU      5.27s WALL (       2 calls)

     Called by electrons:
     c_bands      :    205.90s CPU    211.31s WALL (      31 calls)
     sum_band     :     40.96s CPU     41.10s WALL (      31 calls)
     v_of_rho     :      1.11s CPU      0.94s WALL (      33 calls)
     mix_rho      :      3.56s CPU      3.85s WALL (      31 calls)

     Called by c_bands:
     init_us_2    :      1.30s CPU      1.31s WALL (     816 calls)
     init_us_2:gp :      1.27s CPU      1.28s WALL (     816 calls)
     cegterg      :    162.64s CPU    163.11s WALL (     396 calls)

     Called by *egterg:
     cdiaghg      :     14.44s CPU     15.02s WALL (    3602 calls)
                                       14.99s GPU  (    3602 calls)
     h_psi        :    119.56s CPU    120.03s WALL (    3650 calls)
                                      119.86s GPU  (    3650 calls)
     g_psi        :      0.01s CPU      1.69s WALL (    3230 calls)
                                        1.67s GPU  (    3230 calls)

     Called by h_psi:
     h_psi:calbec :      0.18s CPU      5.99s WALL (    3650 calls)
                                        5.97s GPU  (    3650 calls)
     vloc_psi     :    104.56s CPU    104.93s WALL (    3650 calls)
                                      104.90s GPU  (    3650 calls)
     add_vuspsi   :      2.80s CPU      8.27s WALL (    3650 calls)
                                        8.25s GPU  (    3650 calls)

     General routines
     calbec       :      0.15s CPU      0.20s WALL (    3770 calls)
     fft          :      0.01s CPU      0.12s WALL (     344 calls)
                                        0.11s GPU  (     344 calls)
     ffts         :      0.00s CPU      0.01s WALL (      31 calls)
                                        0.01s GPU  (      31 calls)
     fftw         :      0.29s CPU     91.33s WALL (   32214 calls)
                                       91.10s GPU  (   32214 calls)
 
 
     PWSCF        :   4m46.56s CPU   4m56.17s WALL

 
   This run was terminated on:  15: 8:30  26Jul2026            

=------------------------------------------------------------------------------=
   JOB DONE.
=------------------------------------------------------------------------------=
