../../../04-101-interface/01-converge-slab-layers/5_layer/output final
1.0
   5.519027498   0.000000000   0.000000000
   0.000000000   4.635447265   0.000000000
   0.000000000   0.000000000  34.166362763
   Ti    O
   10   20
Cartesian
               3.9861809657       -0.2236905190       12.5389850125
               1.2266673809        2.5414140130       12.5389850125
               2.2050792617        0.1063663729       14.9082831604
               4.9645926818        2.2113571211       14.9082831604
               0.7918610834        0.0344246616       17.4828545918
               3.5513744621        2.2832988324       17.4828545918
               4.6195441560       -0.1082507804       20.0066218596
               1.8600305713        2.4259742744       20.0066218596
               2.8622794667        0.2239592975       22.3804919605
               0.1027659850        2.0937641965       22.3804919605
               2.6299102990        3.3466437213       11.7397474964
               5.3894240484        3.6065263469       11.7397474964
               5.0293069026        1.3870833400       13.2045274125
               1.0695440903        3.2483243029       14.2190076671
               2.2697929896        0.9306402236       13.2045263945
               3.8290573458        3.7048460408       14.2190066491
               3.4449644640        1.4040086022       15.7147795898
               4.9640297923        3.1976268850       16.6900365690
               0.6854510439        0.9137148918       15.7147816258
               2.2045158783        3.7555434587       16.6900355510
               1.8341983888        1.4180667687       18.2468859134
               3.3833038216        3.2317044708       19.2087563196
               4.5937121382        0.8996566567       18.2468859134
               0.6237901136        3.7214655974       19.2087563196
               0.2454976775        1.3866536275       20.7005904054
               1.8034087124        3.2417720956       21.7134153264
               3.0050108097        0.9310699361       20.7005863324
               4.5629227910        3.7113982491       21.7134173624
               4.2113298591        1.2933576713       23.1785776977
               1.4518156987        1.0243658924       23.1785756617
