
     Program PWSCF v.7.2 starts on 26Jul2026 at 14:42:45 
        Git branch: krg.prod
        Last git commit: daa121e36ad33d2e2c57a5cfc9f193e3f68d7ebf
        Last git commit date: Wed Feb 25 11:53:28 2026 -0600
        Last git commit subject: use krg software repo instead

     This program is part of the open-source Quantum ESPRESSO suite
     for quantum simulation of materials; please cite
         "P. Giannozzi et al., J. Phys.:Condens. Matter 21 395502 (2009);
         "P. Giannozzi et al., J. Phys.:Condens. Matter 29 465901 (2017);
         "P. Giannozzi et al., J. Chem. Phys. 152 154105 (2020);
          URL http://www.quantum-espresso.org", 
     in publications or presentations arising from this work. More details at
     http://www.quantum-espresso.org/quote

     Serial multi-threaded version, running on    8 processor cores
     170320 MiB available memory on the printing compute node when the environment starts
 
     Waiting for input...
     Reading input from standard input
Warning: card &FCP ignored
Warning: card / ignored
Warning: card &RISM ignored
Warning: card / ignored

     Current dimensions of program PWSCF are:
     Max number of different atomic species (ntypx) = 10
     Max number of k-points (npk) =  40000
     Max angular momentum in pseudopotentials (lmaxx) =  4
     Message from routine setup:
     using ibrav=0 with symmetry is DISCOURAGED, use correct ibrav instead
 
 
     G-vector sticks info
     --------------------
     sticks:   dense  smooth     PW     G-vecs:    dense   smooth      PW
     Sum        1855    1855    511               610487   610487   89703
 
     Using Slab Decomposition
 


     bravais-lattice index     =            0
     lattice parameter (alat)  =       8.6875  a.u.
     unit-cell volume          =    3437.5028 (a.u.)^3
     number of atoms/cell      =           18
     number of atomic types    =            2
     number of electrons       =       144.00
     number of Kohn-Sham states=           86
     kinetic-energy cutoff     =     120.0000  Ry
     charge density cutoff     =     480.0000  Ry
     scf convergence threshold =      1.0E-06
     mixing beta               =       0.4000
     number of iterations used =           20  plain     mixing
     energy convergence thresh.=      1.0E-04
     force convergence thresh. =      1.0E-03
     press convergence thresh. =      5.0E-01
     Exchange-correlation= PBE
                           (   1   4   3   4   0   0   0)
     nstep                     =          500


     GPU acceleration is ACTIVE.


     celldm(1)=   8.687483  celldm(2)=   0.000000  celldm(3)=   0.000000
     celldm(4)=   0.000000  celldm(5)=   0.000000  celldm(6)=   0.000000

     crystal axes: (cart. coord. in units of alat)
               a(1) = (   1.000000   0.000000   0.000000 )  
               a(2) = (   0.000000   0.643102   0.000000 )  
               a(3) = (   0.000000   0.000000   8.152326 )  

     reciprocal axes: (cart. coord. in units 2 pi/alat)
               b(1) = (  1.000000  0.000000  0.000000 )  
               b(2) = (  0.000000  1.554964  0.000000 )  
               b(3) = (  0.000000  0.000000  0.122664 )  


     PseudoPot. # 1 for Ti read from file:
     /cm/shared/apps/KO/pseudo/sg15/Ti_ONCV_PBE-1.2.upf
     MD5 check sum: 1aea57736bd12dcfee93c97d0b9b5968
     Pseudo is Norm-conserving, Zval = 12.0
     Generated using ONCVPSP code by D. R. Hamann
     Using radial grid of  602 points,  6 beta functions with: 
                l(1) =   0
                l(2) =   0
                l(3) =   1
                l(4) =   1
                l(5) =   2
                l(6) =   2

     PseudoPot. # 2 for O  read from file:
     /cm/shared/apps/KO/pseudo/sg15/O_ONCV_PBE-1.2.upf
     MD5 check sum: e36c48deb68f4e355fffe4602be2c42c
     Pseudo is Norm-conserving, Zval =  6.0
     Generated using ONCVPSP code by D. R. Hamann
     Using radial grid of  602 points,  4 beta functions with: 
                l(1) =   0
                l(2) =   0
                l(3) =   1
                l(4) =   1

     atomic species   valence    mass     pseudopotential
     Ti               12.00    47.86700     Ti( 1.00)
     O                 6.00    15.99900     O ( 1.00)

      2 Sym. Ops. (no inversion) found



   Cartesian axes

     site n.     atom                  positions (alat units)
         1        Ti     tau(   1) = (   0.0167316   0.0000000   3.1713748  )
         2        Ti     tau(   2) = (   0.5005974   0.3215508   3.6738561  )
         3        Ti     tau(   3) = (   0.0002395   0.0000000   4.1737371  )
         4        Ti     tau(   4) = (   0.5002453   0.3215508   4.6732703  )
         5        Ti     tau(   5) = (   0.0005940   0.0000000   5.1731493  )
         6        Ti     tau(   6) = (   0.5167324   0.3215508   5.6756366  )
         7        O      tau(   7) = (   0.1858573   0.3215508   2.9826925  )
         8        O      tau(   8) = (   0.3023730   0.0000000   3.4771280  )
         9        O      tau(   9) = (   0.6950822   0.0000000   3.8690499  )
        10        O      tau(  10) = (   0.1952330   0.3215508   3.9785992  )
        11        O      tau(  11) = (   0.7994842   0.3215508   3.3693420  )
        12        O      tau(  12) = (   0.3044095   0.0000000   4.4778799  )
        13        O      tau(  13) = (   0.6952356   0.0000000   4.8684219  )
        14        O      tau(  14) = (   0.1950670   0.3215508   4.9780427  )
        15        O      tau(  15) = (   0.8044032   0.3215508   4.3691067  )
        16        O      tau(  16) = (   0.2994862   0.0000000   5.4776392  )
        17        O      tau(  17) = (   0.6858686   0.0000000   5.8642499  )
        18        O      tau(  18) = (   0.8023595   0.3215508   5.3699475  )

     number of k points=    20  Gaussian smearing, width (Ry)=  0.0200
                       cart. coord. in units 2pi/alat
        k(    1) = (   0.0000000   0.0000000   0.0000000), wk =   0.0370370
        k(    2) = (   0.0000000   0.1727738   0.0000000), wk =   0.0740741
        k(    3) = (   0.0000000   0.3455476   0.0000000), wk =   0.0740741
        k(    4) = (   0.0000000   0.5183214   0.0000000), wk =   0.0740741
        k(    5) = (   0.0000000   0.6910951   0.0000000), wk =   0.0740741
        k(    6) = (   0.1666667   0.0000000   0.0000000), wk =   0.0740741
        k(    7) = (   0.1666667   0.1727738   0.0000000), wk =   0.1481481
        k(    8) = (   0.1666667   0.3455476   0.0000000), wk =   0.1481481
        k(    9) = (   0.1666667   0.5183214   0.0000000), wk =   0.1481481
        k(   10) = (   0.1666667   0.6910951   0.0000000), wk =   0.1481481
        k(   11) = (   0.3333333   0.0000000   0.0000000), wk =   0.0740741
        k(   12) = (   0.3333333   0.1727738   0.0000000), wk =   0.1481481
        k(   13) = (   0.3333333   0.3455476   0.0000000), wk =   0.1481481
        k(   14) = (   0.3333333   0.5183214   0.0000000), wk =   0.1481481
        k(   15) = (   0.3333333   0.6910951   0.0000000), wk =   0.1481481
        k(   16) = (  -0.5000000   0.0000000   0.0000000), wk =   0.0370370
        k(   17) = (  -0.5000000   0.1727738   0.0000000), wk =   0.0740741
        k(   18) = (  -0.5000000   0.3455476   0.0000000), wk =   0.0740741
        k(   19) = (  -0.5000000   0.5183214   0.0000000), wk =   0.0740741
        k(   20) = (  -0.5000000   0.6910951   0.0000000), wk =   0.0740741

     Dense  grid:   610487 G-vectors     FFT dimensions: (  64,  40, 500)

     Estimated max dynamical RAM per process >       3.26 GB

     Initial potential from superposition of free atoms

     starting charge     143.3302, renormalised to     144.0000

     negative rho (up, down):  7.217E-04 0.000E+00
     Starting wfcs are random

     total cpu time spent up to now is        6.3 secs

     Self-consistent Calculation

     iteration #  1     ecut=   120.00 Ry     beta= 0.40
     Davidson diagonalization with overlap
     ethr =  1.00E-02,  avg # of iterations = 15.7

     negative rho (up, down):  2.181E-05 0.000E+00

     total cpu time spent up to now is       15.6 secs

     total energy              =   -1075.72705488 Ry
     estimated scf accuracy    <       7.42100152 Ry

     iteration #  2     ecut=   120.00 Ry     beta= 0.40
     Davidson diagonalization with overlap
     ethr =  5.15E-03,  avg # of iterations =  3.5

     negative rho (up, down):  5.143E-07 0.000E+00

     total cpu time spent up to now is       19.4 secs

     total energy              =   -1077.26184440 Ry
     estimated scf accuracy    <       1.77905063 Ry

     iteration #  3     ecut=   120.00 Ry     beta= 0.40
     Davidson diagonalization with overlap
     ethr =  1.24E-03,  avg # of iterations =  3.7

     negative rho (up, down):  9.985E-08 0.000E+00

     total cpu time spent up to now is       23.0 secs

     total energy              =   -1077.76089127 Ry
     estimated scf accuracy    <       0.38722914 Ry

     iteration #  4     ecut=   120.00 Ry     beta= 0.40
     Davidson diagonalization with overlap
     ethr =  2.69E-04,  avg # of iterations = 11.0

     negative rho (up, down):  6.792E-08 0.000E+00

     total cpu time spent up to now is       27.8 secs

     total energy              =   -1077.83222823 Ry
     estimated scf accuracy    <       0.08008616 Ry

     iteration #  5     ecut=   120.00 Ry     beta= 0.40
     Davidson diagonalization with overlap
     c_bands:  1 eigenvalues not converged
     c_bands:  1 eigenvalues not converged
     c_bands:  2 eigenvalues not converged
     ethr =  5.56E-05,  avg # of iterations = 12.6

     negative rho (up, down):  2.067E-08 0.000E+00

     total cpu time spent up to now is       32.9 secs

     total energy              =   -1077.84997224 Ry
     estimated scf accuracy    <       0.03617777 Ry

     iteration #  6     ecut=   120.00 Ry     beta= 0.40
     Davidson diagonalization with overlap
     ethr =  2.51E-05,  avg # of iterations =  7.1

     total cpu time spent up to now is       37.2 secs

     total energy              =   -1077.84850501 Ry
     estimated scf accuracy    <       0.03012542 Ry

     iteration #  7     ecut=   120.00 Ry     beta= 0.40
     Davidson diagonalization with overlap
     ethr =  2.09E-05,  avg # of iterations =  2.9

     total cpu time spent up to now is       40.6 secs

     total energy              =   -1077.85000315 Ry
     estimated scf accuracy    <       0.00392435 Ry

     iteration #  8     ecut=   120.00 Ry     beta= 0.40
     Davidson diagonalization with overlap
     c_bands:  3 eigenvalues not converged
     c_bands:  2 eigenvalues not converged
     c_bands:  1 eigenvalues not converged
     c_bands:  4 eigenvalues not converged
     c_bands:  3 eigenvalues not converged
     c_bands:  2 eigenvalues not converged
     c_bands:  2 eigenvalues not converged
     c_bands:  4 eigenvalues not converged
     ethr =  2.73E-06,  avg # of iterations = 15.0

     total cpu time spent up to now is       46.7 secs

     total energy              =   -1077.85175710 Ry
     estimated scf accuracy    <       0.00416587 Ry

     iteration #  9     ecut=   120.00 Ry     beta= 0.40
     Davidson diagonalization with overlap
     c_bands:  1 eigenvalues not converged
     ethr =  2.73E-06,  avg # of iterations =  4.5

     total cpu time spent up to now is       50.4 secs

     total energy              =   -1077.85158000 Ry
     estimated scf accuracy    <       0.00120661 Ry

     iteration # 10     ecut=   120.00 Ry     beta= 0.40
     Davidson diagonalization with overlap
     ethr =  8.38E-07,  avg # of iterations =  5.9

     total cpu time spent up to now is       54.4 secs

     total energy              =   -1077.85183894 Ry
     estimated scf accuracy    <       0.00003260 Ry

     iteration # 11     ecut=   120.00 Ry     beta= 0.40
     Davidson diagonalization with overlap
     ethr =  2.26E-08,  avg # of iterations =  8.8

     total cpu time spent up to now is       59.5 secs

     total energy              =   -1077.85187042 Ry
     estimated scf accuracy    <       0.00008562 Ry

     iteration # 12     ecut=   120.00 Ry     beta= 0.40
     Davidson diagonalization with overlap
     ethr =  2.26E-08,  avg # of iterations =  1.1

     total cpu time spent up to now is       62.7 secs

     total energy              =   -1077.85185410 Ry
     estimated scf accuracy    <       0.00005690 Ry

     iteration # 13     ecut=   120.00 Ry     beta= 0.40
     Davidson diagonalization with overlap
     ethr =  2.26E-08,  avg # of iterations =  4.8

     total cpu time spent up to now is       66.6 secs

     total energy              =   -1077.85186098 Ry
     estimated scf accuracy    <       0.00000848 Ry

     iteration # 14     ecut=   120.00 Ry     beta= 0.40
     Davidson diagonalization with overlap
     ethr =  5.89E-09,  avg # of iterations =  4.8

     total cpu time spent up to now is       70.4 secs

     total energy              =   -1077.85186163 Ry
     estimated scf accuracy    <       0.00000280 Ry

     iteration # 15     ecut=   120.00 Ry     beta= 0.40
     Davidson diagonalization with overlap
     ethr =  1.94E-09,  avg # of iterations =  4.8

     total cpu time spent up to now is       74.1 secs

     End of self-consistent calculation

          k = 0.0000 0.0000 0.0000 ( 76179 PWs)   bands (ev):

   -57.8637 -57.8584 -57.8528 -57.8494 -57.5520 -57.5483 -34.1787 -34.1776
   -34.1491 -34.1482 -34.0581 -34.0575 -34.0229 -34.0214 -33.9820 -33.9794
   -33.9579 -33.9424 -33.9329 -33.9294 -33.7683 -33.7647 -33.5477 -33.5441
   -19.0866 -18.8284 -18.4503 -18.0921 -17.8404 -17.8182 -17.5235 -17.4390
   -17.3942 -17.3158 -16.7011 -16.6963  -6.6255  -6.3182  -6.1774  -6.0616
    -5.7469  -5.3511  -5.3155  -5.2443  -4.8375  -4.8338  -4.7817  -4.7804
    -4.4303  -4.2969  -4.2941  -4.0314  -3.9159  -3.7345  -3.6284  -3.4495
    -2.9752  -2.8637  -2.7845  -2.5538  -2.4763  -2.4027  -2.3973  -2.1337
    -1.9594  -1.7997  -1.6936  -1.6767  -1.6165  -1.4004  -1.2608  -1.0931
     1.0166   1.1701   1.4499   1.4591   1.5993   1.6565   1.6918   1.8775
     1.9299   1.9732   2.0796   2.1461   2.1814   2.2439

          k = 0.0000 0.1728 0.0000 ( 76281 PWs)   bands (ev):

   -57.8585 -57.8535 -57.8482 -57.8450 -57.5471 -57.5434 -34.1655 -34.1644
   -34.1365 -34.1357 -34.0619 -34.0613 -34.0386 -34.0304 -34.0201 -34.0159
   -34.0060 -33.9937 -33.9281 -33.9247 -33.7573 -33.7538 -33.6043 -33.6007
   -18.9606 -18.7134 -18.3536 -18.0088 -17.7692 -17.7396 -17.5587 -17.4752
   -17.4493 -17.3684 -16.7531 -16.7487  -6.4543  -6.1698  -6.0310  -5.9096
    -5.6219  -5.2927  -5.2670  -5.2145  -5.0200  -5.0143  -4.9693  -4.8081
    -4.2677  -4.2294  -4.2257  -3.8665  -3.7013  -3.5693  -3.5474  -3.3901
    -3.3732  -3.1161  -3.0727  -2.6893  -2.6573  -2.4523  -2.3704  -2.3592
    -2.2055  -2.0596  -1.9982  -1.7361  -1.5736  -1.3960  -1.2946  -1.1402
     1.2519   1.3204   1.4546   1.6075   1.6123   1.6851   1.7781   1.8417
     1.9145   1.9683   2.0716   2.2388   2.3202   2.4844

          k = 0.0000 0.3455 0.0000 ( 76251 PWs)   bands (ev):

   -57.8452 -57.8410 -57.8365 -57.8340 -57.5348 -57.5311 -34.1817 -34.1759
   -34.1635 -34.1451 -34.1264 -34.1251 -34.1004 -34.0984 -34.0350 -34.0346
   -34.0102 -34.0085 -33.9198 -33.9163 -33.7591 -33.7556 -33.7147 -33.7111
   -18.6268 -18.4192 -18.1358 -17.8558 -17.7216 -17.6493 -17.6064 -17.5477
   -17.4379 -17.4344 -16.8610 -16.8579  -6.0073  -5.7986  -5.6735  -5.5303
    -5.3532  -5.2775  -5.2406  -5.2054  -5.1235  -5.0323  -5.0004  -4.6428
    -4.3364  -4.3028  -4.2363  -4.0116  -3.9329  -3.7911  -3.7509  -3.4609
    -3.4563  -3.2268  -3.2187  -2.9757  -2.9730  -2.6865  -2.5739  -2.5406
    -2.3482  -2.2808  -2.0672  -1.9103  -1.7646  -1.6070  -1.4462  -1.3474
     1.2874   1.3601   1.5955   1.6067   1.6771   1.8585   1.9404   2.0163
     2.0240   2.1633   2.3234   2.4767   2.4790   2.6889

          k = 0.0000 0.5183 0.0000 ( 76270 PWs)   bands (ev):

   -57.8296 -57.8266 -57.8235 -57.8218 -57.5207 -57.5170 -34.3284 -34.3256
   -34.3077 -34.2984 -34.0849 -34.0839 -34.0619 -34.0609 -34.0288 -34.0272
   -34.0064 -34.0045 -33.9129 -33.9094 -33.9030 -33.8995 -33.6891 -33.6855
   -18.2093 -18.0991 -18.0207 -17.9467 -17.7845 -17.6362 -17.5872 -17.5728
   -17.3429 -17.3386 -16.8653 -16.8623  -5.5232  -5.4847  -5.4658  -5.4433
    -5.3500  -5.3131  -5.1725  -5.1597  -5.0478  -4.9854  -4.9371  -4.6612
    -4.5898  -4.4097  -4.3505  -4.1788  -4.1058  -3.9029  -3.6939  -3.4218
    -3.3722  -3.3084  -3.2335  -3.1433  -2.9437  -2.7748  -2.6653  -2.5800
    -2.5425  -2.4806  -2.1928  -2.0135  -1.9866  -1.8753  -1.7648  -1.6868
     1.1837   1.2351   1.3440   1.6262   1.8577   2.0031   2.1152   2.1928
     2.2561   2.5239   2.5865   2.6087   2.6685   2.7613

          k = 0.0000 0.6911 0.0000 ( 76376 PWs)   bands (ev):

   -57.8184 -57.8171 -57.8159 -57.8139 -57.5115 -57.5078 -34.4240 -34.4218
   -34.4015 -34.3984 -34.0523 -34.0497 -34.0434 -34.0373 -34.0305 -34.0249
   -34.0215 -34.0197 -33.9780 -33.9753 -33.9072 -33.9036 -33.6669 -33.6633
   -18.0808 -18.0588 -17.9608 -17.9091 -17.8086 -17.6172 -17.5463 -17.4764
   -17.3565 -17.3332 -16.7552 -16.7521  -5.8866  -5.8735  -5.6108  -5.5721
    -5.2489  -5.2156  -5.0658  -5.0103  -4.8879  -4.8586  -4.7494  -4.7472
    -4.4341  -4.2896  -4.1496  -4.1004  -3.8192  -3.7272  -3.6052  -3.5806
    -3.5250  -3.2633  -3.1656  -3.0568  -2.9529  -2.8294  -2.6959  -2.6661
    -2.5749  -2.5190  -2.4755  -2.3068  -2.1484  -2.1167  -1.9906  -1.8356
     1.0520   1.2278   1.3614   1.6727   1.7632   2.1216   2.1775   2.1869
     2.2723   2.3310   2.5751   2.5793   2.7871   2.8061

          k = 0.1667 0.0000 0.0000 ( 76264 PWs)   bands (ev):

   -57.8627 -57.8581 -57.8531 -57.8503 -57.5520 -57.5483 -34.1813 -34.1802
   -34.1500 -34.1491 -34.0575 -34.0571 -34.0221 -34.0207 -33.9811 -33.9788
   -33.9577 -33.9440 -33.9326 -33.9291 -33.7681 -33.7646 -33.5477 -33.5441
   -19.0018 -18.7803 -18.4537 -18.1286 -17.8466 -17.8276 -17.5091 -17.5057
   -17.3804 -17.3609 -16.7122 -16.7087  -6.5470  -6.4052  -6.1173  -6.0780
    -5.5855  -5.3146  -5.3117  -5.1240  -4.8500  -4.8462  -4.7880  -4.7857
    -4.4230  -4.3033  -4.3006  -3.9803  -3.8613  -3.6935  -3.5744  -3.3404
    -2.9467  -2.8136  -2.8075  -2.5801  -2.5061  -2.4747  -2.3590  -2.1441
    -2.1064  -1.9694  -1.8118  -1.7691  -1.7294  -1.5872  -1.3879  -1.2027
     1.0386   1.1195   1.4092   1.4978   1.6625   1.6931   1.7681   1.8675
     1.9917   2.0373   2.0725   2.1424   2.1888   2.2600

          k = 0.1667 0.1728 0.0000 ( 76282 PWs)   bands (ev):

   -57.8576 -57.8532 -57.8485 -57.8458 -57.5471 -57.5434 -34.1679 -34.1668
   -34.1375 -34.1364 -34.0617 -34.0610 -34.0355 -34.0326 -34.0173 -34.0162
   -34.0061 -33.9946 -33.9279 -33.9244 -33.7572 -33.7537 -33.6042 -33.6007
   -18.8798 -18.6671 -18.3559 -18.0432 -17.7730 -17.7413 -17.5544 -17.5403
   -17.4357 -17.4097 -16.7631 -16.7598  -6.3871  -6.2564  -5.9671  -5.9301
    -5.5149  -5.2773  -5.2634  -5.2275  -5.0609  -4.9961  -4.9013  -4.7273
    -4.2754  -4.2414  -4.1476  -3.7792  -3.7180  -3.5946  -3.4767  -3.3301
    -3.2724  -3.1375  -3.0804  -2.6967  -2.6888  -2.4875  -2.4177  -2.3250
    -2.2472  -2.1687  -2.0352  -1.8927  -1.6676  -1.5327  -1.4355  -1.2640
     1.2485   1.2783   1.5098   1.5808   1.6244   1.6743   1.8741   1.8762
     1.9604   2.0587   2.1126   2.1915   2.3748   2.4910

          k = 0.1667 0.3455 0.0000 ( 76223 PWs)   bands (ev):

   -57.8445 -57.8407 -57.8368 -57.8347 -57.5348 -57.5311 -34.1799 -34.1777
   -34.1615 -34.1483 -34.1278 -34.1267 -34.1013 -34.0986 -34.0348 -34.0338
   -34.0095 -34.0079 -33.9197 -33.9162 -33.7592 -33.7557 -33.7146 -33.7110
   -18.5602 -18.3780 -18.1299 -17.8807 -17.7103 -17.6725 -17.6136 -17.5794
   -17.4645 -17.4439 -16.8673 -16.8643  -5.9794  -5.8750  -5.6054  -5.5699
    -5.4486  -5.4113  -5.2681  -5.2348  -5.1032  -5.0592  -4.7456  -4.4658
    -4.4286  -4.2683  -4.1455  -4.0215  -3.8741  -3.7680  -3.6906  -3.4753
    -3.3869  -3.2755  -3.2218  -2.9906  -2.9651  -2.6918  -2.5791  -2.5650
    -2.3747  -2.2626  -2.0930  -1.9108  -1.8064  -1.7033  -1.5146  -1.4021
     1.2919   1.4010   1.5959   1.5980   1.7078   1.8607   1.9400   2.0393
     2.1503   2.1607   2.3325   2.4145   2.4910   2.6666

          k = 0.1667 0.5183 0.0000 ( 76310 PWs)   bands (ev):

   -57.8291 -57.8265 -57.8237 -57.8221 -57.5207 -57.5170 -34.3279 -34.3257
   -34.3067 -34.2996 -34.0863 -34.0854 -34.0630 -34.0609 -34.0284 -34.0269
   -34.0058 -34.0041 -33.9130 -33.9095 -33.9030 -33.8995 -33.6892 -33.6856
   -18.1822 -18.0786 -18.0037 -17.9257 -17.7679 -17.7173 -17.6024 -17.5555
   -17.3538 -17.3509 -16.8631 -16.8601  -5.5714  -5.5591  -5.5093  -5.4491
    -5.3840  -5.3108  -5.2595  -5.2576  -5.1250  -5.0454  -4.9890  -4.6896
    -4.4941  -4.3644  -4.1733  -4.0666  -4.0571  -3.8219  -3.6660  -3.4865
    -3.3775  -3.3121  -3.1989  -3.0997  -2.9868  -2.7277  -2.6124  -2.5943
    -2.5363  -2.4263  -2.1535  -2.0370  -1.9937  -1.8143  -1.7032  -1.6345
     1.1957   1.2323   1.3468   1.7311   1.9191   1.9865   2.1636   2.1730
     2.2785   2.3062   2.4992   2.5363   2.6114   2.7486

          k = 0.1667 0.6911 0.0000 ( 76348 PWs)   bands (ev):

   -57.8183 -57.8171 -57.8159 -57.8139 -57.5115 -57.5078 -34.4238 -34.4217
   -34.4011 -34.3988 -34.0528 -34.0510 -34.0431 -34.0392 -34.0287 -34.0251
   -34.0209 -34.0193 -33.9785 -33.9757 -33.9073 -33.9038 -33.6671 -33.6635
   -18.0830 -18.0713 -17.9518 -17.9421 -17.7276 -17.6653 -17.5025 -17.4986
   -17.3599 -17.3471 -16.7471 -16.7441  -5.9047  -5.8955  -5.6388  -5.5845
    -5.2432  -5.2395  -5.1641  -5.1209  -5.0084  -4.9859  -4.8736  -4.8134
    -4.5178  -4.3716  -4.0586  -4.0272  -3.7241  -3.7067  -3.6105  -3.5158
    -3.3941  -3.2135  -3.1420  -3.0452  -2.8028  -2.7313  -2.6788  -2.6044
    -2.5149  -2.4250  -2.4040  -2.2204  -2.1412  -2.0759  -1.9177  -1.7876
     1.1285   1.1905   1.4749   1.4861   1.8761   2.0211   2.1526   2.1986
     2.2666   2.3176   2.5485   2.5785   2.6173   2.6734

          k = 0.3333 0.0000 0.0000 ( 76372 PWs)   bands (ev):

   -57.8602 -57.8572 -57.8542 -57.8524 -57.5520 -57.5483 -34.1861 -34.1850
   -34.1522 -34.1507 -34.0569 -34.0561 -34.0204 -34.0191 -33.9795 -33.9773
   -33.9564 -33.9481 -33.9320 -33.9285 -33.7677 -33.7642 -33.5477 -33.5442
   -18.7712 -18.6573 -18.4667 -18.2441 -17.9065 -17.8946 -17.5408 -17.5156
   -17.4215 -17.3868 -16.7359 -16.7329  -6.4510  -6.4442  -6.1759  -6.0707
    -5.3444  -5.3078  -5.0120  -4.8731  -4.8707  -4.8050  -4.7948  -4.7145
    -4.3158  -4.3130  -4.2033  -3.9536  -3.8455  -3.6512  -3.3189  -3.3024
    -3.1195  -2.8312  -2.8151  -2.6672  -2.6092  -2.5678  -2.4313  -2.3642
    -2.2859  -2.2217  -1.9989  -1.8516  -1.8472  -1.8069  -1.6215  -1.4845
     1.0538   1.0663   1.3608   1.4908   1.6762   1.6999   1.9105   1.9296
     2.0924   2.1257   2.1301   2.1641   2.2325   2.4379

          k = 0.3333 0.1728 0.0000 ( 76383 PWs)   bands (ev):

   -57.8552 -57.8524 -57.8495 -57.8478 -57.5471 -57.5434 -34.1725 -34.1715
   -34.1396 -34.1378 -34.0608 -34.0604 -34.0349 -34.0306 -34.0170 -34.0137
   -34.0050 -33.9975 -33.9274 -33.9240 -33.7570 -33.7535 -33.6042 -33.6007
   -18.6598 -18.5488 -18.3666 -18.1532 -17.8262 -17.8109 -17.5854 -17.5520
   -17.4667 -17.4359 -16.7844 -16.7813  -6.3026  -6.2975  -6.0240  -5.9212
    -5.2976  -5.2602  -5.2480  -5.2078  -5.1069  -5.0539  -4.6517  -4.4272
    -4.2774  -4.2276  -3.8830  -3.7541  -3.6610  -3.5172  -3.4172  -3.3612
    -3.2411  -3.1226  -3.0346  -2.7636  -2.7132  -2.5988  -2.5011  -2.4986
    -2.3069  -2.2985  -2.2355  -2.1102  -1.9336  -1.7366  -1.6158  -1.4879
     1.2300   1.2461   1.5218   1.6481   1.6935   1.6986   1.8485   1.9070
     2.0838   2.1130   2.2490   2.3501   2.4290   2.5050

          k = 0.3333 0.3455 0.0000 ( 76318 PWs)   bands (ev):

   -57.8426 -57.8402 -57.8377 -57.8361 -57.5348 -57.5311 -34.1805 -34.1761
   -34.1581 -34.1539 -34.1319 -34.1291 -34.1019 -34.1004 -34.0338 -34.0331
   -34.0084 -34.0067 -33.9194 -33.9159 -33.7593 -33.7558 -33.7145 -33.7109
   -18.3788 -18.2731 -18.1233 -17.9569 -17.7621 -17.7370 -17.6544 -17.5961
   -17.4767 -17.4715 -16.8798 -16.8768  -5.9286  -5.9225  -5.6632  -5.5500
    -5.5109  -5.5048  -5.3294  -5.3264  -5.1982  -5.1101  -4.4379  -4.4025
    -4.2277  -4.1060  -4.0768  -3.9312  -3.8145  -3.7888  -3.5127  -3.3596
    -3.3228  -3.3129  -3.2298  -2.9986  -2.9027  -2.7111  -2.6255  -2.6099
    -2.3864  -2.3514  -2.1891  -2.0438  -1.8498  -1.8113  -1.7119  -1.5932
     1.4558   1.5510   1.5904   1.6170   1.8188   1.8779   1.9116   1.9843
     2.1545   2.2440   2.4152   2.4208   2.4571   2.5812

          k = 0.3333 0.5183 0.0000 ( 76259 PWs)   bands (ev):

   -57.8279 -57.8262 -57.8245 -57.8227 -57.5207 -57.5170 -34.3276 -34.3253
   -34.3047 -34.3016 -34.0895 -34.0877 -34.0636 -34.0624 -34.0273 -34.0267
   -34.0051 -34.0032 -33.9131 -33.9096 -33.9029 -33.8995 -33.6894 -33.6858
   -18.1101 -18.0333 -17.9666 -17.8744 -17.8331 -17.7403 -17.6562 -17.5681
   -17.3798 -17.3757 -16.8589 -16.8559  -5.6621  -5.6577  -5.6015  -5.5388
    -5.4780  -5.4485  -5.3576  -5.2612  -5.1963  -5.1187  -4.8829  -4.8361
    -4.4434  -4.2798  -4.0652  -4.0445  -3.9090  -3.7035  -3.5257  -3.4498
    -3.4007  -3.2915  -3.1647  -3.0640  -2.8173  -2.7280  -2.5616  -2.5070
    -2.4179  -2.3491  -2.1212  -2.0565  -1.9780  -1.7876  -1.6561  -1.6216
     1.1923   1.3299   1.5885   1.8452   1.9545   1.9836   2.0462   2.0693
     2.1510   2.2164   2.3653   2.4565   2.5604   2.6437

          k = 0.3333 0.6911 0.0000 ( 76319 PWs)   bands (ev):

   -57.8179 -57.8172 -57.8161 -57.8140 -57.5115 -57.5078 -34.4236 -34.4215
   -34.4003 -34.3992 -34.0543 -34.0518 -34.0435 -34.0400 -34.0280 -34.0252
   -34.0208 -34.0189 -33.9790 -33.9763 -33.9076 -33.9041 -33.6674 -33.6638
   -18.0912 -18.0814 -17.9709 -17.9472 -17.6668 -17.6283 -17.5381 -17.4794
   -17.3759 -17.3709 -16.7317 -16.7287  -5.9492  -5.9316  -5.7432  -5.7042
    -5.4710  -5.4321  -5.2494  -5.2032  -5.0818  -4.9771  -4.8585  -4.8355
    -4.5456  -4.3719  -4.1307  -4.1212  -3.7585  -3.7182  -3.6250  -3.5585
    -3.3852  -3.2678  -2.9064  -2.8587  -2.6440  -2.5937  -2.4618  -2.4453
    -2.4147  -2.2469  -2.1132  -2.0922  -1.9917  -1.9428  -1.7604  -1.7041
     1.1473   1.2040   1.4062   1.5547   1.7277   1.7870   2.2092   2.2216
     2.2581   2.2942   2.4539   2.4798   2.6006   2.6058

          k =-0.5000 0.0000 0.0000 ( 76438 PWs)   bands (ev):

   -57.8573 -57.8570 -57.8560 -57.8537 -57.5520 -57.5483 -34.1884 -34.1874
   -34.1528 -34.1520 -34.0564 -34.0560 -34.0196 -34.0183 -33.9787 -33.9765
   -33.9530 -33.9528 -33.9317 -33.9282 -33.7676 -33.7640 -33.5478 -33.5442
   -18.5348 -18.5327 -18.4655 -18.4653 -17.9707 -17.9678 -17.5092 -17.5072
   -17.4284 -17.4281 -16.7480 -16.7450  -6.4420  -6.4410  -6.1376  -6.1369
    -5.3309  -5.3281  -4.8841  -4.8826  -4.8070  -4.8069  -4.3217  -4.3190
    -4.2548  -4.2541  -4.1452  -4.1448  -3.7570  -3.7557  -3.6302  -3.6292
    -2.9858  -2.9848  -2.7071  -2.7055  -2.6310  -2.6294  -2.4439  -2.4437
    -2.3541  -2.3524  -1.9148  -1.9141  -1.8665  -1.8636  -1.7411  -1.7389
     1.0471   1.0487   1.4076   1.4085   1.6919   1.6925   1.9316   1.9322
     2.0921   2.0935   2.1851   2.1889   2.6464   2.6480

          k =-0.5000 0.1728 0.0000 ( 76384 PWs)   bands (ev):

   -57.8525 -57.8522 -57.8512 -57.8490 -57.5471 -57.5434 -34.1746 -34.1737
   -34.1401 -34.1392 -34.0602 -34.0601 -34.0333 -34.0320 -34.0146 -34.0140
   -34.0017 -34.0015 -33.9271 -33.9237 -33.7569 -33.7534 -33.6042 -33.6007
   -18.4320 -18.4298 -18.3655 -18.3653 -17.8937 -17.8909 -17.5397 -17.5378
   -17.4766 -17.4761 -16.7952 -16.7922  -6.2952  -6.2943  -5.9873  -5.9866
    -5.2847  -5.2820  -5.1861  -5.1854  -5.0800  -5.0792  -4.3359  -4.3336
    -4.1380  -4.1374  -3.8579  -3.8574  -3.5441  -3.5431  -3.4160  -3.4150
    -3.0531  -3.0515  -2.9148  -2.9146  -2.8880  -2.8876  -2.6418  -2.6410
    -2.3675  -2.3651  -2.2009  -2.1995  -1.8776  -1.8769  -1.6468  -1.6445
     1.2326   1.2344   1.5656   1.5663   1.7398   1.7400   1.8829   1.8840
     2.0909   2.0932   2.4562   2.4594   2.6135   2.6159

          k =-0.5000 0.3455 0.0000 ( 76352 PWs)   bands (ev):

   -57.8404 -57.8401 -57.8391 -57.8369 -57.5348 -57.5311 -34.1794 -34.1776
   -34.1558 -34.1555 -34.1329 -34.1320 -34.1022 -34.1013 -34.0332 -34.0330
   -34.0076 -34.0062 -33.9192 -33.9158 -33.7594 -33.7559 -33.7144 -33.7108
   -18.1742 -18.1718 -18.1284 -18.1281 -17.8193 -17.8172 -17.6112 -17.6109
   -17.4849 -17.4823 -16.8860 -16.8830  -5.9219  -5.9210  -5.6259  -5.6253
    -5.5238  -5.5232  -5.3649  -5.3641  -5.1780  -5.1763  -4.4515  -4.4505
    -4.1348  -4.1334  -3.9189  -3.9177  -3.5711  -3.5707  -3.3890  -3.3885
    -3.2611  -3.2600  -3.0783  -3.0781  -2.8860  -2.8848  -2.7387  -2.7378
    -2.4626  -2.4614  -2.0982  -2.0978  -1.8266  -1.8255  -1.8067  -1.8056
     1.5938   1.5959   1.7234   1.7241   1.8045   1.8059   1.9341   1.9349
     2.1420   2.1447   2.4621   2.4626   2.5593   2.5600

          k =-0.5000 0.5183 0.0000 ( 76318 PWs)   bands (ev):

   -57.8266 -57.8263 -57.8253 -57.8231 -57.5207 -57.5170 -34.3274 -34.3253
   -34.3032 -34.3030 -34.0904 -34.0896 -34.0637 -34.0629 -34.0269 -34.0268
   -34.0045 -34.0030 -33.9132 -33.9097 -33.9029 -33.8994 -33.6895 -33.6859
   -18.0300 -18.0283 -17.9312 -17.9304 -17.7944 -17.7941 -17.6225 -17.6224
   -17.3932 -17.3904 -16.8569 -16.8539  -5.7001  -5.6997  -5.6145  -5.6140
    -5.4973  -5.4969  -5.3581  -5.3559  -5.2289  -5.2275  -4.7692  -4.7677
    -4.3721  -4.3711  -4.0777  -4.0754  -3.7417  -3.7401  -3.5378  -3.5364
    -3.3165  -3.3154  -2.9784  -2.9762  -2.7669  -2.7661  -2.5014  -2.4997
    -2.2443  -2.2422  -2.0139  -2.0127  -1.9758  -1.9739  -1.6998  -1.6973
     1.4242   1.4246   1.6623   1.6631   1.9318   1.9324   2.0161   2.0173
     2.1819   2.1821   2.3422   2.3429   2.5977   2.5993

          k =-0.5000 0.6911 0.0000 ( 76294 PWs)   bands (ev):

   -57.8176 -57.8173 -57.8163 -57.8140 -57.5115 -57.5078 -34.4236 -34.4215
   -34.3996 -34.3995 -34.0544 -34.0533 -34.0415 -34.0403 -34.0285 -34.0274
   -34.0199 -34.0187 -33.9791 -33.9764 -33.9078 -33.9043 -33.6676 -33.6640
   -18.0897 -18.0878 -17.9677 -17.9673 -17.6263 -17.6253 -17.5080 -17.5075
   -17.3860 -17.3843 -16.7243 -16.7213  -5.9546  -5.9542  -5.8133  -5.8128
    -5.5570  -5.5559  -5.2621  -5.2619  -4.9998  -4.9986  -4.7957  -4.7938
    -4.4057  -4.4050  -4.2664  -4.2646  -3.7648  -3.7635  -3.5581  -3.5569
    -3.4139  -3.4119  -2.8760  -2.8748  -2.5452  -2.5448  -2.3936  -2.3913
    -2.1107  -2.1087  -2.0248  -2.0234  -1.8464  -1.8459  -1.6852  -1.6831
     1.1417   1.1418   1.4394   1.4398   1.6857   1.6868   2.2336   2.2357
     2.2779   2.2780   2.4430   2.4440   2.6105   2.6139

     the Fermi energy is    -0.0574 ev

!    total energy              =   -1077.85186207 Ry
     estimated scf accuracy    <       0.00000017 Ry
     smearing contrib. (-TS)   =      -0.00000000 Ry
     internal energy E=F+TS    =   -1077.85186207 Ry

     The total energy is F=E-TS. E is the sum of the following terms:
     one-electron contribution =  -25653.73976748 Ry
     hartree contribution      =   12841.58026790 Ry
     xc contribution           =    -170.10883779 Ry
     ewald contribution        =   11904.41647530 Ry

     convergence has been achieved in  15 iterations

     Forces acting on atoms (cartesian axes, Ry/au):

     atom    1 type  1   force =     0.07646772    0.00000000    0.02046505
     atom    2 type  1   force =     0.02298072    0.00000000   -0.00763602
     atom    3 type  1   force =     0.00286590    0.00000000    0.00030932
     atom    4 type  1   force =     0.00280994    0.00000000   -0.00021579
     atom    5 type  1   force =     0.02299364    0.00000000    0.00793985
     atom    6 type  1   force =     0.07638169    0.00000000   -0.02047888
     atom    7 type  2   force =    -0.04487311    0.00000000   -0.00475311
     atom    8 type  2   force =    -0.01397565    0.00000000   -0.01183211
     atom    9 type  2   force =    -0.00569556    0.00000000   -0.00203188
     atom   10 type  2   force =    -0.00229970    0.00000000    0.00038850
     atom   11 type  2   force =    -0.03233874    0.00000000   -0.01317607
     atom   12 type  2   force =    -0.00302736    0.00000000   -0.00249522
     atom   13 type  2   force =    -0.00244084    0.00000000   -0.00055819
     atom   14 type  2   force =    -0.00565031    0.00000000    0.00236545
     atom   15 type  2   force =    -0.00298481    0.00000000    0.00231530
     atom   16 type  2   force =    -0.03226793    0.00000000    0.01262192
     atom   17 type  2   force =    -0.04487764    0.00000000    0.00441173
     atom   18 type  2   force =    -0.01406796    0.00000000    0.01236013

     Total force =     0.144932     Total SCF correction =     0.001108


     Computing stress (Cartesian axis) and pressure

          total   stress  (Ry/bohr**3)                   (kbar)     P=        7.73
   0.00007755   0.00000000   0.00000006           11.41        0.00        0.01
   0.00000000   0.00001576   0.00000000            0.00        2.32        0.00
   0.00000006   0.00000000   0.00006428            0.01        0.00        9.46


     BFGS Geometry Optimization
     Energy error            =      0.0E+00 Ry
     Gradient error          =      7.6E-02 Ry/Bohr
     Cell gradient error     =      1.1E+01 kbar

     number of scf cycles    =   1
     number of bfgs steps    =   0

     enthalpy           new  =   -1077.8518620667 Ry

     new trust radius        =       0.0791588944 bohr
     new conv_thr            =       0.0000010000 Ry

     new unit-cell volume =   3445.52445 a.u.^3 (   510.57405 Ang^3 )
     density =      1.55847 g/cm^3

CELL_PARAMETERS (angstrom)
   4.606131127   0.000000000   0.000000000
   0.000000000   2.957643345   0.000000000
   0.000000000   0.000000000  37.478019714

ATOMIC_POSITIONS (angstrom)
Ti               0.1176112594        0.0000000000       14.5903304119
Ti               2.3180016726        1.4788215847       16.8854762794
Ti               0.0026226684        0.0000000000       19.1877426014
Ti               2.3056852647        1.4788215847       21.4839275333
Ti               0.0149272587        0.0000000000       23.7862961371
Ti               2.4206350787        1.4788215847       26.0813011628
O                0.8322911131        1.4788216726       13.7095718473
O                1.3853596702        0.0000000000       15.9788539365
O                3.1986201299        0.0000000000       17.7857902337
O                0.8980494277        1.4788216726       18.2906930662
O                3.6653829593        1.4788216726       15.4826269126
O                1.4005449426        0.0000000000       20.5844692746
O                3.2010519988        0.0000000000       22.3809010012
O                0.8955083605        1.4788216726       22.8863984491
O                3.7036041329        1.4788216726       20.0869606650
O                1.3623641902        0.0000000000       25.1885803543
O                3.1354066000        0.0000000000       26.9615689517
O                3.6883142541        1.4788216726       24.6933594257



     Writing config-only to output data dir ./Out/pwscf.save/
     NEW-OLD atomic charge density approx. for the potential

     negative rho (up, down):  4.403E-04 0.000E+00

     total cpu time spent up to now is       80.1 secs

     Self-consistent Calculation

     iteration #  1     ecut=   120.00 Ry     beta= 0.40
     Davidson diagonalization with overlap
     c_bands:  1 eigenvalues not converged
     c_bands:  1 eigenvalues not converged
     c_bands:  1 eigenvalues not converged
     c_bands:  1 eigenvalues not converged
     ethr =  1.00E-06,  avg # of iterations = 12.6

     negative rho (up, down):  2.034E-04 0.000E+00

     total cpu time spent up to now is       88.3 secs

     total energy              =   -1077.86974461 Ry
     estimated scf accuracy    <       0.00265620 Ry

     iteration #  2     ecut=   120.00 Ry     beta= 0.40
     Davidson diagonalization with overlap
     c_bands:  2 eigenvalues not converged
     c_bands:  2 eigenvalues not converged
     ethr =  1.84E-06,  avg # of iterations = 13.2

     negative rho (up, down):  1.422E-04 0.000E+00

     total cpu time spent up to now is       93.4 secs

     total energy              =   -1077.86979517 Ry
     estimated scf accuracy    <       0.00194867 Ry

     iteration #  3     ecut=   120.00 Ry     beta= 0.40
     Davidson diagonalization with overlap
     ethr =  1.35E-06,  avg # of iterations = 13.1

     negative rho (up, down):  5.243E-05 0.000E+00

     total cpu time spent up to now is       98.4 secs

     total energy              =   -1077.87009425 Ry
     estimated scf accuracy    <       0.00045100 Ry

     iteration #  4     ecut=   120.00 Ry     beta= 0.40
     Davidson diagonalization with overlap
     ethr =  3.13E-07,  avg # of iterations =  2.0

     negative rho (up, down):  2.592E-05 0.000E+00

     total cpu time spent up to now is      101.7 secs

     total energy              =   -1077.87015345 Ry
     estimated scf accuracy    <       0.00009326 Ry

     iteration #  5     ecut=   120.00 Ry     beta= 0.40
     Davidson diagonalization with overlap
     ethr =  6.48E-08,  avg # of iterations =  2.8

     negative rho (up, down):  1.257E-05 0.000E+00

     total cpu time spent up to now is      105.1 secs

     total energy              =   -1077.87016729 Ry
     estimated scf accuracy    <       0.00001264 Ry

     iteration #  6     ecut=   120.00 Ry     beta= 0.40
     Davidson diagonalization with overlap
     ethr =  8.77E-09,  avg # of iterations =  6.5

     negative rho (up, down):  3.479E-06 0.000E+00

     total cpu time spent up to now is      109.4 secs

     total energy              =   -1077.87017206 Ry
     estimated scf accuracy    <       0.00000566 Ry

     iteration #  7     ecut=   120.00 Ry     beta= 0.40
     Davidson diagonalization with overlap
     ethr =  3.93E-09,  avg # of iterations =  2.8

     negative rho (up, down):  9.343E-07 0.000E+00

     total cpu time spent up to now is      112.8 secs

     total energy              =   -1077.87017229 Ry
     estimated scf accuracy    <       0.00000141 Ry

     iteration #  8     ecut=   120.00 Ry     beta= 0.40
     Davidson diagonalization with overlap
     ethr =  9.79E-10,  avg # of iterations =  5.5

     total cpu time spent up to now is      116.7 secs

     End of self-consistent calculation

          k = 0.0000 0.0000 0.0000 ( 76179 PWs)   bands (ev):

   -57.9391 -57.9382 -57.9242 -57.9161 -57.5051 -57.5035 -34.2547 -34.2539
   -34.2157 -34.2144 -34.1256 -34.1240 -34.0910 -34.0905 -34.0672 -34.0664
   -34.0212 -34.0046 -33.9115 -33.9103 -33.7353 -33.7338 -33.5163 -33.5149
   -19.1405 -18.8962 -18.5129 -18.1389 -17.8795 -17.8561 -17.6114 -17.5377
   -17.4423 -17.3793 -16.7783 -16.7740  -6.6855  -6.3951  -6.2148  -6.1209
    -5.7929  -5.3499  -5.3466  -5.2734  -4.9264  -4.9213  -4.8189  -4.8182
    -4.4970  -4.3309  -4.3304  -4.1183  -3.9850  -3.8189  -3.7029  -3.5212
    -3.0501  -2.9665  -2.9164  -2.6276  -2.5981  -2.5336  -2.5210  -2.1918
    -2.0095  -1.9177  -1.8041  -1.7309  -1.7237  -1.4796  -1.3099  -1.1430
     0.9473   1.0927   1.3847   1.4026   1.5276   1.5944   1.6398   1.8263
     1.8554   1.9120   2.1702   2.2235   2.2488   2.3762

          k = 0.0000 0.1727 0.0000 ( 76281 PWs)   bands (ev):

   -57.9342 -57.9334 -57.9194 -57.9117 -57.5002 -57.4986 -34.2415 -34.2407
   -34.2036 -34.2019 -34.1325 -34.1318 -34.1173 -34.1126 -34.0881 -34.0861
   -34.0697 -34.0559 -33.9072 -33.9059 -33.7249 -33.7235 -33.5733 -33.5719
   -19.0155 -18.7824 -18.4192 -18.0592 -17.8186 -17.7808 -17.6284 -17.5678
   -17.4920 -17.4305 -16.8306 -16.8270  -6.5145  -6.2474  -6.0693  -5.9714
    -5.6679  -5.3050  -5.3029  -5.2511  -5.1114  -5.0993  -5.0125  -4.8504
    -4.3190  -4.2629  -4.2454  -3.9670  -3.7928  -3.6552  -3.6446  -3.4702
    -3.4571  -3.1723  -3.1347  -2.8178  -2.7654  -2.5425  -2.4729  -2.4695
    -2.2952  -2.1471  -2.0421  -1.7957  -1.6743  -1.4761  -1.3455  -1.1909
     1.1743   1.2379   1.3960   1.5501   1.5579   1.6022   1.7238   1.8168
     1.8765   1.8923   2.0944   2.2138   2.3175   2.6132

          k = 0.0000 0.3454 0.0000 ( 76251 PWs)   bands (ev):

   -57.9219 -57.9211 -57.9070 -57.9007 -57.4877 -57.4861 -34.2639 -34.2609
   -34.2263 -34.2073 -34.2028 -34.1984 -34.1673 -34.1667 -34.1026 -34.1019
   -34.0787 -34.0781 -33.8979 -33.8967 -33.7356 -33.7343 -33.6775 -33.6761
   -18.6841 -18.4906 -18.2133 -17.9384 -17.7841 -17.7212 -17.6672 -17.5968
   -17.4531 -17.4458 -16.9482 -16.9466  -6.0669  -5.8785  -5.7116  -5.6092
    -5.4212  -5.3306  -5.2823  -5.2629  -5.1736  -5.0763  -5.0760  -4.7212
    -4.4115  -4.3947  -4.3082  -4.0336  -3.9272  -3.8581  -3.8357  -3.5774
    -3.5463  -3.3306  -3.2918  -3.0532  -3.0326  -2.7338  -2.6477  -2.5881
    -2.4138  -2.3710  -2.1464  -2.0017  -1.8615  -1.6677  -1.4960  -1.4109
     1.2429   1.3147   1.5239   1.5251   1.5889   1.7979   1.8757   1.9575
     1.9716   2.1173   2.2918   2.4396   2.4450   2.6856

          k = 0.0000 0.5181 0.0000 ( 76270 PWs)   bands (ev):

   -57.9078 -57.9070 -57.8927 -57.8883 -57.4735 -57.4719 -34.4111 -34.4099
   -34.3664 -34.3580 -34.1614 -34.1605 -34.1305 -34.1296 -34.0957 -34.0949
   -34.0731 -34.0723 -33.8923 -33.8911 -33.8797 -33.8784 -33.6543 -33.6528
   -18.2696 -18.1666 -18.1154 -18.0454 -17.8366 -17.7050 -17.6455 -17.6335
   -17.3136 -17.3113 -16.9713 -16.9712  -5.5803  -5.5570  -5.5214  -5.5206
    -5.3965  -5.3825  -5.2624  -5.2563  -5.0977  -5.0361  -5.0176  -4.7784
    -4.6323  -4.4825  -4.4176  -4.2157  -4.1578  -3.9530  -3.7831  -3.5291
    -3.4056  -3.3937  -3.3364  -3.1828  -3.0037  -2.8100  -2.7079  -2.6210
    -2.5688  -2.5430  -2.2674  -2.0868  -2.0755  -1.9518  -1.8317  -1.7730
     1.1664   1.1677   1.3214   1.5727   1.7892   1.9216   2.0787   2.1196
     2.1982   2.4790   2.5654   2.5673   2.6464   2.7221

          k = 0.0000 0.6908 0.0000 ( 76376 PWs)   bands (ev):

   -57.8986 -57.8978 -57.8827 -57.8808 -57.4642 -57.4626 -34.5063 -34.5055
   -34.4596 -34.4567 -34.1288 -34.1277 -34.1087 -34.1066 -34.0888 -34.0867
   -34.0768 -34.0757 -33.9802 -33.9790 -33.8825 -33.8813 -33.6326 -33.6312
   -18.1700 -18.1488 -18.0213 -17.9693 -17.8711 -17.7038 -17.5812 -17.5444
   -17.3377 -17.3235 -16.8478 -16.8474  -5.9603  -5.9327  -5.6953  -5.6361
    -5.2917  -5.2538  -5.1145  -5.1070  -4.9897  -4.9229  -4.8596  -4.8519
    -4.4828  -4.3518  -4.2005  -4.1803  -3.8646  -3.7884  -3.6846  -3.6612
    -3.5822  -3.3551  -3.2615  -3.1474  -2.9777  -2.8818  -2.7340  -2.7194
    -2.6084  -2.5504  -2.5276  -2.3704  -2.1913  -2.1843  -2.0756  -1.9099
     1.0030   1.1795   1.3688   1.6379   1.7781   2.0531   2.1122   2.1650
     2.2023   2.2693   2.5891   2.5922   2.7409   2.7725

          k = 0.1663 0.0000 0.0000 ( 76264 PWs)   bands (ev):

   -57.9388 -57.9380 -57.9240 -57.9169 -57.5051 -57.5035 -34.2566 -34.2560
   -34.2166 -34.2159 -34.1247 -34.1241 -34.0899 -34.0896 -34.0668 -34.0660
   -34.0204 -34.0060 -33.9114 -33.9101 -33.7352 -33.7338 -33.5164 -33.5150
   -19.0571 -18.8504 -18.5178 -18.1766 -17.8818 -17.8604 -17.6016 -17.5952
   -17.4374 -17.4193 -16.7902 -16.7881  -6.6095  -6.4721  -6.1722  -6.1298
    -5.6325  -5.3160  -5.3147  -5.1762  -4.9363  -4.9324  -4.8282  -4.8239
    -4.4908  -4.3366  -4.3362  -4.0706  -3.9436  -3.7759  -3.6496  -3.4158
    -3.0245  -2.9490  -2.9126  -2.6975  -2.5868  -2.5824  -2.4729  -2.2105
    -2.1579  -2.0302  -1.9201  -1.8672  -1.8240  -1.6708  -1.4495  -1.2560
     0.9692   1.0478   1.3507   1.4397   1.5997   1.6439   1.6970   1.8125
     1.9395   1.9843   2.1571   2.2129   2.2873   2.3738

          k = 0.1663 0.1727 0.0000 ( 76282 PWs)   bands (ev):

   -57.9340 -57.9332 -57.9191 -57.9124 -57.5002 -57.4986 -34.2433 -34.2426
   -34.2043 -34.2036 -34.1324 -34.1314 -34.1156 -34.1134 -34.0862 -34.0858
   -34.0693 -34.0570 -33.9070 -33.9058 -33.7249 -33.7235 -33.5733 -33.5719
   -18.9361 -18.7384 -18.4228 -18.0949 -17.8175 -17.7777 -17.6337 -17.6161
   -17.4909 -17.4660 -16.8417 -16.8398  -6.4497  -6.3234  -6.0238  -5.9835
    -5.5626  -5.3268  -5.2802  -5.2431  -5.1351  -5.0712  -4.9552  -4.7819
    -4.3078  -4.2731  -4.1982  -3.8856  -3.8128  -3.6806  -3.5847  -3.4158
    -3.3378  -3.2249  -3.1549  -2.8082  -2.7801  -2.5659  -2.5089  -2.4134
    -2.3335  -2.2590  -2.0906  -1.9532  -1.7658  -1.6231  -1.4880  -1.3133
     1.1735   1.2029   1.4477   1.5273   1.5714   1.6094   1.8056   1.8284
     1.9198   2.0110   2.1207   2.1864   2.3806   2.6157

          k = 0.1663 0.3454 0.0000 ( 76223 PWs)   bands (ev):

   -57.9217 -57.9209 -57.9068 -57.9012 -57.4877 -57.4861 -34.2627 -34.2619
   -34.2251 -34.2114 -34.2026 -34.1991 -34.1683 -34.1674 -34.1024 -34.1014
   -34.0781 -34.0773 -33.8979 -33.8966 -33.7357 -33.7344 -33.6775 -33.6760
   -18.6191 -18.4519 -18.2083 -17.9603 -17.7744 -17.7550 -17.6606 -17.6370
   -17.4684 -17.4538 -16.9560 -16.9552  -6.0412  -5.9421  -5.6757  -5.6270
    -5.5032  -5.4713  -5.3134  -5.2969  -5.1548  -5.0988  -4.8076  -4.5399
    -4.5292  -4.3464  -4.1826  -4.0892  -3.9046  -3.8478  -3.7764  -3.5641
    -3.4728  -3.3408  -3.3235  -3.0517  -3.0367  -2.7472  -2.6329  -2.6189
    -2.4592  -2.3384  -2.1668  -1.9920  -1.9012  -1.7722  -1.5672  -1.4648
     1.2421   1.3485   1.5118   1.5176   1.6432   1.7988   1.8818   1.9749
     2.1006   2.1115   2.3002   2.3776   2.4624   2.6510

          k = 0.1663 0.5181 0.0000 ( 76310 PWs)   bands (ev):

   -57.9078 -57.9070 -57.8924 -57.8886 -57.4735 -57.4719 -34.4107 -34.4099
   -34.3657 -34.3588 -34.1624 -34.1616 -34.1311 -34.1305 -34.0954 -34.0947
   -34.0725 -34.0719 -33.8924 -33.8912 -33.8796 -33.8784 -33.6544 -33.6529
   -18.2439 -18.1529 -18.1012 -18.0207 -17.8171 -17.7759 -17.6740 -17.6102
   -17.3238 -17.3234 -16.9688 -16.9687  -5.6315  -5.6234  -5.5638  -5.5226
    -5.4517  -5.3699  -5.3298  -5.3098  -5.1943  -5.1299  -5.0698  -4.8077
    -4.5510  -4.4031  -4.2474  -4.1061  -4.1033  -3.8776  -3.7748  -3.5856
    -3.4249  -3.3888  -3.2771  -3.1565  -3.0457  -2.7728  -2.6659  -2.6207
    -2.5688  -2.5010  -2.2175  -2.1132  -2.0825  -1.8737  -1.7850  -1.7230
     1.1735   1.1753   1.3115   1.6822   1.8472   1.9099   2.1009   2.1266
     2.2372   2.2642   2.4710   2.5154   2.5725   2.7094

          k = 0.1663 0.6908 0.0000 ( 76348 PWs)   bands (ev):

   -57.8986 -57.8978 -57.8826 -57.8809 -57.4642 -57.4626 -34.5061 -34.5053
   -34.4593 -34.4569 -34.1291 -34.1284 -34.1083 -34.1077 -34.0882 -34.0876
   -34.0764 -34.0756 -33.9803 -33.9791 -33.8827 -33.8814 -33.6328 -33.6314
   -18.1735 -18.1622 -18.0100 -17.9999 -17.7935 -17.7423 -17.5633 -17.5452
   -17.3469 -17.3381 -16.8387 -16.8386  -5.9720  -5.9555  -5.7139  -5.6546
    -5.2956  -5.2948  -5.2304  -5.1810  -5.1062  -5.0491  -4.9328  -4.9210
    -4.5945  -4.4445  -4.1177  -4.0896  -3.8010  -3.7762  -3.6754  -3.5555
    -3.4526  -3.2971  -3.2379  -3.1349  -2.8508  -2.7605  -2.7030  -2.6817
    -2.5709  -2.4798  -2.4619  -2.2770  -2.1918  -2.1565  -1.9971  -1.8592
     1.0800   1.1594   1.4617   1.4878   1.8868   2.0027   2.0819   2.1211
     2.1983   2.2576   2.5406   2.5749   2.5988   2.6796

          k = 0.3327 0.0000 0.0000 ( 76372 PWs)   bands (ev):

   -57.9382 -57.9374 -57.9231 -57.9188 -57.5051 -57.5035 -34.2605 -34.2599
   -34.2196 -34.2178 -34.1246 -34.1229 -34.0881 -34.0875 -34.0660 -34.0652
   -34.0181 -34.0096 -33.9111 -33.9098 -33.7351 -33.7336 -33.5164 -33.5150
   -18.8319 -18.7345 -18.5345 -18.2952 -17.9314 -17.9199 -17.6301 -17.6064
   -17.4783 -17.4397 -16.8153 -16.8152  -6.5192  -6.5043  -6.2370  -6.1208
    -5.3477  -5.3065  -5.0569  -4.9556  -4.9546  -4.8473  -4.8361  -4.7783
    -4.3474  -4.3472  -4.2854  -4.0365  -3.9336  -3.7460  -3.4259  -3.3733
    -3.2263  -2.9192  -2.8513  -2.7888  -2.7034  -2.6716  -2.5248  -2.4495
    -2.3496  -2.2690  -2.1008  -1.9340  -1.9326  -1.9163  -1.6964  -1.5460
     0.9848   1.0023   1.3011   1.4369   1.6141   1.6527   1.8727   1.8944
     2.0992   2.1516   2.1745   2.2410   2.3230   2.4311

          k = 0.3327 0.1727 0.0000 ( 76383 PWs)   bands (ev):

   -57.9335 -57.9326 -57.9182 -57.9142 -57.5002 -57.4986 -34.2470 -34.2465
   -34.2073 -34.2051 -34.1323 -34.1305 -34.1146 -34.1130 -34.0850 -34.0832
   -34.0674 -34.0598 -33.9068 -33.9055 -33.7249 -33.7234 -33.5733 -33.5719
   -18.7217 -18.6274 -18.4364 -18.2068 -17.8601 -17.8450 -17.6592 -17.6272
   -17.5213 -17.4874 -16.8649 -16.8648  -6.3709  -6.3581  -6.0864  -5.9729
    -5.3285  -5.2969  -5.2905  -5.2389  -5.1607  -5.1190  -4.7092  -4.4793
    -4.3021  -4.2720  -3.9737  -3.8581  -3.7742  -3.6221  -3.5003  -3.4547
    -3.3275  -3.2154  -3.1089  -2.8369  -2.8016  -2.6748  -2.5861  -2.5575
    -2.3719  -2.3676  -2.3063  -2.1770  -2.0180  -1.8402  -1.6834  -1.5430
     1.1557   1.1762   1.4623   1.5920   1.6296   1.6439   1.8005   1.8589
     2.0961   2.1043   2.2105   2.3142   2.4904   2.6063

          k = 0.3327 0.3454 0.0000 ( 76318 PWs)   bands (ev):

   -57.9214 -57.9206 -57.9060 -57.9026 -57.4877 -57.4861 -34.2632 -34.2609
   -34.2227 -34.2171 -34.2040 -34.2008 -34.1698 -34.1693 -34.1016 -34.1011
   -34.0769 -34.0755 -33.8979 -33.8966 -33.7358 -33.7345 -33.6774 -33.6760
   -18.4432 -18.3549 -18.2029 -18.0278 -17.8373 -17.8126 -17.6991 -17.6470
   -17.4780 -17.4746 -16.9719 -16.9717  -5.9910  -5.9899  -5.7318  -5.6141
    -5.5677  -5.5586  -5.3864  -5.3852  -5.2249  -5.1385  -4.5271  -4.4914
    -4.3102  -4.1660  -4.1137  -4.0116  -3.8941  -3.8574  -3.6103  -3.4650
    -3.4154  -3.3954  -3.2863  -3.0701  -2.9728  -2.7807  -2.6774  -2.6622
    -2.4275  -2.4121  -2.2633  -2.0876  -1.9333  -1.9276  -1.7694  -1.6470
     1.3964   1.4624   1.5108   1.5606   1.7455   1.8231   1.8477   1.9253
     2.1282   2.2116   2.3707   2.3782   2.4241   2.5649

          k = 0.3327 0.5181 0.0000 ( 76259 PWs)   bands (ev):

   -57.9076 -57.9068 -57.8918 -57.8895 -57.4735 -57.4719 -34.4105 -34.4096
   -34.3640 -34.3604 -34.1648 -34.1633 -34.1327 -34.1316 -34.0951 -34.0942
   -34.0719 -34.0707 -33.8927 -33.8914 -33.8795 -33.8783 -33.6546 -33.6532
   -18.1788 -18.1253 -18.0661 -17.9599 -17.8858 -17.7808 -17.7302 -17.6230
   -17.3479 -17.3463 -16.9642 -16.9641  -5.7187  -5.7152  -5.6628  -5.6006
    -5.5256  -5.5042  -5.4370  -5.3464  -5.2633  -5.1705  -4.9724  -4.9363
    -4.5137  -4.3252  -4.1220  -4.0987  -3.9822  -3.7722  -3.6092  -3.5193
    -3.4531  -3.3586  -3.2291  -3.1398  -2.9094  -2.7923  -2.5859  -2.5597
    -2.4927  -2.4027  -2.1666  -2.1278  -2.0702  -1.8479  -1.7413  -1.7050
     1.1474   1.2977   1.5389   1.7975   1.8844   1.9060   2.0106   2.0451
     2.0958   2.1757   2.3436   2.4434   2.5033   2.6243

          k = 0.3327 0.6908 0.0000 ( 76319 PWs)   bands (ev):

   -57.8986 -57.8978 -57.8824 -57.8811 -57.4642 -57.4626 -34.5059 -34.5052
   -34.4587 -34.4572 -34.1302 -34.1291 -34.1090 -34.1082 -34.0885 -34.0879
   -34.0761 -34.0755 -33.9804 -33.9792 -33.8830 -33.8817 -33.6332 -33.6317
   -18.1832 -18.1769 -18.0276 -17.9961 -17.7489 -17.7040 -17.5860 -17.5229
   -17.3680 -17.3662 -16.8218 -16.8218  -6.0052  -5.9898  -5.8037  -5.7637
    -5.5510  -5.5155  -5.3132  -5.2629  -5.1435  -5.0269  -4.9542  -4.9085
    -4.6238  -4.4739  -4.2010  -4.1583  -3.8204  -3.7779  -3.6863  -3.5981
    -3.4344  -3.3323  -2.9447  -2.9309  -2.7001  -2.6892  -2.5667  -2.5147
    -2.4682  -2.3277  -2.1797  -2.1570  -2.0542  -2.0332  -1.8252  -1.7694
     1.0971   1.1764   1.4106   1.5440   1.7543   1.8195   2.1304   2.1393
     2.1959   2.2355   2.4230   2.4577   2.5973   2.6283

          k =-0.4990 0.0000 0.0000 ( 76438 PWs)   bands (ev):

   -57.9379 -57.9371 -57.9217 -57.9206 -57.5051 -57.5035 -34.2624 -34.2619
   -34.2202 -34.2195 -34.1238 -34.1232 -34.0869 -34.0866 -34.0656 -34.0648
   -34.0146 -34.0137 -33.9110 -33.9097 -33.7350 -33.7336 -33.5164 -33.5150
   -18.6263 -18.6256 -18.5097 -18.5094 -17.9887 -17.9887 -17.5999 -17.5995
   -17.4779 -17.4774 -16.8285 -16.8284  -6.5059  -6.5053  -6.1939  -6.1936
    -5.3259  -5.3254  -4.9656  -4.9650  -4.8500  -4.8497  -4.3526  -4.3524
    -4.3328  -4.3326  -4.2241  -4.2238  -3.8298  -3.8294  -3.7230  -3.7226
    -3.0590  -3.0587  -2.7807  -2.7800  -2.7577  -2.7574  -2.5071  -2.5069
    -2.4520  -2.4515  -1.9872  -1.9867  -1.9417  -1.9414  -1.8307  -1.8305
     0.9831   0.9836   1.3507   1.3515   1.6373   1.6381   1.9037   1.9044
     2.1351   2.1360   2.3148   2.3170   2.5965   2.5970

          k =-0.4990 0.1727 0.0000 ( 76384 PWs)   bands (ev):

   -57.9332 -57.9324 -57.9170 -57.9159 -57.5002 -57.4986 -34.2488 -34.2483
   -34.2077 -34.2070 -34.1309 -34.1309 -34.1138 -34.1137 -34.0832 -34.0829
   -34.0642 -34.0634 -33.9067 -33.9054 -33.7248 -33.7234 -33.5733 -33.5719
   -18.5253 -18.5246 -18.4107 -18.4104 -17.9216 -17.9216 -17.6145 -17.6142
   -17.5243 -17.5238 -16.8770 -16.8769  -6.3596  -6.3591  -6.0451  -6.0448
    -5.3015  -5.3010  -5.2398  -5.2394  -5.1355  -5.1351  -4.3582  -4.3580
    -4.2181  -4.2180  -3.9590  -3.9590  -3.6512  -3.6508  -3.4847  -3.4844
    -3.1735  -3.1733  -2.9868  -2.9867  -2.9665  -2.9662  -2.6884  -2.6878
    -2.4250  -2.4249  -2.2781  -2.2777  -1.9642  -1.9638  -1.7159  -1.7156
     1.1585   1.1590   1.5108   1.5115   1.6814   1.6822   1.8348   1.8354
     2.1108   2.1121   2.5406   2.5413   2.5729   2.5736

          k =-0.4990 0.3454 0.0000 ( 76352 PWs)   bands (ev):

   -57.9212 -57.9204 -57.9050 -57.9039 -57.4877 -57.4861 -34.2624 -34.2617
   -34.2205 -34.2199 -34.2039 -34.2034 -34.1706 -34.1701 -34.1014 -34.1009
   -34.0755 -34.0753 -33.8978 -33.8966 -33.7358 -33.7345 -33.6774 -33.6759
   -18.2724 -18.2716 -18.1801 -18.1800 -17.8869 -17.8869 -17.6641 -17.6637
   -17.4831 -17.4829 -16.9799 -16.9797  -5.9872  -5.9867  -5.6887  -5.6884
    -5.5871  -5.5869  -5.4189  -5.4186  -5.1975  -5.1974  -4.5490  -4.5489
    -4.1758  -4.1756  -3.9940  -3.9938  -3.6678  -3.6676  -3.4924  -3.4922
    -3.3535  -3.3531  -3.1613  -3.1613  -2.9347  -2.9343  -2.7943  -2.7939
    -2.4914  -2.4906  -2.1533  -2.1532  -1.9448  -1.9443  -1.8445  -1.8441
     1.5024   1.5031   1.6548   1.6550   1.7416   1.7422   1.8835   1.8840
     2.1273   2.1287   2.4081   2.4089   2.5242   2.5244

          k =-0.4990 0.5181 0.0000 ( 76318 PWs)   bands (ev):

   -57.9075 -57.9067 -57.8912 -57.8902 -57.4735 -57.4719 -34.4104 -34.4096
   -34.3626 -34.3617 -34.1653 -34.1649 -34.1330 -34.1325 -34.0949 -34.0944
   -34.0709 -34.0707 -33.8928 -33.8915 -33.8795 -33.8782 -33.6547 -33.6533
   -18.1225 -18.1217 -18.0074 -18.0069 -17.8539 -17.8536 -17.6793 -17.6793
   -17.3597 -17.3595 -16.9621 -16.9619  -5.7565  -5.7563  -5.6731  -5.6728
    -5.5444  -5.5441  -5.4504  -5.4500  -5.2795  -5.2795  -4.8691  -4.8690
    -4.4305  -4.4303  -4.1334  -4.1332  -3.8047  -3.8045  -3.5999  -3.5997
    -3.3735  -3.3732  -3.0684  -3.0677  -2.8497  -2.8490  -2.5462  -2.5460
    -2.2946  -2.2944  -2.1013  -2.1012  -2.0367  -2.0366  -1.7712  -1.7710
     1.3668   1.3670   1.6360   1.6363   1.8687   1.8690   1.9876   1.9880
     2.1222   2.1227   2.3141   2.3148   2.5643   2.5648

          k =-0.4990 0.6908 0.0000 ( 76294 PWs)   bands (ev):

   -57.8986 -57.8977 -57.8823 -57.8812 -57.4642 -57.4626 -34.5059 -34.5051
   -34.4583 -34.4574 -34.1303 -34.1297 -34.1090 -34.1086 -34.0887 -34.0884
   -34.0759 -34.0756 -33.9804 -33.9792 -33.8832 -33.8819 -33.6333 -33.6319
   -18.1850 -18.1843 -18.0181 -18.0176 -17.7091 -17.7087 -17.5492 -17.5491
   -17.3803 -17.3802 -16.8138 -16.8138  -6.0082  -6.0079  -5.8674  -5.8674
    -5.6369  -5.6369  -5.3268  -5.3266  -5.0681  -5.0681  -4.8855  -4.8852
    -4.4678  -4.4676  -4.3340  -4.3340  -3.8170  -3.8169  -3.6034  -3.6030
    -3.4692  -3.4692  -2.9165  -2.9164  -2.6023  -2.6019  -2.5144  -2.5139
    -2.1956  -2.1955  -2.1124  -2.1122  -1.9205  -1.9203  -1.7342  -1.7339
     1.0923   1.0928   1.4407   1.4411   1.7489   1.7492   2.1486   2.1493
     2.2177   2.2185   2.4078   2.4088   2.6244   2.6254

     the Fermi energy is    -0.1148 ev

!    total energy              =   -1077.87017223 Ry
     estimated scf accuracy    <       0.00000063 Ry
     smearing contrib. (-TS)   =      -0.00000000 Ry
     internal energy E=F+TS    =   -1077.87017223 Ry

     The total energy is F=E-TS. E is the sum of the following terms:
     one-electron contribution =  -25600.68433567 Ry
     hartree contribution      =   12814.81131836 Ry
     xc contribution           =    -170.14119085 Ry
     ewald contribution        =   11878.14403593 Ry

     convergence has been achieved in   8 iterations

     Forces acting on atoms (cartesian axes, Ry/au):

     atom    1 type  1   force =     0.04387999    0.00000000    0.01914394
     atom    2 type  1   force =     0.02730931    0.00000000   -0.01003666
     atom    3 type  1   force =     0.00587287    0.00000000    0.00102607
     atom    4 type  1   force =     0.00586298    0.00000000   -0.00108932
     atom    5 type  1   force =     0.02729575    0.00000000    0.01012985
     atom    6 type  1   force =     0.04372152    0.00000000   -0.01923919
     atom    7 type  2   force =    -0.03154002    0.00000000   -0.01198426
     atom    8 type  2   force =    -0.00384750    0.00000000   -0.00064970
     atom    9 type  2   force =    -0.00698042    0.00000000   -0.00310207
     atom   10 type  2   force =    -0.00344157    0.00000000   -0.00036085
     atom   11 type  2   force =    -0.02808384    0.00000000   -0.01021470
     atom   12 type  2   force =    -0.00304650    0.00000000   -0.00169634
     atom   13 type  2   force =    -0.00357359    0.00000000    0.00024218
     atom   14 type  2   force =    -0.00701900    0.00000000    0.00337775
     atom   15 type  2   force =    -0.00299372    0.00000000    0.00162179
     atom   16 type  2   force =    -0.02793874    0.00000000    0.01006797
     atom   17 type  2   force =    -0.03140903    0.00000000    0.01180849
     atom   18 type  2   force =    -0.00406850    0.00000000    0.00095507

     Total force =     0.102852     Total SCF correction =     0.003469


     Computing stress (Cartesian axis) and pressure

          total   stress  (Ry/bohr**3)                   (kbar)     P=        9.26
   0.00008984   0.00000000   0.00000011           13.22        0.00        0.02
   0.00000000   0.00002848   0.00000000            0.00        4.19        0.00
   0.00000011   0.00000000   0.00007050            0.02        0.00       10.37

     Energy error            =      1.8E-02 Ry
     Gradient error          =      4.4E-02 Ry/Bohr
     Cell gradient error     =      1.3E+01 kbar

     number of scf cycles    =   2
     number of bfgs steps    =   1

     enthalpy           old  =   -1077.8518620667 Ry
     enthalpy           new  =   -1077.8701722330 Ry

     CASE: enthalpy          _new < enthalpy          _old

     new trust radius        =       0.0872323337 bohr
     new conv_thr            =       0.0000004388 Ry

     new unit-cell volume =   3461.95991 a.u.^3 (   513.00953 Ang^3 )
     density =      1.55107 g/cm^3

CELL_PARAMETERS (angstrom)
   4.622973837   0.000000000   0.000000000
   0.000000000   2.960924694   0.000000000
   0.000000000   0.000000000  37.478019714

ATOMIC_POSITIONS (angstrom)
Ti               0.1611076925        0.0000000000       14.6073494706
Ti               2.3501386565        1.4804622591       16.8769463460
Ti               0.0074555118        0.0000000000       19.1885547957
Ti               2.3189247951        1.4804622591       21.4830795660
Ti               0.0386342112        0.0000000000       23.7949348417
Ti               2.4724214582        1.4804622591       26.0642085942
O                0.8056674610        1.4804623471       13.6999408221
O                1.3857209448        0.0000000000       15.9768623533
O                3.2042910404        0.0000000000       17.7831955208
O                0.8984275571        1.4804623471       18.2904705635
O                3.6533421532        1.4804623471       15.4732595168
O                1.4029674368        0.0000000000       20.5828746557
O                3.2097330355        0.0000000000       22.3810125672
O                0.8927342434        1.4804623471       22.8892431767
O                3.7144934508        1.4804623471       20.0884762801
O                1.3420213675        0.0000000000       25.1977668670
O                3.1173033215        0.0000000000       26.9710242258
O                3.6969169608        1.4804623471       24.6956480808



     Writing config-only to output data dir ./Out/pwscf.save/
     NEW-OLD atomic charge density approx. for the potential

     negative rho (up, down):  5.954E-04 0.000E+00

     total cpu time spent up to now is      122.7 secs

     Self-consistent Calculation

     iteration #  1     ecut=   120.00 Ry     beta= 0.40
     Davidson diagonalization with overlap
     c_bands:  1 eigenvalues not converged
     c_bands:  1 eigenvalues not converged
     c_bands:  1 eigenvalues not converged
     c_bands:  1 eigenvalues not converged
     c_bands:  1 eigenvalues not converged
     c_bands:  1 eigenvalues not converged
     c_bands:  2 eigenvalues not converged
     c_bands:  2 eigenvalues not converged
     ethr =  1.00E-06,  avg # of iterations = 14.9

     negative rho (up, down):  2.586E-04 0.000E+00

     total cpu time spent up to now is      131.8 secs

     total energy              =   -1077.88546354 Ry
     estimated scf accuracy    <       0.00320832 Ry

     iteration #  2     ecut=   120.00 Ry     beta= 0.40
     Davidson diagonalization with overlap
     c_bands:  1 eigenvalues not converged
     c_bands:  4 eigenvalues not converged
     ethr =  2.23E-06,  avg # of iterations =  9.5

     negative rho (up, down):  1.206E-04 0.000E+00

     total cpu time spent up to now is      136.4 secs

     total energy              =   -1077.88551238 Ry
     estimated scf accuracy    <       0.00094868 Ry

     iteration #  3     ecut=   120.00 Ry     beta= 0.40
     Davidson diagonalization with overlap
     ethr =  6.59E-07,  avg # of iterations =  7.8

     negative rho (up, down):  4.867E-05 0.000E+00

     total cpu time spent up to now is      140.7 secs

     total energy              =   -1077.88560554 Ry
     estimated scf accuracy    <       0.00060359 Ry

     iteration #  4     ecut=   120.00 Ry     beta= 0.40
     Davidson diagonalization with overlap
     ethr =  4.19E-07,  avg # of iterations =  2.0

     negative rho (up, down):  2.748E-05 0.000E+00

     total cpu time spent up to now is      143.9 secs

     total energy              =   -1077.88569240 Ry
     estimated scf accuracy    <       0.00006751 Ry

     iteration #  5     ecut=   120.00 Ry     beta= 0.40
     Davidson diagonalization with overlap
     ethr =  4.69E-08,  avg # of iterations =  5.5

     negative rho (up, down):  1.017E-05 0.000E+00

     total cpu time spent up to now is      147.8 secs

     total energy              =   -1077.88570937 Ry
     estimated scf accuracy    <       0.00001407 Ry

     iteration #  6     ecut=   120.00 Ry     beta= 0.40
     Davidson diagonalization with overlap
     ethr =  9.77E-09,  avg # of iterations =  4.7

     negative rho (up, down):  2.458E-06 0.000E+00

     total cpu time spent up to now is      151.6 secs

     total energy              =   -1077.88571186 Ry
     estimated scf accuracy    <       0.00000274 Ry

     iteration #  7     ecut=   120.00 Ry     beta= 0.40
     Davidson diagonalization with overlap
     ethr =  1.91E-09,  avg # of iterations =  6.0

     total cpu time spent up to now is      155.6 secs

     End of self-consistent calculation

          k = 0.0000 0.0000 0.0000 ( 76179 PWs)   bands (ev):

   -58.0439 -58.0434 -58.0045 -57.9961 -57.5341 -57.5311 -34.3606 -34.3598
   -34.2938 -34.2917 -34.2150 -34.2126 -34.1821 -34.1817 -34.1780 -34.1775
   -34.0966 -34.0800 -33.9668 -33.9646 -33.7746 -33.7718 -33.5597 -33.5570
   -19.2106 -19.0047 -18.6041 -18.1887 -17.9718 -17.9482 -17.7358 -17.6757
   -17.4819 -17.4438 -16.9195 -16.9141  -6.7646  -6.5082  -6.2492  -6.1937
    -5.8510  -5.4606  -5.3982  -5.3064  -5.0695  -5.0640  -4.8467  -4.8442
    -4.6048  -4.4012  -4.4009  -4.2417  -4.0855  -3.9141  -3.8103  -3.5881
    -3.1603  -3.1131  -3.0837  -2.7937  -2.7055  -2.6906  -2.6749  -2.2977
    -2.1340  -2.0865  -1.9702  -1.8868  -1.8044  -1.6307  -1.4204  -1.2261
     0.8603   0.9967   1.3049   1.3298   1.4426   1.5039   1.5617   1.7241
     1.7432   1.7953   2.1811   2.2665   2.3117   2.4368

          k = 0.0000 0.1725 0.0000 ( 76281 PWs)   bands (ev):

   -58.0392 -58.0387 -57.9996 -57.9917 -57.5292 -57.5262 -34.3475 -34.3466
   -34.2828 -34.2796 -34.2359 -34.2336 -34.2119 -34.2093 -34.1780 -34.1776
   -34.1456 -34.1317 -33.9624 -33.9602 -33.7653 -33.7625 -33.6160 -33.6133
   -19.0873 -18.8925 -18.5151 -18.1159 -17.9177 -17.8761 -17.7385 -17.6985
   -17.5311 -17.4951 -16.9662 -16.9615  -6.5948  -6.3613  -6.1062  -6.0479
    -5.7303  -5.4071  -5.3654  -5.3087  -5.2408  -5.2178  -5.0568  -4.8963
    -4.4164  -4.3453  -4.2945  -4.1156  -3.9540  -3.7655  -3.7395  -3.6020
    -3.5402  -3.2335  -3.1933  -2.9859  -2.9304  -2.6725  -2.6374  -2.5950
    -2.4511  -2.2906  -2.1119  -1.8712  -1.8329  -1.6333  -1.4631  -1.2762
     1.0726   1.1354   1.3233   1.4683   1.4801   1.5029   1.6540   1.7476
     1.7785   1.8060   2.0751   2.1585   2.2371   2.6432

          k = 0.0000 0.3450 0.0000 ( 76251 PWs)   bands (ev):

   -58.0272 -58.0267 -57.9872 -57.9807 -57.5168 -57.5138 -34.3720 -34.3706
   -34.3161 -34.3099 -34.2866 -34.2806 -34.2474 -34.2468 -34.1917 -34.1890
   -34.1692 -34.1691 -33.9529 -33.9507 -33.7825 -33.7799 -33.7148 -33.7120
   -18.7605 -18.6048 -18.3274 -18.0528 -17.8461 -17.8316 -17.7184 -17.6608
   -17.5386 -17.5271 -17.0747 -17.0724  -6.1485  -5.9944  -5.7536  -5.7180
    -5.5138  -5.4279  -5.3631  -5.3104  -5.2236  -5.1949  -5.1735  -4.8455
    -4.5671  -4.5195  -4.3604  -4.1242  -4.0050  -3.9457  -3.9218  -3.7211
    -3.6807  -3.4650  -3.3995  -3.1435  -3.1054  -2.7902  -2.7586  -2.6889
    -2.5271  -2.4799  -2.2488  -2.1394  -2.0117  -1.7859  -1.6132  -1.5086
     1.1829   1.2472   1.4128   1.4157   1.4704   1.7240   1.7840   1.8701
     1.9231   2.0384   2.1901   2.3253   2.3497   2.6137

          k = 0.0000 0.5175 0.0000 ( 76270 PWs)   bands (ev):

   -58.0135 -58.0131 -57.9728 -57.9684 -57.5026 -57.4996 -34.5190 -34.5184
   -34.4358 -34.4275 -34.2689 -34.2679 -34.2122 -34.2119 -34.1843 -34.1832
   -34.1616 -34.1610 -33.9477 -33.9454 -33.9244 -33.9220 -33.6948 -33.6919
   -18.3481 -18.2889 -18.2595 -18.1591 -17.8867 -17.7779 -17.7262 -17.6838
   -17.3764 -17.3731 -17.1092 -17.1078  -5.6624  -5.6519  -5.6260  -5.6051
    -5.5170  -5.4322  -5.3922  -5.3754  -5.1891  -5.1421  -5.0965  -4.9223
    -4.6942  -4.6148  -4.5222  -4.3036  -4.2409  -4.0249  -3.8970  -3.6607
    -3.5372  -3.5352  -3.4327  -3.2359  -3.0736  -2.8782  -2.7723  -2.6885
    -2.6478  -2.6263  -2.3655  -2.2263  -2.2250  -2.0524  -1.9315  -1.9116
     1.0718   1.1351   1.2744   1.4884   1.6936   1.7951   2.0115   2.0167
     2.1247   2.3780   2.4228   2.4612   2.5733   2.6357

          k = 0.0000 0.6901 0.0000 ( 76376 PWs)   bands (ev):

   -58.0046 -58.0041 -57.9629 -57.9609 -57.4934 -57.4904 -34.6137 -34.6132
   -34.5274 -34.5244 -34.2394 -34.2388 -34.1902 -34.1891 -34.1786 -34.1781
   -34.1587 -34.1575 -34.0284 -34.0259 -33.9360 -33.9338 -33.6745 -33.6716
   -18.3006 -18.2859 -18.0861 -18.0488 -17.9422 -17.8132 -17.6338 -17.6256
   -17.3886 -17.3746 -16.9872 -16.9857  -6.0636  -6.0192  -5.7979  -5.7175
    -5.3678  -5.3518  -5.2648  -5.1773  -5.1160  -5.0091  -4.9988  -4.9817
    -4.5547  -4.4613  -4.2823  -4.2714  -3.9554  -3.8695  -3.8038  -3.7403
    -3.6828  -3.5150  -3.4010  -3.2941  -3.0468  -2.9670  -2.8254  -2.7901
    -2.6537  -2.6151  -2.6031  -2.4672  -2.3186  -2.2937  -2.1700  -2.0070
     0.9312   1.1143   1.3373   1.5759   1.7461   1.9500   1.9967   2.1074
     2.1098   2.1912   2.5208   2.5230   2.6525   2.6839

          k = 0.1657 0.0000 0.0000 ( 76264 PWs)   bands (ev):

   -58.0438 -58.0433 -58.0040 -57.9967 -57.5341 -57.5311 -34.3619 -34.3614
   -34.2949 -34.2941 -34.2141 -34.2134 -34.1812 -34.1799 -34.1778 -34.1773
   -34.0956 -34.0813 -33.9667 -33.9645 -33.7745 -33.7717 -33.5597 -33.5570
   -19.1303 -18.9610 -18.6082 -18.2311 -17.9676 -17.9503 -17.7343 -17.7215
   -17.4918 -17.4703 -16.9312 -16.9283  -6.6936  -6.5678  -6.2374  -6.1854
    -5.6938  -5.3935  -5.3668  -5.2433  -5.0776  -5.0739  -4.8581  -4.8501
    -4.5999  -4.4060  -4.4053  -4.1933  -4.0572  -3.8937  -3.7361  -3.4911
    -3.1406  -3.1233  -3.0639  -2.8628  -2.7240  -2.6746  -2.6342  -2.3171
    -2.2467  -2.1223  -2.1085  -2.0259  -1.9708  -1.8238  -1.5591  -1.3378
     0.8880   0.9571   1.2715   1.3701   1.5102   1.5684   1.6086   1.7028
     1.8426   1.8757   2.2445   2.2648   2.2865   2.4295

          k = 0.1657 0.1725 0.0000 ( 76282 PWs)   bands (ev):

   -58.0391 -58.0386 -57.9992 -57.9923 -57.5292 -57.5262 -34.3487 -34.3481
   -34.2832 -34.2825 -34.2350 -34.2343 -34.2109 -34.2101 -34.1773 -34.1756
   -34.1449 -34.1327 -33.9623 -33.9601 -33.7653 -33.7625 -33.6160 -33.6133
   -19.0110 -18.8507 -18.5174 -18.1563 -17.9089 -17.8738 -17.7478 -17.7373
   -17.5440 -17.5186 -16.9772 -16.9746  -6.5344  -6.4198  -6.0931  -6.0418
    -5.6275  -5.4313  -5.3468  -5.2827  -5.2446  -5.1845  -5.0143  -4.8495
    -4.3926  -4.3507  -4.2730  -4.0438  -3.9616  -3.8011  -3.7087  -3.5184
    -3.4319  -3.3254  -3.2300  -2.9550  -2.8965  -2.6985  -2.6574  -2.5236
    -2.4779  -2.4121  -2.1686  -2.0299  -1.9267  -1.7863  -1.5998  -1.3956
     1.0786   1.1063   1.3644   1.4579   1.5081   1.5159   1.7086   1.7356
     1.8413   1.9245   2.0935   2.1534   2.3017   2.6455

          k = 0.1657 0.3450 0.0000 ( 76223 PWs)   bands (ev):

   -58.0271 -58.0267 -57.9869 -57.9812 -57.5168 -57.5138 -34.3714 -34.3710
   -34.3163 -34.3116 -34.2860 -34.2817 -34.2486 -34.2481 -34.1912 -34.1895
   -34.1684 -34.1676 -33.9529 -33.9507 -33.7826 -33.7799 -33.7147 -33.7119
   -18.6986 -18.5688 -18.3211 -18.0707 -17.8625 -17.8415 -17.7147 -17.6984
   -17.5512 -17.5325 -17.0834 -17.0819  -6.1251  -6.0407  -5.7765  -5.6936
    -5.5682  -5.5643  -5.3827  -5.3688  -5.2485  -5.1906  -4.8871  -4.6787
    -4.6697  -4.4681  -4.2395  -4.1983  -4.0042  -3.9627  -3.8746  -3.6777
    -3.5969  -3.4605  -3.4416  -3.1303  -3.1151  -2.8278  -2.7244  -2.7081
    -2.5695  -2.4524  -2.2695  -2.1215  -2.0536  -1.8883  -1.6826  -1.5632
     1.1742   1.2698   1.3945   1.4130   1.5467   1.7232   1.8040   1.8792
     2.0194   2.0392   2.2074   2.2715   2.3760   2.5795

          k = 0.1657 0.5175 0.0000 ( 76310 PWs)   bands (ev):

   -58.0135 -58.0130 -57.9726 -57.9687 -57.5026 -57.4996 -34.5188 -34.5184
   -34.4352 -34.4282 -34.2696 -34.2686 -34.2134 -34.2128 -34.1843 -34.1832
   -34.1610 -34.1602 -33.9478 -33.9455 -33.9244 -33.9219 -33.6949 -33.6921
   -18.3280 -18.2822 -18.2425 -18.1317 -17.8660 -17.8380 -17.7541 -17.6676
   -17.3856 -17.3843 -17.1071 -17.1057  -5.7151  -5.7086  -5.6425  -5.6280
    -5.5486  -5.4762  -5.4391  -5.3739  -5.2791  -5.2784  -5.1481  -4.9586
    -4.6540  -4.4703  -4.3504  -4.2019  -4.1798  -3.9683  -3.9059  -3.7125
    -3.5521  -3.5243  -3.3675  -3.2134  -3.1200  -2.8465  -2.7483  -2.6863
    -2.6452  -2.5958  -2.3105  -2.2492  -2.2213  -1.9644  -1.9023  -1.8711
     1.0938   1.1349   1.2504   1.5983   1.7455   1.7931   2.0089   2.0482
     2.1616   2.1943   2.3907   2.3951   2.4617   2.6324

          k = 0.1657 0.6901 0.0000 ( 76348 PWs)   bands (ev):

   -58.0046 -58.0041 -57.9629 -57.9609 -57.4934 -57.4903 -34.6136 -34.6131
   -34.5271 -34.5246 -34.2397 -34.2392 -34.1906 -34.1897 -34.1786 -34.1781
   -34.1587 -34.1575 -34.0284 -34.0259 -33.9362 -33.9340 -33.6746 -33.6718
   -18.3062 -18.2982 -18.0777 -18.0592 -17.8789 -17.8506 -17.6393 -17.6067
   -17.3987 -17.3885 -16.9783 -16.9769  -6.0675  -6.0405  -5.8144  -5.7511
    -5.3981  -5.3922  -5.3083  -5.2677  -5.2583  -5.1274  -5.0538  -5.0097
    -4.7007  -4.5448  -4.1964  -4.1892  -3.9138  -3.8662  -3.7734  -3.6295
    -3.5296  -3.4552  -3.3935  -3.2587  -2.9424  -2.8449  -2.7711  -2.7623
    -2.6537  -2.5816  -2.5324  -2.3700  -2.2938  -2.2920  -2.1028  -1.9625
     1.0059   1.1085   1.4228   1.4503   1.8541   1.9502   1.9785   2.0033
     2.1090   2.1813   2.4727   2.5086   2.5265   2.6177

          k = 0.3315 0.0000 0.0000 ( 76372 PWs)   bands (ev):

   -58.0436 -58.0431 -58.0027 -57.9983 -57.5341 -57.5311 -34.3647 -34.3643
   -34.2988 -34.2967 -34.2151 -34.2125 -34.1787 -34.1773 -34.1771 -34.1769
   -34.0930 -34.0846 -33.9664 -33.9642 -33.7744 -33.7717 -33.5598 -33.5570
   -18.9189 -18.8523 -18.6173 -18.3503 -18.0172 -18.0038 -17.7559 -17.7342
   -17.5305 -17.4868 -16.9564 -16.9554  -6.6114  -6.5923  -6.3002  -6.1787
    -5.4064  -5.3655  -5.1174  -5.0940  -5.0934  -4.8786  -4.8769  -4.8651
    -4.4143  -4.4138  -4.4094  -4.1484  -4.0543  -3.8858  -3.5307  -3.4750
    -3.3637  -3.0572  -2.9666  -2.9419  -2.8379  -2.8016  -2.6234  -2.5555
    -2.4228  -2.3833  -2.2254  -2.1048  -2.0979  -2.0804  -1.8076  -1.6345
     0.9045   0.9253   1.2289   1.3665   1.5238   1.5815   1.7886   1.8145
     2.0111   2.1861   2.2062   2.2211   2.3604   2.4376

          k = 0.3315 0.1725 0.0000 ( 76383 PWs)   bands (ev):

   -58.0389 -58.0384 -57.9980 -57.9938 -57.5292 -57.5262 -34.3513 -34.3509
   -34.2873 -34.2845 -34.2356 -34.2332 -34.2112 -34.2094 -34.1752 -34.1727
   -34.1427 -34.1354 -33.9621 -33.9599 -33.7653 -33.7625 -33.6160 -33.6133
   -18.8108 -18.7471 -18.5221 -18.2666 -17.9552 -17.9391 -17.7664 -17.7417
   -17.5766 -17.5351 -17.0009 -16.9999  -6.4637  -6.4465  -6.1530  -6.0340
    -5.4120  -5.3974  -5.3659  -5.2970  -5.2243  -5.1951  -4.7884  -4.5716
    -4.3689  -4.3515  -4.0996  -4.0171  -3.9398  -3.7760  -3.6192  -3.5321
    -3.4399  -3.3405  -3.1919  -2.9410  -2.9084  -2.8105  -2.7044  -2.6239
    -2.5149  -2.5030  -2.4052  -2.2917  -2.1335  -1.9961  -1.8006  -1.6327
     1.0608   1.0854   1.3848   1.5178   1.5444   1.5724   1.7157   1.7753
     2.0267   2.0742   2.1624   2.2385   2.4370   2.6239

          k = 0.3315 0.3450 0.0000 ( 76318 PWs)   bands (ev):

   -58.0270 -58.0265 -57.9859 -57.9824 -57.5168 -57.5138 -34.3717 -34.3704
   -34.3168 -34.3149 -34.2848 -34.2834 -34.2514 -34.2504 -34.1908 -34.1902
   -34.1667 -34.1649 -33.9529 -33.9507 -33.7827 -33.7800 -33.7147 -33.7119
   -18.5373 -18.4811 -18.3064 -18.1224 -17.9398 -17.8999 -17.7478 -17.7035
   -17.5561 -17.5495 -17.1012 -17.1002  -6.0834  -6.0794  -5.8187  -5.7096
    -5.6398  -5.6226  -5.4621  -5.4594  -5.2952  -5.2143  -4.6770  -4.6404
    -4.4254  -4.2693  -4.1816  -4.1297  -4.0031  -3.9587  -3.7279  -3.6096
    -3.5468  -3.4972  -3.3942  -3.1563  -3.0509  -2.8791  -2.7744  -2.7260
    -2.5316  -2.5105  -2.3615  -2.1621  -2.0982  -2.0884  -1.8615  -1.7336
     1.3049   1.3280   1.4090   1.4903   1.6362   1.7466   1.7674   1.8371
     2.0593   2.1326   2.2927   2.2944   2.3428   2.4919

          k = 0.3315 0.5175 0.0000 ( 76259 PWs)   bands (ev):

   -58.0134 -58.0130 -57.9719 -57.9694 -57.5026 -57.4996 -34.5187 -34.5182
   -34.4336 -34.4297 -34.2709 -34.2698 -34.2155 -34.2146 -34.1846 -34.1832
   -34.1601 -34.1585 -33.9481 -33.9457 -33.9242 -33.9218 -33.6951 -33.6923
   -18.2874 -18.2678 -18.1892 -18.0739 -17.9313 -17.8305 -17.8057 -17.6812
   -17.4067 -17.4059 -17.1034 -17.1020  -5.7937  -5.7875  -5.7447  -5.6903
    -5.6024  -5.6011  -5.5567  -5.4561  -5.3713  -5.2452  -5.0938  -5.0623
    -4.6168  -4.3970  -4.2251  -4.2081  -4.0669  -3.8607  -3.7069  -3.6311
    -3.5631  -3.4934  -3.3283  -3.2185  -3.0234  -2.8972  -2.6740  -2.6396
    -2.5813  -2.4827  -2.2620  -2.2610  -2.1908  -1.9280  -1.8775  -1.8489
     1.0883   1.2414   1.4428   1.7170   1.7849   1.7854   1.9286   1.9901
     2.0157   2.1192   2.2832   2.3493   2.4179   2.5213

          k = 0.3315 0.6901 0.0000 ( 76319 PWs)   bands (ev):

   -58.0046 -58.0041 -57.9627 -57.9611 -57.4934 -57.4903 -34.6134 -34.6130
   -34.5265 -34.5248 -34.2403 -34.2397 -34.1914 -34.1905 -34.1790 -34.1782
   -34.1587 -34.1574 -34.0284 -34.0259 -33.9365 -33.9343 -33.6750 -33.6721
   -18.3186 -18.3151 -18.0850 -18.0391 -17.8703 -17.8144 -17.6456 -17.5864
   -17.4200 -17.4158 -16.9618 -16.9604  -6.0804  -6.0713  -5.8979  -5.8592
    -5.6559  -5.6273  -5.4037  -5.3506  -5.2503  -5.1387  -5.0469  -5.0004
    -4.7262  -4.5984  -4.2971  -4.2152  -3.9044  -3.8578  -3.7818  -3.6698
    -3.5221  -3.4410  -3.0707  -3.0456  -2.8640  -2.7931  -2.6939  -2.6168
    -2.5472  -2.4310  -2.2861  -2.2739  -2.1484  -2.1413  -1.9524  -1.8853
     1.0287   1.1253   1.3770   1.5029   1.7596   1.8349   2.0108   2.0166
     2.1175   2.1602   2.3656   2.4123   2.4950   2.5675

          k =-0.4972 0.0000 0.0000 ( 76438 PWs)   bands (ev):

   -58.0434 -58.0430 -58.0013 -57.9999 -57.5341 -57.5311 -34.3661 -34.3658
   -34.2997 -34.2990 -34.2141 -34.2135 -34.1771 -34.1766 -34.1766 -34.1765
   -34.0896 -34.0883 -33.9662 -33.9641 -33.7744 -33.7716 -33.5598 -33.5570
   -18.7634 -18.7625 -18.5478 -18.5473 -18.0730 -18.0729 -17.7285 -17.7282
   -17.5221 -17.5215 -16.9696 -16.9687  -6.5957  -6.5951  -6.2549  -6.2545
    -5.3807  -5.3801  -5.1028  -5.1023  -4.8814  -4.8807  -4.4435  -4.4432
    -4.4179  -4.4177  -4.3324  -4.3317  -3.9468  -3.9465  -3.8383  -3.8376
    -3.1645  -3.1642  -2.9495  -2.9492  -2.9019  -2.9004  -2.5815  -2.5807
    -2.5647  -2.5644  -2.1050  -2.1046  -2.0825  -2.0817  -1.9643  -1.9641
     0.9073   0.9077   1.2807   1.2815   1.5581   1.5592   1.8314   1.8324
     2.1703   2.1722   2.3599   2.3633   2.5120   2.5128

          k =-0.4972 0.1725 0.0000 ( 76384 PWs)   bands (ev):

   -58.0388 -58.0383 -57.9967 -57.9952 -57.5292 -57.5262 -34.3526 -34.3523
   -34.2878 -34.2871 -34.2343 -34.2339 -34.2106 -34.2101 -34.1727 -34.1727
   -34.1398 -34.1386 -33.9620 -33.9598 -33.7653 -33.7625 -33.6160 -33.6133
   -18.6642 -18.6633 -18.4517 -18.4512 -18.0156 -18.0156 -17.7295 -17.7291
   -17.5691 -17.5684 -17.0133 -17.0123  -6.4502  -6.4495  -6.1090  -6.1086
    -5.3927  -5.3922  -5.3157  -5.3153  -5.1929  -5.1924  -4.4293  -4.4293
    -4.3280  -4.3277  -4.1008  -4.1007  -3.7876  -3.7875  -3.5967  -3.5966
    -3.3376  -3.3372  -3.1047  -3.1044  -3.0173  -3.0167  -2.7735  -2.7723
    -2.5486  -2.5485  -2.4142  -2.4135  -2.0697  -2.0690  -1.8337  -1.8333
     1.0615   1.0618   1.4396   1.4404   1.6031   1.6041   1.7543   1.7549
     2.0881   2.0907   2.4693   2.4700   2.5308   2.5324

          k =-0.4972 0.3450 0.0000 ( 76352 PWs)   bands (ev):

   -58.0269 -58.0264 -57.9849 -57.9834 -57.5168 -57.5138 -34.3712 -34.3708
   -34.3169 -34.3166 -34.2848 -34.2838 -34.2522 -34.2518 -34.1910 -34.1905
   -34.1647 -34.1646 -33.9529 -33.9507 -33.7827 -33.7801 -33.7146 -33.7118
   -18.4173 -18.4163 -18.2403 -18.2400 -17.9855 -17.9851 -17.7177 -17.7172
   -17.5584 -17.5580 -17.1102 -17.1091  -6.0795  -6.0789  -5.7666  -5.7661
    -5.6714  -5.6713  -5.4911  -5.4906  -5.2612  -5.2611  -4.7018  -4.7016
    -4.2745  -4.2743  -4.0920  -4.0912  -3.7993  -3.7989  -3.6236  -3.6234
    -3.4798  -3.4793  -3.2657  -3.2655  -3.0190  -3.0186  -2.8725  -2.8720
    -2.5628  -2.5617  -2.2593  -2.2589  -2.1141  -2.1139  -1.9078  -1.9075
     1.3653   1.3658   1.5616   1.5619   1.6505   1.6511   1.8114   1.8119
     2.0813   2.0834   2.3190   2.3202   2.4296   2.4298

          k =-0.4972 0.5175 0.0000 ( 76318 PWs)   bands (ev):

   -58.0134 -58.0129 -57.9714 -57.9700 -57.5026 -57.4996 -34.5186 -34.5181
   -34.4322 -34.4310 -34.2712 -34.2708 -34.2160 -34.2158 -34.1845 -34.1838
   -34.1587 -34.1583 -33.9482 -33.9459 -33.9242 -33.9217 -33.6952 -33.6924
   -18.2647 -18.2635 -18.1053 -18.1050 -17.9162 -17.9160 -17.7370 -17.7367
   -17.4176 -17.4174 -17.1016 -17.1002  -5.8268  -5.8267  -5.7562  -5.7559
    -5.6210  -5.6207  -5.5811  -5.5810  -5.3618  -5.3616  -5.0048  -5.0046
    -4.5171  -4.5170  -4.2334  -4.2330  -3.8855  -3.8851  -3.6914  -3.6907
    -3.4611  -3.4603  -3.2241  -3.2232  -2.9603  -2.9596  -2.6315  -2.6308
    -2.3720  -2.3711  -2.2451  -2.2444  -2.1289  -2.1284  -1.8915  -1.8913
     1.2882   1.2885   1.5728   1.5730   1.7377   1.7380   1.9467   1.9472
     2.0477   2.0485   2.2415   2.2432   2.4710   2.4723

          k =-0.4972 0.6901 0.0000 ( 76294 PWs)   bands (ev):

   -58.0046 -58.0041 -57.9626 -57.9612 -57.4934 -57.4903 -34.6133 -34.6129
   -34.5262 -34.5250 -34.2405 -34.2400 -34.1917 -34.1909 -34.1791 -34.1787
   -34.1585 -34.1574 -34.0284 -34.0259 -33.9366 -33.9344 -33.6751 -33.6723
   -18.3234 -18.3225 -18.0644 -18.0637 -17.8310 -17.8309 -17.6075 -17.6073
   -17.4307 -17.4307 -16.9541 -16.9527  -6.0780  -6.0777  -5.9553  -5.9553
    -5.7497  -5.7496  -5.4178  -5.4176  -5.1832  -5.1831  -4.9945  -4.9944
    -4.5610  -4.5606  -4.4115  -4.4114  -3.8899  -3.8897  -3.6808  -3.6804
    -3.5605  -3.5601  -3.0057  -3.0054  -2.7584  -2.7576  -2.6672  -2.6668
    -2.3293  -2.3279  -2.1889  -2.1886  -2.0238  -2.0236  -1.8650  -1.8648
     1.0275   1.0283   1.4072   1.4077   1.8021   1.8029   2.0219   2.0222
     2.1425   2.1436   2.3432   2.3448   2.5379   2.5394

     the Fermi energy is    -0.1976 ev

!    total energy              =   -1077.88571246 Ry
     estimated scf accuracy    <       0.00000038 Ry
     smearing contrib. (-TS)   =      -0.00000000 Ry
     internal energy E=F+TS    =   -1077.88571246 Ry

     The total energy is F=E-TS. E is the sum of the following terms:
     one-electron contribution =  -25487.16324526 Ry
     hartree contribution      =   12757.53409073 Ry
     xc contribution           =    -170.15435065 Ry
     ewald contribution        =   11821.89779271 Ry

     convergence has been achieved in   7 iterations

     Forces acting on atoms (cartesian axes, Ry/au):

     atom    1 type  1   force =     0.01046705    0.00000000    0.00781659
     atom    2 type  1   force =     0.02665034    0.00000000   -0.00599955
     atom    3 type  1   force =     0.01051189    0.00000000    0.00182949
     atom    4 type  1   force =     0.01050526    0.00000000   -0.00193136
     atom    5 type  1   force =     0.02660348    0.00000000    0.00612841
     atom    6 type  1   force =     0.01028342    0.00000000   -0.00765644
     atom    7 type  2   force =    -0.02088351    0.00000000   -0.01267553
     atom    8 type  2   force =     0.00498733    0.00000000    0.00970707
     atom    9 type  2   force =    -0.00599362    0.00000000   -0.00322324
     atom   10 type  2   force =    -0.00526866    0.00000000   -0.00105156
     atom   11 type  2   force =    -0.01700515    0.00000000   -0.00884096
     atom   12 type  2   force =    -0.00310798    0.00000000   -0.00045515
     atom   13 type  2   force =    -0.00547054    0.00000000    0.00100862
     atom   14 type  2   force =    -0.00616318    0.00000000    0.00350798
     atom   15 type  2   force =    -0.00297810    0.00000000    0.00052530
     atom   16 type  2   force =    -0.01729386    0.00000000    0.00934017
     atom   17 type  2   force =    -0.02087607    0.00000000    0.01172163
     atom   18 type  2   force =     0.00503191    0.00000000   -0.00975148

     Total force =     0.066280     Total SCF correction =     0.002375


     Computing stress (Cartesian axis) and pressure

          total   stress  (Ry/bohr**3)                   (kbar)     P=        9.43
   0.00009297   0.00000000   0.00000008           13.68        0.00        0.01
   0.00000000   0.00002454   0.00000000            0.00        3.61        0.00
   0.00000008   0.00000000   0.00007483            0.01        0.00       11.01

     Energy error            =      1.6E-02 Ry
     Gradient error          =      2.7E-02 Ry/Bohr
     Cell gradient error     =      1.4E+01 kbar

     number of scf cycles    =   3
     number of bfgs steps    =   2

     enthalpy           old  =   -1077.8701722330 Ry
     enthalpy           new  =   -1077.8857124623 Ry

     CASE: enthalpy          _new < enthalpy          _old

     new trust radius        =       0.1095289086 bohr
     new conv_thr            =       0.0000002665 Ry

     new unit-cell volume =   3496.23135 a.u.^3 (   518.08803 Ang^3 )
     density =      1.53587 g/cm^3

CELL_PARAMETERS (angstrom)
   4.659117549   0.000000000   0.000000000
   0.000000000   2.967039026   0.000000000
   0.000000000   0.000000000  37.478019714

ATOMIC_POSITIONS (angstrom)
Ti               0.2162350517        0.0000000000       14.6297658614
Ti               2.4177435684        1.4835194249       16.8640201511
Ti               0.0232030921        0.0000000000       19.1911691802
Ti               2.3527125989        1.4835194249       21.4803576341
Ti               0.0881103379        0.0000000000       23.8081528301
Ti               2.5453153847        1.4835194249       26.0419516804
O                0.7605525702        1.4835195131       13.6794483107
O                1.3964178985        0.0000000000       15.9840871253
O                3.2178274149        0.0000000000       17.7776722307
O                0.8971239818        1.4835195131       18.2892391915
O                3.6408508530        1.4835195131       15.4548707925
O                1.4081097500        0.0000000000       20.5809286446
O                3.2261614352        0.0000000000       22.3820962081
O                0.8879953253        1.4835195131       22.8953103022
O                3.7378984420        1.4835195131       20.0904199077
O                1.3111750107        0.0000000000       25.2165132333
O                3.0903082024        0.0000000000       26.9901949036
O                3.7256382010        1.4835195131       24.6886500562



     Writing config-only to output data dir ./Out/pwscf.save/
     NEW-OLD atomic charge density approx. for the potential

     negative rho (up, down):  8.601E-04 0.000E+00

     total cpu time spent up to now is      161.5 secs

     Self-consistent Calculation

     iteration #  1     ecut=   120.00 Ry     beta= 0.40
     Davidson diagonalization with overlap
     c_bands:  1 eigenvalues not converged
     c_bands:  2 eigenvalues not converged
     c_bands:  1 eigenvalues not converged
     c_bands:  1 eigenvalues not converged
     c_bands:  1 eigenvalues not converged
     c_bands:  1 eigenvalues not converged
     c_bands:  1 eigenvalues not converged
     c_bands:  1 eigenvalues not converged
     c_bands:  4 eigenvalues not converged
     c_bands:  2 eigenvalues not converged
     ethr =  1.00E-06,  avg # of iterations = 17.6

     negative rho (up, down):  3.564E-04 0.000E+00

     total cpu time spent up to now is      172.0 secs

     total energy              =   -1077.89652320 Ry
     estimated scf accuracy    <       0.00819346 Ry

     iteration #  2     ecut=   120.00 Ry     beta= 0.40
     Davidson diagonalization with overlap
     ethr =  5.69E-06,  avg # of iterations =  2.5

     negative rho (up, down):  1.496E-04 0.000E+00

     total cpu time spent up to now is      175.4 secs

     total energy              =   -1077.89673915 Ry
     estimated scf accuracy    <       0.00219765 Ry

     iteration #  3     ecut=   120.00 Ry     beta= 0.40
     Davidson diagonalization with overlap
     ethr =  1.53E-06,  avg # of iterations =  8.2

     negative rho (up, down):  6.272E-05 0.000E+00

     total cpu time spent up to now is      179.9 secs

     total energy              =   -1077.89691912 Ry
     estimated scf accuracy    <       0.00153795 Ry

     iteration #  4     ecut=   120.00 Ry     beta= 0.40
     Davidson diagonalization with overlap
     ethr =  1.07E-06,  avg # of iterations =  7.3

     negative rho (up, down):  3.053E-05 0.000E+00

     total cpu time spent up to now is      184.1 secs

     total energy              =   -1077.89716870 Ry
     estimated scf accuracy    <       0.00014417 Ry

     iteration #  5     ecut=   120.00 Ry     beta= 0.40
     Davidson diagonalization with overlap
     ethr =  1.00E-07,  avg # of iterations =  2.5

     negative rho (up, down):  6.269E-06 0.000E+00

     total cpu time spent up to now is      187.6 secs

     total energy              =   -1077.89719564 Ry
     estimated scf accuracy    <       0.00002028 Ry

     iteration #  6     ecut=   120.00 Ry     beta= 0.40
     Davidson diagonalization with overlap
     ethr =  1.41E-08,  avg # of iterations =  6.1

     negative rho (up, down):  1.996E-06 0.000E+00

     total cpu time spent up to now is      191.6 secs

     total energy              =   -1077.89719941 Ry
     estimated scf accuracy    <       0.00000375 Ry

     iteration #  7     ecut=   120.00 Ry     beta= 0.40
     Davidson diagonalization with overlap
     ethr =  2.60E-09,  avg # of iterations =  5.5

     negative rho (up, down):  5.712E-07 0.000E+00

     total cpu time spent up to now is      195.8 secs

     total energy              =   -1077.89720063 Ry
     estimated scf accuracy    <       0.00000330 Ry

     iteration #  8     ecut=   120.00 Ry     beta= 0.40
     Davidson diagonalization with overlap
     ethr =  2.29E-09,  avg # of iterations =  2.7

     negative rho (up, down):  1.774E-07 0.000E+00

     total cpu time spent up to now is      199.2 secs

     total energy              =   -1077.89720060 Ry
     estimated scf accuracy    <       0.00000071 Ry

     iteration #  9     ecut=   120.00 Ry     beta= 0.40
     Davidson diagonalization with overlap
     ethr =  4.90E-10,  avg # of iterations =  5.8

     negative rho (up, down):  9.816E-08 0.000E+00

     total cpu time spent up to now is      203.4 secs

     total energy              =   -1077.89720091 Ry
     estimated scf accuracy    <       0.00000064 Ry

     iteration # 10     ecut=   120.00 Ry     beta= 0.40
     Davidson diagonalization with overlap
     ethr =  4.42E-10,  avg # of iterations =  1.2

     total cpu time spent up to now is      206.5 secs

     total energy              =   -1077.89720082 Ry
     estimated scf accuracy    <       0.00000031 Ry

     iteration # 11     ecut=   120.00 Ry     beta= 0.40
     Davidson diagonalization with overlap
     ethr =  2.14E-10,  avg # of iterations =  5.7

     total cpu time spent up to now is      210.4 secs

     End of self-consistent calculation

          k = 0.0000 0.0000 0.0000 ( 76179 PWs)   bands (ev):

   -58.1421 -58.1400 -58.0892 -58.0811 -57.6581 -57.6543 -34.4700 -34.4680
   -34.3728 -34.3698 -34.3184 -34.3160 -34.2822 -34.2802 -34.2751 -34.2712
   -34.1743 -34.1583 -34.1120 -34.1092 -33.9073 -33.9042 -33.6998 -33.6969
   -19.2944 -19.1441 -18.6899 -18.2344 -18.1113 -18.1006 -17.8874 -17.8423
   -17.5084 -17.4986 -17.1606 -17.1512  -6.8577  -6.6421  -6.2622  -6.2492
    -5.9090  -5.6153  -5.4787  -5.3575  -5.2567  -5.2515  -4.8483  -4.8384
    -4.7349  -4.5204  -4.5144  -4.3984  -4.2388  -3.9885  -3.9654  -3.6359
    -3.3261  -3.3187  -3.3033  -3.0834  -2.9054  -2.8913  -2.7612  -2.5553
    -2.4856  -2.2502  -2.1310  -2.0835  -1.9135  -1.8761  -1.5990  -1.3444
     0.7908   0.9352   1.2375   1.2435   1.3840   1.3961   1.4584   1.6206
     1.6294   1.6329   1.9954   2.3968   2.4174   2.4374

          k = 0.0000 0.1722 0.0000 ( 76281 PWs)   bands (ev):

   -58.1374 -58.1353 -58.0845 -58.0769 -57.6533 -57.6495 -34.4570 -34.4550
   -34.3640 -34.3589 -34.3390 -34.3347 -34.3135 -34.3125 -34.2720 -34.2669
   -34.2223 -34.2094 -34.1072 -34.1044 -33.8997 -33.8966 -33.7543 -33.7515
   -19.1740 -19.0338 -18.6062 -18.1803 -18.0437 -18.0279 -17.8895 -17.8635
   -17.5573 -17.5492 -17.1955 -17.1876  -6.6912  -6.4976  -6.1230  -6.1094
    -5.8103  -5.5660  -5.4460  -5.4199  -5.3903  -5.3152  -5.0919  -4.9240
    -4.5503  -4.4879  -4.3662  -4.3131  -4.1948  -3.8673  -3.8638  -3.7698
    -3.6445  -3.2891  -3.2361  -3.2147  -3.1819  -2.9098  -2.8895  -2.7264
    -2.7023  -2.4975  -2.2437  -2.0555  -1.9835  -1.8827  -1.6541  -1.3944
     0.9757   1.0585   1.2628   1.3307   1.3864   1.4429   1.5593   1.6583
     1.6888   1.7218   1.9815   2.0888   2.1304   2.5637

          k = 0.0000 0.3443 0.0000 ( 76251 PWs)   bands (ev):

   -58.1257 -58.1236 -58.0724 -58.0662 -57.6412 -57.6373 -34.4767 -34.4747
   -34.4206 -34.4175 -34.3647 -34.3543 -34.3325 -34.3288 -34.2948 -34.2902
   -34.2573 -34.2561 -34.0979 -34.0951 -33.9219 -33.9195 -33.8477 -33.8446
   -18.8563 -18.7511 -18.4416 -18.1898 -17.9597 -17.8944 -17.8043 -17.7611
   -17.6563 -17.6383 -17.2775 -17.2734  -6.2515  -6.1384  -5.8365  -5.7818
    -5.6233  -5.5550  -5.4640  -5.4050  -5.3122  -5.2819  -5.2382  -5.0229
    -4.7840  -4.6447  -4.3859  -4.2843  -4.1721  -4.0709  -3.9918  -3.9030
    -3.8765  -3.6175  -3.5639  -3.2424  -3.1937  -2.9496  -2.8875  -2.8467
    -2.7076  -2.6076  -2.3925  -2.3363  -2.2344  -1.9945  -1.8123  -1.6204
     1.1289   1.1787   1.2784   1.3095   1.3386   1.6723   1.6810   1.7554
     1.9247   1.9325   2.0184   2.1515   2.2038   2.4551

          k = 0.0000 0.5165 0.0000 ( 76270 PWs)   bands (ev):

   -58.1123 -58.1102 -58.0584 -58.0543 -57.6273 -57.6235 -34.6228 -34.6209
   -34.5044 -34.4957 -34.3786 -34.3764 -34.3047 -34.3029 -34.2839 -34.2826
   -34.2467 -34.2449 -34.0945 -34.0919 -34.0573 -34.0550 -33.8327 -33.8294
   -18.4653 -18.4527 -18.4000 -18.2783 -17.9311 -17.8394 -17.7985 -17.7309
   -17.5286 -17.5192 -17.3126 -17.3101  -5.8045  -5.7686  -5.7527  -5.7133
    -5.6571  -5.5321  -5.5193  -5.4242  -5.3262  -5.2472  -5.2202  -5.0621
    -4.8156  -4.7801  -4.6122  -4.4463  -4.3439  -4.0930  -4.0122  -3.8485
    -3.7916  -3.7248  -3.5193  -3.2962  -3.1526  -3.0007  -2.8776  -2.7996
    -2.7886  -2.7051  -2.5318  -2.4820  -2.4426  -2.2155  -2.1089  -2.0121
     0.9708   1.1153   1.2202   1.4011   1.5977   1.6454   1.8904   1.9288
     2.0342   2.1504   2.1823   2.3394   2.4726   2.5072

          k = 0.0000 0.6886 0.0000 ( 76376 PWs)   bands (ev):

   -58.1035 -58.1014 -58.0488 -58.0469 -57.6183 -57.6144 -34.7170 -34.7151
   -34.5929 -34.5900 -34.3509 -34.3488 -34.2928 -34.2913 -34.2737 -34.2729
   -34.2372 -34.2360 -34.1619 -34.1600 -34.0795 -34.0767 -33.8149 -33.8116
   -18.4571 -18.4481 -18.1622 -18.1538 -17.9916 -17.9162 -17.7090 -17.7007
   -17.4978 -17.4740 -17.2137 -17.2119  -6.1906  -6.1347  -5.8927  -5.8034
    -5.5080  -5.4957  -5.3976  -5.2751  -5.2161  -5.1696  -5.1502  -5.0998
    -4.6489  -4.6276  -4.4028  -4.3558  -4.1198  -3.9591  -3.9039  -3.8366
    -3.8297  -3.7835  -3.5647  -3.4440  -3.1662  -3.1130  -2.9740  -2.8808
    -2.7352  -2.7071  -2.6922  -2.5747  -2.5350  -2.4713  -2.3012  -2.1369
     0.8693   1.0623   1.2959   1.5078   1.6626   1.8219   1.8645   2.0022
     2.0128   2.1066   2.3272   2.3288   2.5406   2.5677

          k = 0.1645 0.0000 0.0000 ( 76264 PWs)   bands (ev):

   -58.1420 -58.1399 -58.0887 -58.0817 -57.6581 -57.6543 -34.4711 -34.4692
   -34.3736 -34.3732 -34.3179 -34.3163 -34.2821 -34.2800 -34.2738 -34.2697
   -34.1734 -34.1594 -34.1118 -34.1090 -33.9072 -33.9041 -33.6998 -33.6969
   -19.2213 -19.1030 -18.6901 -18.2860 -18.1023 -18.0945 -17.8981 -17.8791
   -17.5344 -17.5032 -17.1703 -17.1651  -6.7962  -6.6833  -6.2787  -6.2199
    -5.7632  -5.5405  -5.4523  -5.3043  -5.2634  -5.2598  -4.8603  -4.8450
    -4.7313  -4.5239  -4.5177  -4.3550  -4.2113  -4.0478  -3.8199  -3.5622
    -3.3674  -3.3083  -3.2628  -3.1042  -2.9274  -2.8672  -2.7559  -2.5652
    -2.4445  -2.4198  -2.2128  -2.1849  -2.1546  -2.0656  -1.7235  -1.4521
     0.8350   0.8982   1.2001   1.3013   1.4111   1.4809   1.5372   1.5530
     1.7382   1.7427   2.1105   2.3533   2.3833   2.4130

          k = 0.1645 0.1722 0.0000 ( 76282 PWs)   bands (ev):

   -58.1374 -58.1353 -58.0840 -58.0774 -57.6533 -57.6495 -34.4580 -34.4561
   -34.3635 -34.3633 -34.3376 -34.3357 -34.3134 -34.3122 -34.2708 -34.2654
   -34.2216 -34.2103 -34.1070 -34.1042 -33.8997 -33.8966 -33.7543 -33.7515
   -19.1051 -18.9946 -18.6043 -18.2259 -18.0258 -18.0236 -17.9039 -17.9028
   -17.5849 -17.5521 -17.2049 -17.2004  -6.6386  -6.5377  -6.1427  -6.0803
    -5.7137  -5.5806  -5.4447  -5.3702  -5.3604  -5.3042  -5.0631  -4.9030
    -4.5244  -4.4866  -4.3685  -4.2606  -4.1733  -3.9645  -3.8313  -3.6403
    -3.5662  -3.4356  -3.3292  -3.1090  -3.0710  -2.9215  -2.8934  -2.7139
    -2.6870  -2.6071  -2.2947  -2.1562  -2.1337  -2.0404  -1.7797  -1.5110
     0.9928   1.0320   1.2772   1.3929   1.3965   1.4597   1.6074   1.6145
     1.7552   1.8285   2.0318   2.0989   2.1666   2.5677

          k = 0.1645 0.3443 0.0000 ( 76223 PWs)   bands (ev):

   -58.1257 -58.1235 -58.0721 -58.0666 -57.6412 -57.6373 -34.4766 -34.4747
   -34.4212 -34.4186 -34.3636 -34.3555 -34.3334 -34.3309 -34.2940 -34.2909
   -34.2564 -34.2547 -34.0978 -34.0950 -33.9220 -33.9195 -33.8476 -33.8445
   -18.8016 -18.7183 -18.4321 -18.2038 -17.9834 -17.8964 -17.8084 -17.7811
   -17.6795 -17.6395 -17.2857 -17.2829  -6.2310  -6.1678  -5.8898  -5.7595
    -5.6680  -5.6267  -5.4562  -5.4259  -5.3806  -5.3305  -4.9706  -4.8648
    -4.8631  -4.6039  -4.3422  -4.3029  -4.1658  -4.1300  -3.9746  -3.8267
    -3.7761  -3.6271  -3.5839  -3.2287  -3.2093  -2.9471  -2.8837  -2.8724
    -2.7265  -2.5958  -2.4059  -2.3169  -2.2795  -2.0728  -1.8810  -1.6861
     1.1011   1.1828   1.2690   1.3176   1.4344   1.6634   1.7107   1.7605
     1.9445   1.9479   2.0563   2.1153   2.2573   2.4347

          k = 0.1645 0.5165 0.0000 ( 76310 PWs)   bands (ev):

   -58.1123 -58.1101 -58.0582 -58.0545 -57.6273 -57.6235 -34.6227 -34.6208
   -34.5037 -34.4964 -34.3791 -34.3769 -34.3056 -34.3039 -34.2838 -34.2827
   -34.2461 -34.2442 -34.0946 -34.0920 -34.0572 -34.0549 -33.8327 -33.8295
   -18.4581 -18.4473 -18.3734 -18.2566 -17.9150 -17.8850 -17.8199 -17.7214
   -17.5356 -17.5287 -17.3124 -17.3100  -5.8438  -5.8062  -5.7653  -5.7569
    -5.6581  -5.6019  -5.5774  -5.4396  -5.3931  -5.3524  -5.2589  -5.1173
    -4.8010  -4.5769  -4.4540  -4.3714  -4.2689  -4.0698  -4.0423  -3.8859
    -3.7919  -3.7172  -3.4609  -3.2647  -3.2001  -2.9569  -2.8795  -2.8093
    -2.7763  -2.7026  -2.5120  -2.4814  -2.3723  -2.1692  -2.0924  -1.9719
     1.0020   1.1119   1.1867   1.5022   1.6349   1.6580   1.9027   1.9282
     2.0737   2.0958   2.1672   2.1919   2.3612   2.4960

          k = 0.1645 0.6886 0.0000 ( 76348 PWs)   bands (ev):

   -58.1035 -58.1014 -58.0487 -58.0470 -57.6183 -57.6144 -34.7169 -34.7150
   -34.5926 -34.5901 -34.3512 -34.3491 -34.2931 -34.2915 -34.2739 -34.2731
   -34.2372 -34.2360 -34.1619 -34.1600 -34.0796 -34.0768 -33.8150 -33.8117
   -18.4640 -18.4585 -18.1590 -18.1299 -17.9583 -17.9545 -17.7175 -17.6833
   -17.5055 -17.4837 -17.2060 -17.2044  -6.1887  -6.1547  -5.9131  -5.8578
    -5.5452  -5.5315  -5.4398  -5.3780  -5.3631  -5.2108  -5.1606  -5.1125
    -4.8370  -4.6554  -4.3258  -4.2977  -4.0742  -3.9803  -3.8906  -3.7769
    -3.6789  -3.6738  -3.5625  -3.3837  -3.0689  -3.0073  -2.9125  -2.8417
    -2.7562  -2.7320  -2.6263  -2.5344  -2.4597  -2.4524  -2.2528  -2.1029
     0.9358   1.0748   1.3849   1.3976   1.7756   1.8331   1.8690   1.8883
     2.0180   2.0984   2.2980   2.3045   2.4464   2.4927

          k = 0.3289 0.0000 0.0000 ( 76372 PWs)   bands (ev):

   -58.1418 -58.1397 -58.0874 -58.0832 -57.6581 -57.6543 -34.4734 -34.4715
   -34.3781 -34.3762 -34.3188 -34.3156 -34.2817 -34.2797 -34.2704 -34.2676
   -34.1706 -34.1625 -34.1113 -34.1085 -33.9070 -33.9039 -33.6999 -33.6970
   -19.0411 -19.0032 -18.6764 -18.3961 -18.1626 -18.1417 -17.9144 -17.8948
   -17.5638 -17.5168 -17.1926 -17.1913  -6.7195  -6.7075  -6.3283  -6.2165
    -5.5236  -5.4886  -5.2769  -5.2760  -5.1785  -4.9884  -4.8811  -4.8623
    -4.5574  -4.5293  -4.5230  -4.2906  -4.2183  -4.0886  -3.6550  -3.6232
    -3.4894  -3.2599  -3.2029  -3.1548  -2.9882  -2.9773  -2.7276  -2.6955
    -2.6084  -2.5724  -2.3811  -2.3578  -2.3145  -2.3130  -1.9568  -1.7518
     0.8661   0.8791   1.1749   1.3009   1.4255   1.5079   1.7015   1.7212
     1.9135   2.0553   2.2548   2.2639   2.2937   2.4123

          k = 0.3289 0.1722 0.0000 ( 76383 PWs)   bands (ev):

   -58.1372 -58.1351 -58.0828 -58.0788 -57.6533 -57.6495 -34.4602 -34.4583
   -34.3686 -34.3650 -34.3387 -34.3349 -34.3137 -34.3117 -34.2675 -34.2636
   -34.2194 -34.2127 -34.1066 -34.1039 -33.8996 -33.8966 -33.7543 -33.7514
   -18.9359 -18.9000 -18.5860 -18.3231 -18.0986 -18.0726 -17.9207 -17.9028
   -17.6118 -17.5650 -17.2262 -17.2248  -6.5734  -6.5620  -6.1885  -6.0781
    -5.5498  -5.5409  -5.4678  -5.4090  -5.2765  -5.2483  -4.8731  -4.6855
    -4.4958  -4.4767  -4.2632  -4.2454  -4.1365  -3.9695  -3.7747  -3.6059
    -3.5825  -3.4907  -3.2996  -3.1136  -3.0256  -2.9963  -2.8836  -2.7958
    -2.7621  -2.6594  -2.5258  -2.4810  -2.2676  -2.2229  -1.9780  -1.7564
     0.9808   1.0050   1.2985   1.4294   1.4783   1.5105   1.6318   1.6774
     1.9438   1.9992   2.0950   2.1498   2.3080   2.5390

          k = 0.3289 0.3443 0.0000 ( 76318 PWs)   bands (ev):

   -58.1256 -58.1234 -58.0710 -58.0677 -57.6412 -57.6373 -34.4766 -34.4745
   -34.4226 -34.4205 -34.3614 -34.3579 -34.3352 -34.3348 -34.2931 -34.2921
   -34.2543 -34.2525 -34.0977 -34.0949 -33.9221 -33.9196 -33.8475 -33.8443
   -18.6701 -18.6408 -18.4004 -18.2415 -18.0494 -17.9719 -17.8138 -17.7999
   -17.6847 -17.6543 -17.3031 -17.3012  -6.1990  -6.1951  -5.9060  -5.8243
    -5.7107  -5.6765  -5.5273  -5.5242  -5.3997  -5.3299  -4.8870  -4.8482
    -4.5563  -4.3941  -4.3016  -4.2835  -4.1516  -4.1211  -3.8316  -3.7853
    -3.7022  -3.6410  -3.5591  -3.2677  -3.1467  -3.0091  -2.9359  -2.8320
    -2.7138  -2.6918  -2.4559  -2.3604  -2.2965  -2.2505  -2.0291  -1.8613
     1.1673   1.1723   1.3190   1.4190   1.5017   1.6699   1.6894   1.7326
     1.9751   2.0153   2.1884   2.1913   2.2714   2.3541

          k = 0.3289 0.5165 0.0000 ( 76259 PWs)   bands (ev):

   -58.1122 -58.1101 -58.0575 -58.0552 -57.6273 -57.6235 -34.6226 -34.6207
   -34.5021 -34.4979 -34.3800 -34.3778 -34.3073 -34.3062 -34.2842 -34.2829
   -34.2448 -34.2431 -34.0949 -34.0923 -34.0570 -34.0547 -33.8329 -33.8296
   -18.4423 -18.4360 -18.3057 -18.2168 -17.9549 -17.9074 -17.8370 -17.7347
   -17.5516 -17.5491 -17.3121 -17.3096  -5.9023  -5.8750  -5.8475  -5.8014
    -5.7307  -5.7255  -5.6574  -5.5646  -5.4758  -5.3247  -5.2205  -5.2053
    -4.7395  -4.4911  -4.3665  -4.3408  -4.1634  -3.9679  -3.8364  -3.8241
    -3.7694  -3.6970  -3.4414  -3.2863  -3.1515  -3.0435  -2.8346  -2.7460
    -2.7041  -2.6359  -2.4905  -2.4483  -2.2690  -2.1339  -2.0814  -1.9778
     1.0390   1.1831   1.3090   1.5910   1.6312   1.7194   1.8041   1.9180
     1.9187   2.0460   2.1651   2.1878   2.3202   2.3776

          k = 0.3289 0.6886 0.0000 ( 76319 PWs)   bands (ev):

   -58.1035 -58.1014 -58.0485 -58.0471 -57.6182 -57.6144 -34.7168 -34.7149
   -34.5921 -34.5904 -34.3515 -34.3495 -34.2937 -34.2921 -34.2744 -34.2735
   -34.2372 -34.2360 -34.1618 -34.1600 -34.0799 -34.0771 -33.8153 -33.8120
   -18.4776 -18.4747 -18.1450 -18.0773 -18.0050 -17.9314 -17.7137 -17.6710
   -17.5194 -17.5034 -17.1923 -17.1908  -6.1826  -6.1811  -6.0044  -5.9718
    -5.7639  -5.7355  -5.5386  -5.4687  -5.3517  -5.2705  -5.1201  -5.1042
    -4.8468  -4.7270  -4.4045  -4.2828  -4.0062  -3.9683  -3.9041  -3.7686
    -3.6778  -3.6150  -3.3020  -3.2395  -3.0619  -2.9436  -2.8598  -2.7521
    -2.6457  -2.6012  -2.4791  -2.4206  -2.2967  -2.2611  -2.1483  -2.0397
     0.9689   1.0864   1.3451   1.4803   1.7346   1.8335   1.8676   1.8869
     2.0336   2.0774   2.2425   2.2625   2.3491   2.4265

          k =-0.4934 0.0000 0.0000 ( 76438 PWs)   bands (ev):

   -58.1418 -58.1396 -58.0859 -58.0848 -57.6581 -57.6543 -34.4745 -34.4727
   -34.3791 -34.3789 -34.3179 -34.3167 -34.2816 -34.2795 -34.2677 -34.2675
   -34.1671 -34.1662 -34.1110 -34.1083 -33.9070 -33.9039 -33.6999 -33.6970
   -18.9326 -18.9308 -18.5677 -18.5674 -18.2179 -18.2165 -17.8897 -17.8892
   -17.5490 -17.5488 -17.2049 -17.2037  -6.7065  -6.7051  -6.2880  -6.2877
    -5.4961  -5.4946  -5.2843  -5.2835  -4.8821  -4.8813  -4.5835  -4.5824
    -4.5310  -4.5249  -4.4683  -4.4679  -4.1106  -4.1096  -3.9702  -3.9689
    -3.3310  -3.3302  -3.2044  -3.2037  -3.0510  -3.0491  -2.7769  -2.7748
    -2.6395  -2.6391  -2.3712  -2.3706  -2.2400  -2.2395  -2.1090  -2.1089
     0.8701   0.8718   1.2246   1.2256   1.4817   1.4830   1.7599   1.7615
     2.1816   2.1834   2.2998   2.3063   2.4225   2.4235

          k =-0.4934 0.1722 0.0000 ( 76384 PWs)   bands (ev):

   -58.1372 -58.1350 -58.0814 -58.0803 -57.6533 -57.6495 -34.4612 -34.4594
   -34.3686 -34.3685 -34.3375 -34.3357 -34.3132 -34.3123 -34.2643 -34.2642
   -34.2166 -34.2157 -34.1064 -34.1037 -33.8996 -33.8965 -33.7543 -33.7514
   -18.8345 -18.8327 -18.4790 -18.4786 -18.1587 -18.1580 -17.8896 -17.8895
   -17.5962 -17.5959 -17.2378 -17.2365  -6.5622  -6.5608  -6.1477  -6.1474
    -5.5347  -5.5342  -5.4324  -5.4311  -5.2278  -5.2274  -4.5658  -4.5637
    -4.4711  -4.4674  -4.2635  -4.2629  -3.9769  -3.9756  -3.7444  -3.7439
    -3.5338  -3.5332  -3.2570  -3.2562  -3.0700  -3.0690  -2.9022  -2.9010
    -2.7750  -2.7740  -2.6193  -2.6172  -2.2004  -2.1996  -2.0016  -2.0013
     0.9728   0.9747   1.3627   1.3633   1.5372   1.5387   1.6791   1.6805
     2.0301   2.0341   2.3702   2.3713   2.4397   2.4409

          k =-0.4934 0.3443 0.0000 ( 76352 PWs)   bands (ev):

   -58.1255 -58.1234 -58.0700 -58.0688 -57.6412 -57.6373 -34.4764 -34.4746
   -34.4233 -34.4214 -34.3599 -34.3594 -34.3364 -34.3362 -34.2932 -34.2924
   -34.2524 -34.2523 -34.0976 -34.0948 -33.9221 -33.9197 -33.8474 -33.8443
   -18.5915 -18.5893 -18.3186 -18.3177 -18.0782 -18.0782 -17.7974 -17.7972
   -17.6752 -17.6747 -17.3121 -17.3102  -6.1966  -6.1951  -5.8491  -5.8483
    -5.7551  -5.7546  -5.5556  -5.5554  -5.3572  -5.3557  -4.9075  -4.9066
    -4.4014  -4.4007  -4.2458  -4.2437  -3.9738  -3.9733  -3.7933  -3.7929
    -3.6330  -3.6320  -3.3906  -3.3902  -3.1479  -3.1474  -2.9676  -2.9665
    -2.7212  -2.7204  -2.4292  -2.4286  -2.2976  -2.2964  -2.0289  -2.0284
     1.1868   1.1887   1.4480   1.4504   1.5411   1.5416   1.7474   1.7478
     2.0446   2.0479   2.2184   2.2197   2.2994   2.2998

          k =-0.4934 0.5165 0.0000 ( 76318 PWs)   bands (ev):

   -58.1122 -58.1101 -58.0569 -58.0558 -57.6273 -57.6235 -34.6225 -34.6206
   -34.5004 -34.4995 -34.3803 -34.3784 -34.3081 -34.3071 -34.2841 -34.2834
   -34.2436 -34.2431 -34.0950 -34.0924 -34.0569 -34.0546 -33.8330 -33.8297
   -18.4333 -18.4307 -18.2324 -18.2314 -17.9595 -17.9594 -17.7828 -17.7827
   -17.5604 -17.5602 -17.3119 -17.3094  -5.9182  -5.9175  -5.8590  -5.8583
    -5.7488  -5.7482  -5.6879  -5.6876  -5.4393  -5.4391  -5.1677  -5.1671
    -4.6168  -4.6161  -4.3574  -4.3558  -3.9789  -3.9785  -3.8459  -3.8456
    -3.6155  -3.6146  -3.4069  -3.4067  -3.1096  -3.1090  -2.7523  -2.7515
    -2.5929  -2.5924  -2.3855  -2.3835  -2.2178  -2.2168  -2.0944  -2.0935
     1.2049   1.2059   1.4881   1.4887   1.5488   1.5505   1.9000   1.9007
     1.9819   1.9825   2.1389   2.1421   2.3232   2.3235

          k =-0.4934 0.6886 0.0000 ( 76294 PWs)   bands (ev):

   -58.1035 -58.1013 -58.0484 -58.0472 -57.6182 -57.6144 -34.7168 -34.7149
   -34.5917 -34.5907 -34.3516 -34.3496 -34.2940 -34.2925 -34.2747 -34.2739
   -34.2371 -34.2361 -34.1618 -34.1599 -34.0800 -34.0772 -33.8155 -33.8122
   -18.4838 -18.4816 -18.1070 -18.1062 -17.9656 -17.9649 -17.6851 -17.6850
   -17.5204 -17.5199 -17.1860 -17.1846  -6.1769  -6.1763  -6.0559  -6.0554
    -5.8596  -5.8594  -5.5368  -5.5361  -5.3110  -5.3102  -5.1098  -5.1095
    -4.6709  -4.6701  -4.4824  -4.4811  -3.9855  -3.9849  -3.7769  -3.7760
    -3.6966  -3.6957  -3.2050  -3.2047  -3.0227  -3.0219  -2.8015  -2.8012
    -2.5543  -2.5541  -2.2609  -2.2591  -2.1811  -2.1808  -2.0681  -2.0679
     0.9800   0.9808   1.3902   1.3915   1.8325   1.8334   1.8883   1.8894
     2.0615   2.0625   2.2205   2.2236   2.3724   2.3727

     the Fermi energy is    -0.2830 ev

!    total energy              =   -1077.89720086 Ry
     estimated scf accuracy    <       0.00000007 Ry
     smearing contrib. (-TS)   =      -0.00000000 Ry
     internal energy E=F+TS    =   -1077.89720086 Ry

     The total energy is F=E-TS. E is the sum of the following terms:
     one-electron contribution =  -25243.40180278 Ry
     hartree contribution      =   12634.99448752 Ry
     xc contribution           =    -170.14486955 Ry
     ewald contribution        =   11700.65498395 Ry

     convergence has been achieved in  11 iterations

     Forces acting on atoms (cartesian axes, Ry/au):

     atom    1 type  1   force =    -0.02816424    0.00000000   -0.01066809
     atom    2 type  1   force =     0.01470416    0.00000000    0.00316374
     atom    3 type  1   force =     0.01695957    0.00000000    0.00332061
     atom    4 type  1   force =     0.01692892    0.00000000   -0.00362605
     atom    5 type  1   force =     0.01454908    0.00000000   -0.00330602
     atom    6 type  1   force =    -0.02851739    0.00000000    0.00981592
     atom    7 type  2   force =    -0.00915087    0.00000000   -0.00601459
     atom    8 type  2   force =     0.01097449    0.00000000    0.01602473
     atom    9 type  2   force =     0.00023952    0.00000000   -0.00030411
     atom   10 type  2   force =    -0.00838174    0.00000000   -0.00038499
     atom   11 type  2   force =     0.00587275    0.00000000   -0.01034937
     atom   12 type  2   force =    -0.00288886    0.00000000    0.00096762
     atom   13 type  2   force =    -0.00876049    0.00000000    0.00005809
     atom   14 type  2   force =     0.00008613    0.00000000    0.00009612
     atom   15 type  2   force =    -0.00259287    0.00000000   -0.00104656
     atom   16 type  2   force =     0.00564357    0.00000000    0.01116985
     atom   17 type  2   force =    -0.00857226    0.00000000    0.00691845
     atom   18 type  2   force =     0.01107052    0.00000000   -0.01583535

     Total force =     0.065714     Total SCF correction =     0.001016


     Computing stress (Cartesian axis) and pressure

          total   stress  (Ry/bohr**3)                   (kbar)     P=        7.98
   0.00008287   0.00000000   0.00000046           12.19        0.00        0.07
   0.00000000   0.00000292   0.00000000            0.00        0.43        0.00
   0.00000046   0.00000000   0.00007693            0.07        0.00       11.32

     Energy error            =      1.1E-02 Ry
     Gradient error          =      2.9E-02 Ry/Bohr
     Cell gradient error     =      1.2E+01 kbar

     number of scf cycles    =   4
     number of bfgs steps    =   3

     enthalpy           old  =   -1077.8857124623 Ry
     enthalpy           new  =   -1077.8972008574 Ry

     CASE: enthalpy          _new < enthalpy          _old

     new trust radius        =       0.0451000732 bohr
     new conv_thr            =       0.0000002852 Ry

     new unit-cell volume =   3511.18051 a.u.^3 (   520.30327 Ang^3 )
     density =      1.52933 g/cm^3

CELL_PARAMETERS (angstrom)
   4.676886052   0.000000000   0.000000000
   0.000000000   2.968404844   0.000000000
   0.000000000   0.000000000  37.478019714

ATOMIC_POSITIONS (angstrom)
Ti               0.2184222727        0.0000000000       14.6294485628
Ti               2.4457094047        1.4842023342       16.8630574947
Ti               0.0360231654        0.0000000000       19.1935040097
Ti               2.3743859057        1.4842023342       21.4778423608
Ti               0.1070921968        0.0000000000       23.8091125880
Ti               2.5561183588        1.4842023342       26.0417835289
O                0.7445431962        1.4842024224       13.6725408158
O                1.4062870461        0.0000000000       15.9926964917
O                3.2278925948        0.0000000000       17.7764795204
O                0.8940454536        1.4842024224       18.2889122665
O                3.6481078916        1.4842024224       15.4444809604
O                1.4105216514        0.0000000000       20.5808766739
O                3.2316709986        0.0000000000       22.3821864531
O                0.8890631704        1.4842024224       22.8964991752
O                3.7494056089        1.4842024224       20.0903981764
O                1.3093855665        0.0000000000       25.2273482432
O                3.0835420058        0.0000000000       26.9974206405
O                3.7444263931        1.4842024224       24.6802602820



     Writing config-only to output data dir ./Out/pwscf.save/
     NEW-OLD atomic charge density approx. for the potential

     negative rho (up, down):  1.195E-04 0.000E+00

     total cpu time spent up to now is      216.3 secs

     Self-consistent Calculation

     iteration #  1     ecut=   120.00 Ry     beta= 0.40
     Davidson diagonalization with overlap
     ethr =  1.00E-06,  avg # of iterations =  8.0

     negative rho (up, down):  6.971E-05 0.000E+00

     total cpu time spent up to now is      222.7 secs

     total energy              =   -1077.90106349 Ry
     estimated scf accuracy    <       0.00105004 Ry

     iteration #  2     ecut=   120.00 Ry     beta= 0.40
     Davidson diagonalization with overlap
     ethr =  7.29E-07,  avg # of iterations = 10.6

     negative rho (up, down):  5.022E-05 0.000E+00

     total cpu time spent up to now is      227.4 secs

     total energy              =   -1077.90111501 Ry
     estimated scf accuracy    <       0.00052814 Ry

     iteration #  3     ecut=   120.00 Ry     beta= 0.40
     Davidson diagonalization with overlap
     c_bands:  1 eigenvalues not converged
     ethr =  3.67E-07,  avg # of iterations =  4.3

     negative rho (up, down):  2.333E-05 0.000E+00

     total cpu time spent up to now is      231.1 secs

     total energy              =   -1077.90120114 Ry
     estimated scf accuracy    <       0.00015429 Ry

     iteration #  4     ecut=   120.00 Ry     beta= 0.40
     Davidson diagonalization with overlap
     ethr =  1.07E-07,  avg # of iterations =  2.0

     negative rho (up, down):  1.132E-05 0.000E+00

     total cpu time spent up to now is      234.4 secs

     total energy              =   -1077.90122275 Ry
     estimated scf accuracy    <       0.00001501 Ry

     iteration #  5     ecut=   120.00 Ry     beta= 0.40
     Davidson diagonalization with overlap
     ethr =  1.04E-08,  avg # of iterations =  5.5

     negative rho (up, down):  4.313E-06 0.000E+00

     total cpu time spent up to now is      238.4 secs

     total energy              =   -1077.90122609 Ry
     estimated scf accuracy    <       0.00000288 Ry

     iteration #  6     ecut=   120.00 Ry     beta= 0.40
     Davidson diagonalization with overlap
     ethr =  2.00E-09,  avg # of iterations =  5.5

     negative rho (up, down):  1.724E-06 0.000E+00

     total cpu time spent up to now is      242.5 secs

     total energy              =   -1077.90122689 Ry
     estimated scf accuracy    <       0.00000141 Ry

     iteration #  7     ecut=   120.00 Ry     beta= 0.40
     Davidson diagonalization with overlap
     ethr =  9.82E-10,  avg # of iterations =  2.5

     total cpu time spent up to now is      245.8 secs

     End of self-consistent calculation

          k = 0.0000 0.0000 0.0000 ( 76179 PWs)   bands (ev):

   -58.1369 -58.1362 -58.0862 -58.0781 -57.7183 -57.7108 -34.4643 -34.4633
   -34.3697 -34.3664 -34.3205 -34.3189 -34.2741 -34.2739 -34.2734 -34.2681
   -34.1707 -34.1547 -34.1489 -34.1431 -33.9693 -33.9623 -33.7625 -33.7554
   -19.2821 -19.1340 -18.6669 -18.2345 -18.1407 -18.1338 -17.8848 -17.8422
   -17.5038 -17.4972 -17.2181 -17.2067  -6.8457  -6.6273  -6.2490  -6.2280
    -5.8835  -5.6144  -5.5035  -5.3590  -5.2512  -5.2458  -4.8337  -4.8197
    -4.7173  -4.5685  -4.5670  -4.3894  -4.2252  -3.9775  -3.9733  -3.6199
    -3.3782  -3.2998  -3.2848  -3.1435  -2.9519  -2.9375  -2.7450  -2.6206
    -2.5545  -2.3038  -2.1502  -2.0986  -1.9327  -1.9219  -1.6243  -1.3571
     0.8143   0.9748   1.2305   1.2663   1.3865   1.4097   1.4378   1.5970
     1.6286   1.6413   1.9419   2.3839   2.4040   2.4462

          k = 0.0000 0.1721 0.0000 ( 76281 PWs)   bands (ev):

   -58.1323 -58.1316 -58.0815 -58.0739 -57.7135 -57.7060 -34.4516 -34.4506
   -34.3607 -34.3560 -34.3325 -34.3283 -34.3147 -34.3138 -34.2713 -34.2639
   -34.2181 -34.2057 -34.1439 -34.1381 -33.9620 -33.9551 -33.8167 -33.8097
   -19.1617 -19.0227 -18.5814 -18.1757 -18.0633 -18.0598 -17.8989 -17.8688
   -17.5532 -17.5472 -17.2522 -17.2423  -6.6796  -6.4822  -6.1104  -6.0880
    -5.7946  -5.5694  -5.4622  -5.4064  -5.3735  -5.3150  -5.0790  -4.9117
    -4.5740  -4.5363  -4.3698  -4.3050  -4.1831  -3.8675  -3.8564  -3.7712
    -3.6430  -3.3030  -3.2704  -3.2066  -3.2060  -2.9579  -2.9392  -2.7577
    -2.7533  -2.5342  -2.2861  -2.0821  -2.0202  -1.9010  -1.6829  -1.4062
     0.9874   1.0911   1.2685   1.3092   1.3959   1.4511   1.5349   1.6405
     1.7178   1.7308   1.9380   2.0600   2.1057   2.5351

          k = 0.0000 0.3442 0.0000 ( 76251 PWs)   bands (ev):

   -58.1205 -58.1198 -58.0696 -58.0633 -57.7014 -57.6940 -34.4702 -34.4694
   -34.4146 -34.4121 -34.3615 -34.3498 -34.3308 -34.3261 -34.2964 -34.2923
   -34.2544 -34.2525 -34.1350 -34.1292 -33.9840 -33.9772 -33.9101 -33.9031
   -18.8439 -18.7363 -18.4126 -18.1777 -17.9629 -17.8928 -17.8270 -17.7881
   -17.6638 -17.6520 -17.3325 -17.3266  -6.2401  -6.1213  -5.8176  -5.7709
    -5.6168  -5.5385  -5.4554  -5.4111  -5.3010  -5.2896  -5.2126  -5.0261
    -4.7580  -4.6154  -4.3612  -4.3162  -4.2247  -4.0903  -3.9875  -3.9248
    -3.8996  -3.6215  -3.5947  -3.2497  -3.2015  -3.0070  -2.9392  -2.8405
    -2.7288  -2.6228  -2.4271  -2.3744  -2.2735  -2.0150  -1.8451  -1.6261
     1.1278   1.1781   1.2711   1.3175   1.3242   1.6651   1.6979   1.7286
     1.9058   1.9764   1.9831   2.1232   2.1637   2.3994

          k = 0.0000 0.5162 0.0000 ( 76270 PWs)   bands (ev):

   -58.1071 -58.1064 -58.0557 -58.0513 -57.6876 -57.6802 -34.6159 -34.6153
   -34.4993 -34.4902 -34.3733 -34.3721 -34.3063 -34.3052 -34.2824 -34.2818
   -34.2439 -34.2412 -34.1416 -34.1353 -34.1081 -34.1019 -33.8962 -33.8891
   -18.4459 -18.4204 -18.3806 -18.2789 -17.9199 -17.8360 -17.7987 -17.7270
   -17.5712 -17.5572 -17.3712 -17.3663  -5.7894  -5.7523  -5.7325  -5.7019
    -5.6201  -5.5181  -5.4913  -5.4120  -5.3198  -5.2631  -5.2114  -5.0464
    -4.8492  -4.7847  -4.5857  -4.4757  -4.3603  -4.0765  -3.9867  -3.8970
    -3.8529  -3.7291  -3.5175  -3.2992  -3.1684  -3.0333  -2.9076  -2.8249
    -2.7998  -2.6873  -2.5771  -2.5371  -2.4842  -2.2386  -2.1351  -2.0098
     0.9679   1.1132   1.2072   1.4117   1.6056   1.6394   1.8727   1.9101
     2.0113   2.0920   2.1540   2.3299   2.4530   2.4663

          k = 0.0000 0.6883 0.0000 ( 76376 PWs)   bands (ev):

   -58.0984 -58.0977 -58.0462 -58.0440 -57.6786 -57.6711 -34.7102 -34.7097
   -34.5873 -34.5840 -34.3464 -34.3455 -34.2994 -34.2984 -34.2711 -34.2697
   -34.2340 -34.2322 -34.2188 -34.2130 -34.1164 -34.1105 -33.8789 -33.8718
   -18.4303 -18.4199 -18.1518 -18.1406 -17.9856 -17.9128 -17.7144 -17.7108
   -17.5273 -17.4973 -17.2769 -17.2720  -6.1643  -6.1011  -5.8767  -5.7889
    -5.4916  -5.4794  -5.3856  -5.2664  -5.2155  -5.1702  -5.1310  -5.1063
    -4.6539  -4.6469  -4.4095  -4.3362  -4.1303  -3.9547  -3.9286  -3.8423
    -3.8375  -3.8229  -3.5924  -3.4352  -3.1908  -3.1213  -2.9802  -2.8847
    -2.7500  -2.7288  -2.7075  -2.6048  -2.5656  -2.5078  -2.3335  -2.1619
     0.8803   1.0781   1.2847   1.4950   1.6355   1.8180   1.8609   1.9733
     2.0083   2.1050   2.2549   2.2606   2.5355   2.5647

          k = 0.1638 0.0000 0.0000 ( 76264 PWs)   bands (ev):

   -58.1368 -58.1361 -58.0858 -58.0787 -57.7183 -57.7108 -34.4654 -34.4646
   -34.3706 -34.3697 -34.3201 -34.3189 -34.2739 -34.2732 -34.2724 -34.2669
   -34.1697 -34.1558 -34.1486 -34.1428 -33.9692 -33.9622 -33.7625 -33.7554
   -19.2099 -19.0927 -18.6678 -18.2846 -18.1443 -18.1198 -17.8980 -17.8755
   -17.5292 -17.4989 -17.2273 -17.2202  -6.7844  -6.6679  -6.2558  -6.2058
    -5.7464  -5.5591  -5.4759  -5.2902  -5.2573  -5.2536  -4.8450  -4.8268
    -4.7136  -4.5724  -4.5703  -4.3482  -4.1985  -4.0493  -3.8122  -3.5557
    -3.4141  -3.2888  -3.2441  -3.1565  -2.9704  -2.9151  -2.7544  -2.6280
    -2.5018  -2.4607  -2.2384  -2.2049  -2.1808  -2.0954  -1.7456  -1.4666
     0.8670   0.9334   1.2160   1.3106   1.4057   1.4775   1.5219   1.5535
     1.7275   1.7450   2.0631   2.3552   2.3801   2.3815

          k = 0.1638 0.1721 0.0000 ( 76282 PWs)   bands (ev):

   -58.1322 -58.1315 -58.0811 -58.0744 -57.7135 -57.7060 -34.4526 -34.4517
   -34.3607 -34.3601 -34.3309 -34.3297 -34.3144 -34.3137 -34.2698 -34.2628
   -34.2174 -34.2065 -34.1437 -34.1379 -33.9620 -33.9550 -33.8167 -33.8097
   -19.0935 -18.9833 -18.5806 -18.2210 -18.0620 -18.0403 -17.9168 -17.9058
   -17.5793 -17.5481 -17.2611 -17.2547  -6.6267  -6.5218  -6.1205  -6.0668
    -5.7026  -5.5816  -5.4544  -5.3743  -5.3632  -5.2823  -5.0485  -4.8901
    -4.5558  -4.5351  -4.3626  -4.2549  -4.1661  -3.9688  -3.8237  -3.6328
    -3.5728  -3.4470  -3.3444  -3.1112  -3.0953  -2.9664  -2.9404  -2.7644
    -2.7377  -2.6272  -2.3319  -2.1845  -2.1626  -2.0628  -1.8072  -1.5225
     1.0079   1.0596   1.2780   1.3845   1.3980   1.4761   1.5842   1.6194
     1.7633   1.8169   2.0015   2.0705   2.1377   2.5401

          k = 0.1638 0.3442 0.0000 ( 76223 PWs)   bands (ev):

   -58.1205 -58.1198 -58.0692 -58.0637 -57.7014 -57.6940 -34.4700 -34.4695
   -34.4151 -34.4132 -34.3605 -34.3511 -34.3317 -34.3281 -34.2959 -34.2928
   -34.2534 -34.2513 -34.1349 -34.1291 -33.9840 -33.9772 -33.9100 -33.9030
   -18.7895 -18.7029 -18.4046 -18.1923 -17.9818 -17.8954 -17.8374 -17.8037
   -17.6905 -17.6507 -17.3405 -17.3358  -6.2183  -6.1511  -5.8735  -5.7517
    -5.6461  -5.6067  -5.4411  -5.4087  -5.3949  -5.3457  -4.9662  -4.8665
    -4.8270  -4.5878  -4.3566  -4.3062  -4.1950  -4.1675  -3.9668  -3.8411
    -3.8074  -3.6280  -3.6024  -3.2407  -3.2250  -2.9818  -2.9258  -2.8873
    -2.7510  -2.6078  -2.4332  -2.3560  -2.3185  -2.0929  -1.9157  -1.6957
     1.0958   1.1821   1.2648   1.3246   1.4275   1.6813   1.6938   1.7408
     1.9248   1.9475   2.0356   2.0901   2.2397   2.3854

          k = 0.1638 0.5162 0.0000 ( 76310 PWs)   bands (ev):

   -58.1071 -58.1064 -58.0555 -58.0516 -57.6876 -57.6802 -34.6158 -34.6152
   -34.4986 -34.4908 -34.3737 -34.3726 -34.3073 -34.3059 -34.2827 -34.2819
   -34.2431 -34.2408 -34.1417 -34.1354 -34.1079 -34.1018 -33.8962 -33.8891
   -18.4339 -18.4141 -18.3592 -18.2593 -17.9046 -17.8778 -17.8197 -17.7200
   -17.5774 -17.5662 -17.3716 -17.3666  -5.8314  -5.7869  -5.7467  -5.7455
    -5.6268  -5.5772  -5.5613  -5.4283  -5.3693  -5.3348  -5.2714  -5.1088
    -4.8271  -4.5862  -4.4445  -4.4051  -4.2784  -4.0592  -4.0333  -3.9165
    -3.8448  -3.7383  -3.4518  -3.2604  -3.2155  -2.9715  -2.9080  -2.8417
    -2.7953  -2.7012  -2.5602  -2.5311  -2.4000  -2.2017  -2.1259  -1.9706
     1.0010   1.1159   1.1762   1.5074   1.6351   1.6557   1.8936   1.8960
     2.0566   2.0614   2.1380   2.1565   2.3414   2.4428

          k = 0.1638 0.6883 0.0000 ( 76348 PWs)   bands (ev):

   -58.0984 -58.0977 -58.0461 -58.0440 -57.6786 -57.6711 -34.7101 -34.7096
   -34.5871 -34.5841 -34.3466 -34.3458 -34.2996 -34.2986 -34.2713 -34.2700
   -34.2340 -34.2323 -34.2188 -34.2130 -34.1165 -34.1106 -33.8790 -33.8719
   -18.4372 -18.4307 -18.1455 -18.1190 -17.9529 -17.9503 -17.7248 -17.6971
   -17.5328 -17.5039 -17.2698 -17.2650  -6.1620  -6.1246  -5.8952  -5.8459
    -5.5289  -5.5239  -5.4221  -5.3636  -5.3477  -5.2046  -5.1362  -5.1141
    -4.8485  -4.6434  -4.3434  -4.3139  -4.0841  -3.9959  -3.9078  -3.8099
    -3.6972  -3.6931  -3.5634  -3.3684  -3.0821  -3.0194  -2.9367  -2.8599
    -2.7642  -2.7567  -2.6468  -2.5857  -2.4821  -2.4741  -2.2872  -2.1280
     0.9456   1.0926   1.3801   1.3873   1.7499   1.8235   1.8644   1.8759
     2.0165   2.0969   2.2284   2.2364   2.4360   2.4761

          k = 0.3277 0.0000 0.0000 ( 76372 PWs)   bands (ev):

   -58.1367 -58.1360 -58.0845 -58.0802 -57.7183 -57.7108 -34.4677 -34.4669
   -34.3748 -34.3731 -34.3209 -34.3182 -34.2736 -34.2729 -34.2686 -34.2653
   -34.1670 -34.1589 -34.1480 -34.1423 -33.9689 -33.9620 -33.7626 -33.7555
   -19.0309 -18.9920 -18.6572 -18.3880 -18.1993 -18.1762 -17.9146 -17.8951
   -17.5550 -17.5112 -17.2492 -17.2453  -6.7033  -6.6948  -6.3043  -6.1999
    -5.5537  -5.5237  -5.2697  -5.2691  -5.1690  -4.9645  -4.8652  -4.8446
    -4.5782  -4.5759  -4.5414  -4.2779  -4.2086  -4.1053  -3.6853  -3.6199
    -3.4847  -3.2415  -3.2028  -3.1868  -3.0336  -2.9978  -2.7399  -2.7228
    -2.6405  -2.6181  -2.4304  -2.3852  -2.3440  -2.3430  -1.9771  -1.7676
     0.9076   0.9163   1.1944   1.3146   1.4220   1.5128   1.7041   1.7096
     1.9098   2.0236   2.2393   2.2483   2.2536   2.3813

          k = 0.3277 0.1721 0.0000 ( 76383 PWs)   bands (ev):

   -58.1321 -58.1314 -58.0799 -58.0758 -57.7135 -57.7060 -34.4546 -34.4539
   -34.3654 -34.3622 -34.3323 -34.3285 -34.3142 -34.3134 -34.2661 -34.2615
   -34.2153 -34.2088 -34.1432 -34.1375 -33.9618 -33.9549 -33.8167 -33.8097
   -18.9250 -18.8876 -18.5664 -18.3145 -18.1235 -18.0961 -17.9328 -17.9156
   -17.6035 -17.5595 -17.2819 -17.2781  -6.5567  -6.5487  -6.1654  -6.0625
    -5.5463  -5.5392  -5.4838  -5.4301  -5.2652  -5.2280  -4.8593  -4.6771
    -4.5444  -4.5215  -4.2598  -4.2366  -4.1162  -3.9816  -3.7878  -3.6006
    -3.5782  -3.4926  -3.3041  -3.1389  -3.0412  -3.0263  -2.9183  -2.8489
    -2.8115  -2.6738  -2.5446  -2.5116  -2.2865  -2.2537  -2.0078  -1.7706
     1.0027   1.0250   1.2931   1.4275   1.4942   1.5176   1.6434   1.6652
     1.9350   1.9684   2.0712   2.1278   2.2766   2.5114

          k = 0.3277 0.3442 0.0000 ( 76318 PWs)   bands (ev):

   -58.1204 -58.1197 -58.0682 -58.0647 -57.7014 -57.6940 -34.4702 -34.4692
   -34.4163 -34.4152 -34.3582 -34.3536 -34.3333 -34.3320 -34.2949 -34.2939
   -34.2512 -34.2494 -34.1348 -34.1289 -33.9841 -33.9773 -33.9098 -33.9028
   -18.6559 -18.6229 -18.3800 -18.2332 -18.0442 -17.9694 -17.8334 -17.8322
   -17.6989 -17.6621 -17.3575 -17.3535  -6.1818  -6.1803  -5.8911  -5.8100
    -5.6860  -5.6622  -5.5114  -5.5023  -5.4106  -5.3483  -4.8769  -4.8370
    -4.5546  -4.3850  -4.3305  -4.3073  -4.1816  -4.1366  -3.8261  -3.7954
    -3.7044  -3.6569  -3.5778  -3.2876  -3.1646  -3.0183  -2.9650  -2.8649
    -2.7613  -2.6996  -2.4610  -2.3987  -2.3232  -2.2709  -2.0686  -1.8768
     1.1559   1.1607   1.3132   1.4229   1.4860   1.6747   1.6810   1.7335
     1.9614   1.9834   2.1806   2.1869   2.2733   2.3071

          k = 0.3277 0.5162 0.0000 ( 76259 PWs)   bands (ev):

   -58.1071 -58.1064 -58.0549 -58.0522 -57.6876 -57.6801 -34.6157 -34.6151
   -34.4970 -34.4924 -34.3746 -34.3735 -34.3085 -34.3082 -34.2833 -34.2821
   -34.2418 -34.2398 -34.1420 -34.1357 -34.1077 -34.1015 -33.8963 -33.8893
   -18.4107 -18.4011 -18.3006 -18.2236 -17.9426 -17.9003 -17.8337 -17.7345
   -17.5918 -17.5862 -17.3722 -17.3672  -5.8931  -5.8569  -5.8407  -5.7726
    -5.6998  -5.6966  -5.6344  -5.5549  -5.4539  -5.3055  -5.2190  -5.2132
    -4.7503  -4.4961  -4.3907  -4.3457  -4.1710  -3.9854  -3.8692  -3.8414
    -3.7903  -3.7235  -3.4312  -3.2736  -3.1709  -3.0641  -2.8644  -2.7571
    -2.7263  -2.6708  -2.5309  -2.4789  -2.2803  -2.1804  -2.1283  -1.9833
     1.0494   1.1858   1.2884   1.5837   1.6168   1.7256   1.7870   1.9086
     1.9126   2.0120   2.1269   2.1796   2.3017   2.3384

          k = 0.3277 0.6883 0.0000 ( 76319 PWs)   bands (ev):

   -58.0983 -58.0976 -58.0460 -58.0441 -57.6786 -57.6711 -34.7100 -34.7095
   -34.5865 -34.5844 -34.3468 -34.3459 -34.3003 -34.2993 -34.2718 -34.2705
   -34.2340 -34.2324 -34.2187 -34.2129 -34.1167 -34.1108 -33.8793 -33.8722
   -18.4505 -18.4475 -18.1309 -18.0626 -18.0027 -17.9270 -17.7263 -17.6907
   -17.5411 -17.5183 -17.2572 -17.2524  -6.1555  -6.1531  -5.9877  -5.9591
    -5.7457  -5.7132  -5.5245  -5.4478  -5.3298  -5.2480  -5.1175  -5.1066
    -4.8479  -4.7155  -4.4155  -4.2940  -4.0168  -3.9886  -3.9130  -3.7841
    -3.7171  -3.6418  -3.3086  -3.2370  -3.0764  -2.9474  -2.8960  -2.7720
    -2.6631  -2.6487  -2.5214  -2.4412  -2.3332  -2.2902  -2.1820  -2.0622
     0.9857   1.1067   1.3475   1.4892   1.7240   1.8239   1.8599   1.8836
     2.0317   2.0749   2.1822   2.1958   2.3266   2.3945

          k =-0.4915 0.0000 0.0000 ( 76438 PWs)   bands (ev):

   -58.1366 -58.1359 -58.0832 -58.0815 -57.7183 -57.7108 -34.4688 -34.4681
   -34.3761 -34.3754 -34.3199 -34.3193 -34.2734 -34.2727 -34.2657 -34.2656
   -34.1638 -34.1623 -34.1477 -34.1420 -33.9688 -33.9619 -33.7626 -33.7555
   -18.9200 -18.9189 -18.5555 -18.5548 -18.2508 -18.2494 -17.8935 -17.8929
   -17.5413 -17.5408 -17.2612 -17.2573  -6.6908  -6.6898  -6.2679  -6.2672
    -5.5319  -5.5305  -5.2765  -5.2763  -4.8658  -4.8638  -4.5797  -4.5782
    -4.5598  -4.5594  -4.4659  -4.4650  -4.1136  -4.1130  -3.9821  -3.9812
    -3.3479  -3.3472  -3.1895  -3.1893  -3.0782  -3.0756  -2.8057  -2.8041
    -2.6567  -2.6555  -2.4207  -2.4202  -2.2819  -2.2803  -2.1170  -2.1168
     0.9118   0.9129   1.2428   1.2437   1.4917   1.4929   1.7553   1.7568
     2.1544   2.1592   2.2511   2.2591   2.4059   2.4077

          k =-0.4915 0.1721 0.0000 ( 76384 PWs)   bands (ev):

   -58.1320 -58.1313 -58.0788 -58.0770 -57.7135 -57.7061 -34.4557 -34.4550
   -34.3658 -34.3653 -34.3305 -34.3299 -34.3140 -34.3137 -34.2626 -34.2626
   -34.2128 -34.2114 -34.1430 -34.1372 -33.9618 -33.9548 -33.8167 -33.8097
   -18.8205 -18.8193 -18.4677 -18.4671 -18.1801 -18.1788 -17.9056 -17.9049
   -17.5887 -17.5881 -17.2932 -17.2893  -6.5460  -6.5450  -6.1282  -6.1276
    -5.5318  -5.5310  -5.4542  -5.4540  -5.2117  -5.2106  -4.5802  -4.5790
    -4.4971  -4.4963  -4.2452  -4.2451  -3.9800  -3.9786  -3.7618  -3.7615
    -3.5331  -3.5323  -3.2676  -3.2665  -3.0762  -3.0746  -2.9279  -2.9263
    -2.8202  -2.8197  -2.6517  -2.6500  -2.2208  -2.2191  -2.0259  -2.0257
     0.9923   0.9939   1.3612   1.3619   1.5519   1.5533   1.6803   1.6812
     1.9986   2.0043   2.3590   2.3615   2.3794   2.3841

          k =-0.4915 0.3442 0.0000 ( 76352 PWs)   bands (ev):

   -58.1203 -58.1196 -58.0674 -58.0656 -57.7014 -57.6940 -34.4699 -34.4694
   -34.4169 -34.4161 -34.3565 -34.3554 -34.3340 -34.3338 -34.2947 -34.2945
   -34.2493 -34.2491 -34.1347 -34.1289 -33.9842 -33.9773 -33.9097 -33.9027
   -18.5706 -18.5690 -18.3122 -18.3117 -18.0715 -18.0714 -17.8247 -17.8238
   -17.6846 -17.6841 -17.3662 -17.3622  -6.1797  -6.1785  -5.8336  -5.8329
    -5.7357  -5.7354  -5.5410  -5.5401  -5.3671  -5.3669  -4.8974  -4.8972
    -4.3962  -4.3952  -4.2965  -4.2932  -3.9635  -3.9633  -3.8168  -3.8160
    -3.6404  -3.6398  -3.4100  -3.4089  -3.1658  -3.1651  -2.9799  -2.9793
    -2.7532  -2.7503  -2.4539  -2.4525  -2.3165  -2.3151  -2.0576  -2.0573
     1.1720   1.1739   1.4349   1.4381   1.5193   1.5198   1.7650   1.7654
     2.0408   2.0447   2.2127   2.2129   2.2735   2.2752

          k =-0.4915 0.5162 0.0000 ( 76318 PWs)   bands (ev):

   -58.1070 -58.1063 -58.0544 -58.0527 -57.6876 -57.6801 -34.6156 -34.6151
   -34.4955 -34.4939 -34.3748 -34.3741 -34.3093 -34.3090 -34.2834 -34.2827
   -34.2406 -34.2398 -34.1422 -34.1358 -34.1075 -34.1014 -33.8964 -33.8893
   -18.3978 -18.3958 -18.2360 -18.2355 -17.9491 -17.9487 -17.7810 -17.7806
   -17.5989 -17.5988 -17.3724 -17.3673  -5.9063  -5.9060  -5.8376  -5.8372
    -5.7203  -5.7196  -5.6693  -5.6692  -5.4155  -5.4151  -5.1788  -5.1782
    -4.6159  -4.6152  -4.3757  -4.3753  -3.9822  -3.9813  -3.8865  -3.8835
    -3.6294  -3.6282  -3.4084  -3.4071  -3.1308  -3.1301  -2.7629  -2.7620
    -2.6480  -2.6431  -2.4069  -2.4046  -2.2261  -2.2244  -2.1383  -2.1383
     1.2126   1.2136   1.4756   1.4770   1.5195   1.5220   1.8925   1.8933
     1.9910   1.9924   2.1173   2.1212   2.2894   2.2912

          k =-0.4915 0.6883 0.0000 ( 76294 PWs)   bands (ev):

   -58.0983 -58.0976 -58.0459 -58.0442 -57.6786 -57.6711 -34.7100 -34.7095
   -34.5862 -34.5846 -34.3467 -34.3459 -34.3008 -34.2998 -34.2722 -34.2709
   -34.2339 -34.2324 -34.2187 -34.2128 -34.1168 -34.1109 -33.8794 -33.8723
   -18.4563 -18.4548 -18.0928 -18.0919 -17.9616 -17.9613 -17.7047 -17.7040
   -17.5354 -17.5350 -17.2515 -17.2467  -6.1474  -6.1471  -6.0423  -6.0418
    -5.8352  -5.8350  -5.5220  -5.5213  -5.2857  -5.2850  -5.1133  -5.1120
    -4.6663  -4.6660  -4.4842  -4.4838  -4.0009  -3.9994  -3.7879  -3.7875
    -3.7251  -3.7232  -3.2341  -3.2325  -3.0219  -3.0209  -2.8181  -2.8175
    -2.6135  -2.6079  -2.2853  -2.2836  -2.2213  -2.2201  -2.0950  -2.0944
     1.0043   1.0052   1.4018   1.4022   1.8240   1.8249   1.8861   1.8879
     2.0613   2.0630   2.1632   2.1700   2.3319   2.3342

     the Fermi energy is    -0.2773 ev

!    total energy              =   -1077.90122699 Ry
     estimated scf accuracy    <       0.00000020 Ry
     smearing contrib. (-TS)   =      -0.00000000 Ry
     internal energy E=F+TS    =   -1077.90122699 Ry

     The total energy is F=E-TS. E is the sum of the following terms:
     one-electron contribution =  -25130.74016974 Ry
     hartree contribution      =   12578.58120253 Ry
     xc contribution           =    -170.11245141 Ry
     ewald contribution        =   11644.37019163 Ry

     convergence has been achieved in   7 iterations

     Forces acting on atoms (cartesian axes, Ry/au):

     atom    1 type  1   force =    -0.02339642    0.00000000   -0.00164245
     atom    2 type  1   force =     0.00653397    0.00000000    0.00244307
     atom    3 type  1   force =     0.01675400    0.00000000    0.00440039
     atom    4 type  1   force =     0.01668855    0.00000000   -0.00475773
     atom    5 type  1   force =     0.00643138    0.00000000   -0.00228263
     atom    6 type  1   force =    -0.02350572    0.00000000    0.00199236
     atom    7 type  2   force =    -0.00635487    0.00000000   -0.00515918
     atom    8 type  2   force =     0.00333044    0.00000000    0.00538169
     atom    9 type  2   force =     0.00314374    0.00000000    0.00166982
     atom   10 type  2   force =    -0.00749624    0.00000000    0.00007643
     atom   11 type  2   force =     0.00974719    0.00000000   -0.01038398
     atom   12 type  2   force =    -0.00230759    0.00000000    0.00096805
     atom   13 type  2   force =    -0.00768205    0.00000000   -0.00025503
     atom   14 type  2   force =     0.00303633    0.00000000   -0.00183537
     atom   15 type  2   force =    -0.00204918    0.00000000   -0.00091700
     atom   16 type  2   force =     0.00927660    0.00000000    0.00967507
     atom   17 type  2   force =    -0.00607935    0.00000000    0.00617844
     atom   18 type  2   force =     0.00392925    0.00000000   -0.00555197

     Total force =     0.050654     Total SCF correction =     0.001732


     Computing stress (Cartesian axis) and pressure

          total   stress  (Ry/bohr**3)                   (kbar)     P=        5.57
   0.00006305   0.00000000   0.00000018            9.27        0.00        0.03
   0.00000000  -0.00000930   0.00000000            0.00       -1.37        0.00
   0.00000018   0.00000000   0.00005994            0.03        0.00        8.82

     Energy error            =      4.0E-03 Ry
     Gradient error          =      2.4E-02 Ry/Bohr
     Cell gradient error     =      9.3E+00 kbar

     number of scf cycles    =   5
     number of bfgs steps    =   4

     enthalpy           old  =   -1077.8972008574 Ry
     enthalpy           new  =   -1077.9012269884 Ry

     CASE: enthalpy          _new < enthalpy          _old

     new trust radius        =       0.0675370181 bohr
     new conv_thr            =       0.0000002351 Ry

     new unit-cell volume =   3531.49080 a.u.^3 (   523.31295 Ang^3 )
     density =      1.52053 g/cm^3

CELL_PARAMETERS (angstrom)
   4.703538806   0.000000000   0.000000000
   0.000000000   2.968657611   0.000000000
   0.000000000   0.000000000  37.478019714

ATOMIC_POSITIONS (angstrom)
Ti               0.2132821578        0.0000000000       14.6325306717
Ti               2.4824593047        1.4843287173       16.8627009139
Ti               0.0602655735        0.0000000000       19.1989636990
Ti               2.4118655653        1.4843287173       21.4719692067
Ti               0.1303649472        0.0000000000       23.8096838525
Ti               2.5640284857        1.4843287173       26.0388058799
O                0.7227539736        1.4843288056       13.6620561729
O                1.4176908599        0.0000000000       16.0007613956
O                3.2464604888        0.0000000000       17.7767049036
O                0.8877422811        1.4843288056       18.2887763317
O                3.6669825126        1.4843288056       15.4264912017
O                1.4139803545        0.0000000000       20.5812359691
O                3.2383197450        0.0000000000       22.3820076228
O                0.8941340371        1.4843288056       22.8962113512
O                3.7665659191        1.4843288056       20.0900257662
O                1.3143858170        0.0000000000       25.2448467365
O                3.0755233690        0.0000000000       27.0088413724
O                3.7697331325        1.4843288056       24.6722351965



     Writing config-only to output data dir ./Out/pwscf.save/
     NEW-OLD atomic charge density approx. for the potential

     negative rho (up, down):  1.825E-04 0.000E+00

     total cpu time spent up to now is      251.7 secs

     Self-consistent Calculation

     iteration #  1     ecut=   120.00 Ry     beta= 0.40
     Davidson diagonalization with overlap
     ethr =  1.00E-06,  avg # of iterations =  9.4

     negative rho (up, down):  1.063E-04 0.000E+00

     total cpu time spent up to now is      258.9 secs

     total energy              =   -1077.90554894 Ry
     estimated scf accuracy    <       0.00187130 Ry

     iteration #  2     ecut=   120.00 Ry     beta= 0.40
     Davidson diagonalization with overlap
     ethr =  1.30E-06,  avg # of iterations =  2.1

     negative rho (up, down):  6.539E-05 0.000E+00

     total cpu time spent up to now is      262.3 secs

     total energy              =   -1077.90565781 Ry
     estimated scf accuracy    <       0.00051786 Ry

     iteration #  3     ecut=   120.00 Ry     beta= 0.40
     Davidson diagonalization with overlap
     ethr =  3.60E-07,  avg # of iterations =  2.1

     negative rho (up, down):  3.186E-05 0.000E+00

     total cpu time spent up to now is      265.6 secs

     total energy              =   -1077.90572527 Ry
     estimated scf accuracy    <       0.00023425 Ry

     iteration #  4     ecut=   120.00 Ry     beta= 0.40
     Davidson diagonalization with overlap
     ethr =  1.63E-07,  avg # of iterations =  2.0

     negative rho (up, down):  1.735E-05 0.000E+00

     total cpu time spent up to now is      268.9 secs

     total energy              =   -1077.90576089 Ry
     estimated scf accuracy    <       0.00003842 Ry

     iteration #  5     ecut=   120.00 Ry     beta= 0.40
     Davidson diagonalization with overlap
     ethr =  2.67E-08,  avg # of iterations =  3.0

     negative rho (up, down):  6.549E-06 0.000E+00

     total cpu time spent up to now is      272.4 secs

     total energy              =   -1077.90576871 Ry
     estimated scf accuracy    <       0.00000690 Ry

     iteration #  6     ecut=   120.00 Ry     beta= 0.40
     Davidson diagonalization with overlap
     ethr =  4.79E-09,  avg # of iterations =  5.3

     negative rho (up, down):  2.288E-06 0.000E+00

     total cpu time spent up to now is      276.3 secs

     total energy              =   -1077.90577021 Ry
     estimated scf accuracy    <       0.00000261 Ry

     iteration #  7     ecut=   120.00 Ry     beta= 0.40
     Davidson diagonalization with overlap
     ethr =  1.81E-09,  avg # of iterations =  4.7

     total cpu time spent up to now is      280.0 secs

     End of self-consistent calculation

          k = 0.0000 0.0000 0.0000 ( 76179 PWs)   bands (ev):

   -58.2232 -58.2219 -58.1636 -58.1557 -57.7952 -57.7932 -34.5413 -34.5400
   -34.4516 -34.4480 -34.4075 -34.4072 -34.3555 -34.3531 -34.3518 -34.3460
   -34.2499 -34.2340 -34.2057 -34.2035 -34.0491 -34.0472 -33.8379 -33.8360
   -19.3375 -19.1763 -18.7101 -18.3181 -18.2298 -18.2165 -17.9358 -17.9011
   -17.5931 -17.5920 -17.2892 -17.2809  -6.8985  -6.6604  -6.3292  -6.2809
    -5.9239  -5.6699  -5.5795  -5.3995  -5.2911  -5.2852  -4.9185  -4.9029
    -4.7560  -4.6260  -4.6252  -4.4488  -4.2648  -4.0535  -4.0447  -3.6308
    -3.4528  -3.3331  -3.3158  -3.2669  -2.9869  -2.9739  -2.7940  -2.7305
    -2.6794  -2.4556  -2.2838  -2.1888  -2.0811  -2.0133  -1.7272  -1.4543
     0.7636   0.9413   1.1434   1.2161   1.3049   1.3331   1.3787   1.4681
     1.5762   1.6325   1.8151   2.2969   2.3716   2.4109

          k = 0.0000 0.1721 0.0000 ( 76281 PWs)   bands (ev):

   -58.2186 -58.2173 -58.1589 -58.1515 -57.7905 -57.7885 -34.5291 -34.5279
   -34.4427 -34.4387 -34.4114 -34.4075 -34.4014 -34.3987 -34.3541 -34.3424
   -34.2966 -34.2851 -34.2009 -34.1987 -34.0415 -34.0397 -33.8921 -33.8903
   -19.2173 -19.0646 -18.6213 -18.2499 -18.1542 -18.1445 -17.9592 -17.9294
   -17.6436 -17.6411 -17.3214 -17.3144  -6.7325  -6.5140  -6.1898  -6.1390
    -5.8436  -5.6265  -5.5328  -5.4455  -5.4064  -5.3691  -5.1556  -4.9867
    -4.6347  -4.6056  -4.4108  -4.3355  -4.2070  -3.9326  -3.9211  -3.8329
    -3.7148  -3.3995  -3.3387  -3.2575  -3.2408  -3.0391  -3.0205  -2.8222
    -2.8167  -2.6636  -2.4220  -2.1845  -2.1519  -1.9827  -1.7857  -1.5034
     0.9194   1.0530   1.1951   1.2136   1.3242   1.3757   1.4352   1.5364
     1.6562   1.7378   1.8367   1.9849   2.0318   2.4523

          k = 0.0000 0.3441 0.0000 ( 76251 PWs)   bands (ev):

   -58.2069 -58.2056 -58.1469 -58.1408 -57.7784 -57.7764 -34.5502 -34.5490
   -34.4910 -34.4884 -34.4439 -34.4307 -34.4132 -34.4084 -34.3823 -34.3797
   -34.3338 -34.3302 -34.1918 -34.1896 -34.0583 -34.0566 -33.9899 -33.9881
   -18.9001 -18.7756 -18.4391 -18.2235 -18.0438 -17.9790 -17.9078 -17.8815
   -17.7581 -17.7519 -17.3941 -17.3908  -6.2936  -6.1513  -5.8585  -5.8451
    -5.6741  -5.5818  -5.5109  -5.4725  -5.3759  -5.3639  -5.2571  -5.1009
    -4.7608  -4.6225  -4.4046  -4.4012  -4.3065  -4.1168  -4.0338  -4.0244
    -3.9709  -3.7003  -3.6937  -3.3349  -3.2863  -3.0991  -3.0330  -2.8892
    -2.7738  -2.6797  -2.5190  -2.4655  -2.3929  -2.0876  -1.9435  -1.7213
     1.0418   1.1105   1.1901   1.2310   1.2534   1.5690   1.6059   1.6437
     1.8195   1.8958   1.9905   2.0372   2.0641   2.2874

          k = 0.0000 0.5162 0.0000 ( 76270 PWs)   bands (ev):

   -58.1935 -58.1922 -58.1330 -58.1289 -57.7647 -57.7627 -34.6949 -34.6938
   -34.5795 -34.5697 -34.4523 -34.4510 -34.3951 -34.3944 -34.3641 -34.3623
   -34.3236 -34.3197 -34.2097 -34.2081 -34.1688 -34.1666 -33.9769 -33.9750
   -18.5069 -18.4370 -18.3947 -18.3399 -17.9939 -17.9230 -17.8856 -17.8108
   -17.6964 -17.6790 -17.4159 -17.4158  -5.8440  -5.7973  -5.7941  -5.7420
    -5.6289  -5.5574  -5.5180  -5.4697  -5.3621  -5.3361  -5.2784  -5.1022
    -4.9414  -4.8767  -4.6148  -4.5868  -4.4178  -4.1016  -4.0133  -3.9918
    -3.9566  -3.7821  -3.5782  -3.3868  -3.2889  -3.1208  -2.9888  -2.9029
    -2.8533  -2.7340  -2.6750  -2.6026  -2.5619  -2.2945  -2.2111  -2.1023
     0.8886   1.0428   1.1224   1.3546   1.5347   1.5540   1.7788   1.8012
     1.9185   1.9941   2.0830   2.2393   2.3555   2.3582

          k = 0.0000 0.6883 0.0000 ( 76376 PWs)   bands (ev):

   -58.1848 -58.1835 -58.1233 -58.1217 -57.7557 -57.7537 -34.7891 -34.7881
   -34.6671 -34.6639 -34.4268 -34.4257 -34.3887 -34.3885 -34.3496 -34.3487
   -34.3133 -34.3117 -34.2935 -34.2921 -34.1710 -34.1686 -33.9596 -33.9577
   -18.4552 -18.4404 -18.2089 -18.1829 -18.0725 -17.9899 -17.8033 -17.7994
   -17.6397 -17.6055 -17.3333 -17.3328  -6.1988  -6.1224  -5.9259  -5.8410
    -5.5254  -5.5123  -5.4485  -5.3419  -5.2566  -5.2332  -5.1826  -5.1754
    -4.7320  -4.7254  -4.4674  -4.3838  -4.1814  -4.0264  -4.0157  -3.9400
    -3.9291  -3.8693  -3.7080  -3.4924  -3.2823  -3.1858  -3.0424  -2.9475
    -2.8294  -2.7941  -2.7909  -2.6767  -2.6397  -2.5603  -2.3849  -2.2435
     0.8266   1.0281   1.2036   1.3960   1.5417   1.7382   1.7831   1.8641
     1.9212   2.0150   2.1682   2.1695   2.4583   2.4943

          k = 0.1629 0.0000 0.0000 ( 76264 PWs)   bands (ev):

   -58.2231 -58.2219 -58.1632 -58.1563 -57.7952 -57.7932 -34.5423 -34.5412
   -34.4525 -34.4513 -34.4079 -34.4064 -34.3536 -34.3530 -34.3517 -34.3453
   -34.2489 -34.2351 -34.2055 -34.2033 -34.0490 -34.0471 -33.8379 -33.8360
   -19.2651 -19.1349 -18.7144 -18.3624 -18.2353 -18.2098 -17.9519 -17.9309
   -17.6197 -17.5897 -17.2964 -17.2919  -6.8345  -6.7065  -6.3089  -6.2774
    -5.7975  -5.6329  -5.5506  -5.3181  -5.2969  -5.2926  -4.9288  -4.9096
    -4.7517  -4.6302  -4.6286  -4.4092  -4.2477  -4.1148  -3.8694  -3.5817
    -3.4929  -3.3197  -3.2730  -3.2594  -3.0097  -2.9770  -2.8257  -2.7407
    -2.6120  -2.5808  -2.3712  -2.3341  -2.2854  -2.1781  -1.8476  -1.5685
     0.8261   0.8947   1.1562   1.2396   1.3268   1.3903   1.4149   1.5107
     1.6621   1.7049   1.9483   2.2921   2.3169   2.3371

          k = 0.1629 0.1721 0.0000 ( 76282 PWs)   bands (ev):

   -58.2185 -58.2172 -58.1585 -58.1520 -57.7905 -57.7885 -34.5301 -34.5289
   -34.4430 -34.4423 -34.4104 -34.4087 -34.4000 -34.3992 -34.3522 -34.3419
   -34.2959 -34.2859 -34.2007 -34.1985 -34.0415 -34.0396 -33.8921 -33.8903
   -19.1487 -19.0250 -18.6242 -18.2921 -18.1542 -18.1309 -17.9787 -17.9637
   -17.6691 -17.6396 -17.3284 -17.3245  -6.6767  -6.5596  -6.1717  -6.1373
    -5.7580  -5.6368  -5.5226  -5.4408  -5.4081  -5.3226  -5.1157  -4.9546
    -4.6194  -4.6012  -4.3957  -4.2927  -4.2094  -4.0310  -3.8764  -3.6907
    -3.6501  -3.5247  -3.4030  -3.1708  -3.1516  -3.0455  -3.0188  -2.8403
    -2.8285  -2.7323  -2.4534  -2.2891  -2.2869  -2.1411  -1.9063  -1.6179
     0.9407   1.0126   1.2015   1.2936   1.3206   1.4156   1.4872   1.5523
     1.7189   1.7433   1.9289   1.9922   2.0591   2.4574

          k = 0.1629 0.3441 0.0000 ( 76223 PWs)   bands (ev):

   -58.2068 -58.2056 -58.1466 -58.1412 -57.7784 -57.7764 -34.5501 -34.5490
   -34.4914 -34.4894 -34.4429 -34.4321 -34.4140 -34.4100 -34.3821 -34.3799
   -34.3326 -34.3292 -34.1917 -34.1895 -34.0584 -34.0566 -33.9898 -33.9880
   -18.8447 -18.7414 -18.4345 -18.2389 -18.0556 -17.9828 -17.9269 -17.8977
   -17.7839 -17.7496 -17.4001 -17.3979  -6.2692  -6.1870  -5.9163  -5.8173
    -5.6915  -5.6626  -5.4957  -5.4634  -5.4615  -5.4169  -5.0368  -4.9360
    -4.8252  -4.6189  -4.4264  -4.3768  -4.2492  -4.2161  -3.9992  -3.9258
    -3.9059  -3.6981  -3.6907  -3.3357  -3.3139  -3.0559  -3.0094  -2.9414
    -2.8062  -2.6726  -2.5251  -2.4457  -2.4258  -2.1665  -2.0124  -1.7934
     1.0069   1.1155   1.1809   1.2559   1.3442   1.5908   1.6152   1.6492
     1.8388   1.8674   1.9808   2.0089   2.1801   2.2834

          k = 0.1629 0.5162 0.0000 ( 76310 PWs)   bands (ev):

   -58.1935 -58.1922 -58.1327 -58.1292 -57.7647 -57.7627 -34.6948 -34.6938
   -34.5788 -34.5704 -34.4527 -34.4514 -34.3959 -34.3948 -34.3641 -34.3630
   -34.3228 -34.3194 -34.2098 -34.2081 -34.1687 -34.1665 -33.9769 -33.9750
   -18.4864 -18.4273 -18.3813 -18.3237 -17.9789 -17.9622 -17.9083 -17.8062
   -17.7019 -17.6877 -17.4164 -17.4162  -5.8913  -5.8468  -5.7966  -5.7877
    -5.6517  -5.6002  -5.5823  -5.4817  -5.4188  -5.3708  -5.3353  -5.1701
    -4.9294  -4.6759  -4.5000  -4.4938  -4.3392  -4.1166  -4.0855  -3.9779
    -3.9309  -3.8043  -3.5121  -3.3394  -3.3324  -3.0445  -2.9771  -2.9224
    -2.8669  -2.7670  -2.6310  -2.5868  -2.4899  -2.2739  -2.2125  -2.0678
     0.9197   1.0518   1.0978   1.4419   1.5622   1.5753   1.7840   1.8022
     1.9614   1.9646   2.0484   2.0844   2.2523   2.3342

          k = 0.1629 0.6883 0.0000 ( 76348 PWs)   bands (ev):

   -58.1848 -58.1835 -58.1232 -58.1218 -57.7557 -57.7537 -34.7890 -34.7881
   -34.6669 -34.6641 -34.4270 -34.4259 -34.3890 -34.3887 -34.3497 -34.3491
   -34.3133 -34.3117 -34.2934 -34.2921 -34.1711 -34.1687 -33.9597 -33.9578
   -18.4612 -18.4515 -18.1960 -18.1760 -18.0317 -18.0269 -17.8126 -17.7901
   -17.6426 -17.6102 -17.3278 -17.3274  -6.1967  -6.1536  -5.9373  -5.8960
    -5.5769  -5.5671  -5.4571  -5.4131  -5.4108  -5.2741  -5.1717  -5.1703
    -4.9249  -4.6894  -4.4055  -4.3817  -4.1539  -4.0759  -4.0005  -3.9071
    -3.7916  -3.7869  -3.6265  -3.4102  -3.1641  -3.0761  -3.0145  -2.9427
    -2.8454  -2.8335  -2.7191  -2.6562  -2.5574  -2.5326  -2.3544  -2.2166
     0.8892   1.0441   1.2964   1.3051   1.6511   1.7357   1.7853   1.7900
     1.9299   2.0078   2.1421   2.1480   2.3614   2.3895

          k = 0.3258 0.0000 0.0000 ( 76372 PWs)   bands (ev):

   -58.2230 -58.2217 -58.1618 -58.1578 -57.7952 -57.7932 -34.5443 -34.5434
   -34.4561 -34.4551 -34.4081 -34.4060 -34.3527 -34.3514 -34.3491 -34.3446
   -34.2462 -34.2382 -34.2049 -34.2027 -34.0488 -34.0470 -33.8379 -33.8361
   -19.0806 -19.0323 -18.7179 -18.4658 -18.2868 -18.2689 -17.9707 -17.9501
   -17.6423 -17.6044 -17.3141 -17.3120  -6.7444  -6.7368  -6.3624  -6.2635
    -5.6362  -5.6091  -5.3089  -5.3075  -5.2303  -4.9900  -4.9467  -4.9264
    -4.6367  -4.6349  -4.5802  -4.3300  -4.2622  -4.1819  -3.7671  -3.6665
    -3.5292  -3.2922  -3.2691  -3.2142  -3.0952  -3.0822  -2.8292  -2.8043
    -2.7263  -2.7230  -2.5399  -2.4891  -2.4682  -2.4228  -2.0796  -1.8712
     0.8784   0.8844   1.1335   1.2488   1.3414   1.4465   1.6197   1.6451
     1.8443   1.9399   2.1557   2.1866   2.1951   2.2915

          k = 0.3258 0.1721 0.0000 ( 76383 PWs)   bands (ev):

   -58.2184 -58.2171 -58.1572 -58.1534 -57.7905 -57.7885 -34.5320 -34.5310
   -34.4470 -34.4450 -34.4115 -34.4075 -34.3997 -34.3992 -34.3477 -34.3416
   -34.2939 -34.2880 -34.2003 -34.1981 -34.0414 -34.0395 -33.8921 -33.8903
   -18.9744 -18.9271 -18.6252 -18.3887 -18.2064 -18.1864 -17.9968 -17.9789
   -17.6906 -17.6527 -17.3451 -17.3430  -6.5972  -6.5904  -6.2222  -6.1245
    -5.6037  -5.5953  -5.5481  -5.4990  -5.3362  -5.2878  -4.9111  -4.7240
    -4.6095  -4.5819  -4.3046  -4.2737  -4.1544  -4.0491  -3.8633  -3.6775
    -3.6307  -3.5613  -3.3567  -3.2067  -3.1259  -3.0895  -2.9966  -2.9666
    -2.9053  -2.7605  -2.6335  -2.5965  -2.3862  -2.3321  -2.1020  -1.8659
     0.9487   0.9674   1.1969   1.3413   1.4338   1.4486   1.5849   1.6004
     1.8652   1.8902   1.9957   2.0461   2.1926   2.4263

          k = 0.3258 0.3441 0.0000 ( 76318 PWs)   bands (ev):

   -58.2068 -58.2055 -58.1455 -58.1424 -57.7784 -57.7764 -34.5502 -34.5488
   -34.4925 -34.4913 -34.4406 -34.4350 -34.4154 -34.4134 -34.3817 -34.3806
   -34.3300 -34.3278 -34.1916 -34.1894 -34.0584 -34.0567 -33.9896 -33.9878
   -18.7035 -18.6574 -18.4248 -18.2871 -18.1096 -18.0528 -17.9307 -17.9262
   -17.7944 -17.7604 -17.4128 -17.4114  -6.2234  -6.2212  -5.9451  -5.8557
    -5.7263  -5.7257  -5.5758  -5.5484  -5.4731  -5.4244  -4.9043  -4.8686
    -4.6165  -4.4492  -4.3952  -4.3800  -4.2504  -4.1794  -3.8990  -3.8751
    -3.7715  -3.7316  -3.6588  -3.3811  -3.2545  -3.0719  -3.0552  -2.9502
    -2.8289  -2.7827  -2.5447  -2.4669  -2.3982  -2.3418  -2.1639  -1.9740
     1.0719   1.0760   1.2170   1.3491   1.3893   1.5725   1.6138   1.6773
     1.8894   1.8926   2.1051   2.1173   2.2125   2.2229

          k = 0.3258 0.5162 0.0000 ( 76259 PWs)   bands (ev):

   -58.1934 -58.1922 -58.1320 -58.1299 -57.7647 -57.7627 -34.6947 -34.6937
   -34.5770 -34.5722 -34.4535 -34.4522 -34.3969 -34.3967 -34.3648 -34.3637
   -34.3211 -34.3187 -34.2100 -34.2083 -34.1685 -34.1663 -33.9770 -33.9751
   -18.4396 -18.4088 -18.3458 -18.2936 -18.0235 -17.9783 -17.9221 -17.8231
   -17.7154 -17.7071 -17.4170 -17.4170  -5.9584  -5.9213  -5.8983  -5.8014
    -5.7224  -5.7179  -5.6453  -5.6056  -5.4973  -5.3450  -5.2788  -5.2735
    -4.8437  -4.5631  -4.4669  -4.4186  -4.2400  -4.0602  -3.9549  -3.9049
    -3.8585  -3.7991  -3.4993  -3.3325  -3.2664  -3.1424  -2.9595  -2.8381
    -2.7890  -2.7458  -2.5845  -2.5280  -2.3645  -2.2748  -2.2349  -2.0908
     0.9819   1.1195   1.1986   1.5033   1.5259   1.6515   1.6977   1.8183
     1.8333   1.9158   2.0459   2.1063   2.2227   2.2429

          k = 0.3258 0.6883 0.0000 ( 76319 PWs)   bands (ev):

   -58.1847 -58.1835 -58.1230 -58.1220 -57.7557 -57.7537 -34.7890 -34.7880
   -34.6663 -34.6645 -34.4270 -34.4259 -34.3898 -34.3897 -34.3503 -34.3496
   -34.3131 -34.3118 -34.2932 -34.2919 -34.1713 -34.1689 -33.9599 -33.9580
   -18.4727 -18.4682 -18.1891 -18.1228 -18.0749 -17.9979 -17.8187 -17.7860
   -17.6469 -17.6215 -17.3176 -17.3173  -6.1924  -6.1878  -6.0271  -6.0037
    -5.7895  -5.7527  -5.5639  -5.4823  -5.3786  -5.2930  -5.1771  -5.1676
    -4.9180  -4.7561  -4.4755  -4.3618  -4.1035  -4.0631  -3.9870  -3.8757
    -3.8148  -3.7301  -3.3742  -3.2923  -3.1334  -3.0175  -2.9704  -2.8474
    -2.7417  -2.7216  -2.6067  -2.5415  -2.4151  -2.3709  -2.2853  -2.1666
     0.9381   1.0631   1.2709   1.4102   1.6554   1.7420   1.7781   1.8083
     1.9430   1.9838   2.1007   2.1079   2.2437   2.3001

          k =-0.4887 0.0000 0.0000 ( 76438 PWs)   bands (ev):

   -58.2229 -58.2217 -58.1602 -58.1594 -57.7952 -57.7932 -34.5454 -34.5444
   -34.4576 -34.4572 -34.4071 -34.4070 -34.3526 -34.3512 -34.3456 -34.3455
   -34.2426 -34.2420 -34.2047 -34.2025 -34.0487 -34.0469 -33.8380 -33.8361
   -18.9555 -18.9550 -18.6404 -18.6399 -18.3334 -18.3309 -17.9512 -17.9510
   -17.6327 -17.6323 -17.3237 -17.3216  -6.7299  -6.7295  -6.3290  -6.3288
    -5.6179  -5.6156  -5.3155  -5.3143  -4.9464  -4.9446  -4.6387  -4.6376
    -4.5993  -4.5968  -4.5217  -4.5206  -4.1843  -4.1837  -4.0578  -4.0555
    -3.4039  -3.4023  -3.2184  -3.2171  -3.1532  -3.1515  -2.8632  -2.8603
    -2.7506  -2.7496  -2.5436  -2.5408  -2.3925  -2.3917  -2.2090  -2.2084
     0.8846   0.8852   1.1817   1.1822   1.4345   1.4354   1.6680   1.6685
     2.0989   2.1012   2.1566   2.1586   2.3219   2.3222

          k =-0.4887 0.1721 0.0000 ( 76384 PWs)   bands (ev):

   -58.2184 -58.2171 -58.1557 -58.1549 -57.7905 -57.7885 -34.5329 -34.5320
   -34.4478 -34.4476 -34.4099 -34.4090 -34.3996 -34.3991 -34.3436 -34.3434
   -34.2912 -34.2906 -34.2001 -34.1979 -34.0413 -34.0395 -33.8921 -33.8903
   -18.8551 -18.8546 -18.5514 -18.5509 -18.2563 -18.2539 -17.9731 -17.9725
   -17.6798 -17.6795 -17.3540 -17.3520  -6.5847  -6.5843  -6.1880  -6.1878
    -5.5839  -5.5821  -5.5267  -5.5252  -5.2832  -5.2821  -4.6352  -4.6337
    -4.5497  -4.5472  -4.2775  -4.2766  -4.0390  -4.0373  -3.8627  -3.8621
    -3.5873  -3.5863  -3.3243  -3.3234  -3.1647  -3.1632  -3.0119  -3.0088
    -2.9209  -2.9190  -2.7134  -2.7111  -2.3103  -2.3099  -2.1204  -2.1189
     0.9374   0.9384   1.2679   1.2684   1.4932   1.4942   1.6179   1.6193
     1.9291   1.9306   2.2689   2.2695   2.2886   2.2894

          k =-0.4887 0.3441 0.0000 ( 76352 PWs)   bands (ev):

   -58.2067 -58.2054 -58.1444 -58.1435 -57.7784 -57.7764 -34.5501 -34.5489
   -34.4931 -34.4921 -34.4382 -34.4377 -34.4156 -34.4154 -34.3815 -34.3812
   -34.3279 -34.3278 -34.1915 -34.1893 -34.0585 -34.0567 -33.9895 -33.9877
   -18.5993 -18.5990 -18.3813 -18.3805 -18.1384 -18.1372 -17.9225 -17.9201
   -17.7824 -17.7818 -17.4194 -17.4180  -6.2186  -6.2182  -5.8881  -5.8876
    -5.7811  -5.7807  -5.5987  -5.5982  -5.4387  -5.4363  -4.9268  -4.9244
    -4.4485  -4.4474  -4.3640  -4.3627  -4.0052  -4.0037  -3.9361  -3.9337
    -3.7023  -3.7006  -3.4997  -3.4994  -3.2493  -3.2485  -3.0671  -3.0659
    -2.8241  -2.8237  -2.5187  -2.5183  -2.3755  -2.3748  -2.1602  -2.1584
     1.0859   1.0868   1.3525   1.3530   1.3943   1.3947   1.7201   1.7217
     1.9830   1.9839   2.1444   2.1450   2.1796   2.1801

          k =-0.4887 0.5162 0.0000 ( 76318 PWs)   bands (ev):

   -58.1934 -58.1921 -58.1314 -58.1306 -57.7647 -57.7627 -34.6947 -34.6936
   -34.5749 -34.5742 -34.4537 -34.4526 -34.3975 -34.3975 -34.3648 -34.3646
   -34.3195 -34.3191 -34.2101 -34.2085 -34.1684 -34.1661 -33.9771 -33.9752
   -18.4068 -18.4064 -18.3023 -18.3015 -18.0294 -18.0287 -17.8695 -17.8680
   -17.7228 -17.7188 -17.4173 -17.4173  -5.9679  -5.9677  -5.8871  -5.8861
    -5.7490  -5.7483  -5.6887  -5.6877  -5.4533  -5.4515  -5.2469  -5.2446
    -4.6802  -4.6799  -4.4645  -4.4619  -4.0504  -4.0482  -3.9590  -3.9578
    -3.7064  -3.7053  -3.4638  -3.4635  -3.2280  -3.2272  -2.8544  -2.8511
    -2.7068  -2.7061  -2.4558  -2.4537  -2.3276  -2.3251  -2.2481  -2.2458
     1.1500   1.1512   1.3777   1.3778   1.4265   1.4266   1.8054   1.8067
     1.9371   1.9381   2.0503   2.0516   2.1894   2.1896

          k =-0.4887 0.6883 0.0000 ( 76294 PWs)   bands (ev):

   -58.1847 -58.1834 -58.1229 -58.1221 -57.7557 -57.7537 -34.7889 -34.7880
   -34.6658 -34.6649 -34.4268 -34.4257 -34.3904 -34.3902 -34.3505 -34.3501
   -34.3128 -34.3120 -34.2931 -34.2918 -34.1714 -34.1690 -33.9600 -33.9582
   -18.4766 -18.4764 -18.1565 -18.1562 -18.0284 -18.0280 -17.8015 -17.7975
   -17.6391 -17.6378 -17.3129 -17.3126  -6.1815  -6.1813  -6.0884  -6.0877
    -5.8679  -5.8676  -5.5643  -5.5636  -5.3245  -5.3233  -5.1757  -5.1737
    -4.7307  -4.7301  -4.5451  -4.5437  -4.0721  -4.0713  -3.8744  -3.8737
    -3.8043  -3.8034  -3.3125  -3.3115  -3.0801  -3.0779  -2.8858  -2.8847
    -2.6790  -2.6786  -2.3902  -2.3899  -2.3219  -2.3190  -2.2087  -2.2083
     0.9700   0.9706   1.3265   1.3270   1.7430   1.7432   1.8237   1.8245
     1.9763   1.9772   2.0844   2.0852   2.2315   2.2317

     the Fermi energy is    -0.3490 ev

!    total energy              =   -1077.90577066 Ry
     estimated scf accuracy    <       0.00000021 Ry
     smearing contrib. (-TS)   =      -0.00000000 Ry
     internal energy E=F+TS    =   -1077.90577066 Ry

     The total energy is F=E-TS. E is the sum of the following terms:
     one-electron contribution =  -24980.24938309 Ry
     hartree contribution      =   12502.92868422 Ry
     xc contribution           =    -170.06395461 Ry
     ewald contribution        =   11569.47888282 Ry

     convergence has been achieved in   7 iterations

     Forces acting on atoms (cartesian axes, Ry/au):

     atom    1 type  1   force =    -0.01305660    0.00000000   -0.00030649
     atom    2 type  1   force =    -0.00140709    0.00000000   -0.00426042
     atom    3 type  1   force =     0.01355113    0.00000000    0.00575002
     atom    4 type  1   force =     0.01346208    0.00000000   -0.00585177
     atom    5 type  1   force =    -0.00160368    0.00000000    0.00370544
     atom    6 type  1   force =    -0.01253473    0.00000000    0.00076291
     atom    7 type  2   force =    -0.00522266    0.00000000   -0.00092237
     atom    8 type  2   force =    -0.00006190    0.00000000   -0.00170684
     atom    9 type  2   force =     0.00467587    0.00000000    0.00228333
     atom   10 type  2   force =    -0.00456890    0.00000000    0.00001850
     atom   11 type  2   force =     0.00633218    0.00000000   -0.00248474
     atom   12 type  2   force =    -0.00061932    0.00000000    0.00034573
     atom   13 type  2   force =    -0.00410802    0.00000000   -0.00014238
     atom   14 type  2   force =     0.00455551    0.00000000   -0.00226426
     atom   15 type  2   force =    -0.00043234    0.00000000   -0.00032412
     atom   16 type  2   force =     0.00679736    0.00000000    0.00165144
     atom   17 type  2   force =    -0.00574232    0.00000000    0.00184479
     atom   18 type  2   force =    -0.00001658    0.00000000    0.00190122

     Total force =     0.032475     Total SCF correction =     0.001833


     Computing stress (Cartesian axis) and pressure

          total   stress  (Ry/bohr**3)                   (kbar)     P=        2.05
   0.00003650   0.00000000   0.00000033            5.37        0.00        0.05
   0.00000000  -0.00002898   0.00000000            0.00       -4.26        0.00
   0.00000033   0.00000000   0.00003421            0.05        0.00        5.03

     Energy error            =      4.5E-03 Ry
     Gradient error          =      1.4E-02 Ry/Bohr
     Cell gradient error     =      5.4E+00 kbar

     number of scf cycles    =   6
     number of bfgs steps    =   5

     enthalpy           old  =   -1077.9012269884 Ry
     enthalpy           new  =   -1077.9057706624 Ry

     CASE: enthalpy          _new < enthalpy          _old

     new trust radius        =       0.0818227039 bohr
     new conv_thr            =       0.0000001355 Ry

     new unit-cell volume =   3551.62970 a.u.^3 (   526.29722 Ang^3 )
     density =      1.51191 g/cm^3

CELL_PARAMETERS (angstrom)
   4.735919751   0.000000000   0.000000000
   0.000000000   2.965173485   0.000000000
   0.000000000   0.000000000  37.478019714

ATOMIC_POSITIONS (angstrom)
Ti               0.2021116726        0.0000000000       14.6348624955
Ti               2.5210016415        1.4825866547       16.8568256595
Ti               0.0952189446        0.0000000000       19.2091773644
Ti               2.4628424221        1.4825866547       21.4613512794
Ti               0.1523619145        0.0000000000       23.8150770396
Ti               2.5693566041        1.4825866547       26.0367680622
O                0.6957782918        1.4825867429       13.6517967874
O                1.4307204215        0.0000000000       16.0068517735
O                3.2726423096        0.0000000000       17.7785022412
O                0.8793009527        1.4825867429       18.2885628284
O                3.6927814116        1.4825867429       15.4086052601
O                1.4189365372        0.0000000000       20.5816075093
O                3.2462394274        0.0000000000       22.3817969218
O                0.9038404318        1.4825867429       22.8944264178
O                3.7882332323        1.4825867429       20.0896231333
O                1.3241676966        0.0000000000       25.2617951967
O                3.0645561207        0.0000000000       27.0206960879
O                3.7993055642        1.4825867429       24.6665221858



     Writing config-only to output data dir ./Out/pwscf.save/
     NEW-OLD atomic charge density approx. for the potential

     negative rho (up, down):  2.357E-04 0.000E+00

     total cpu time spent up to now is      285.9 secs

     Self-consistent Calculation

     iteration #  1     ecut=   120.00 Ry     beta= 0.40
     Davidson diagonalization with overlap
     ethr =  1.00E-06,  avg # of iterations = 10.3

     negative rho (up, down):  1.374E-04 0.000E+00

     total cpu time spent up to now is      293.7 secs

     total energy              =   -1077.90816028 Ry
     estimated scf accuracy    <       0.00257986 Ry

     iteration #  2     ecut=   120.00 Ry     beta= 0.40
     Davidson diagonalization with overlap
     c_bands:  1 eigenvalues not converged
     ethr =  1.79E-06,  avg # of iterations =  6.4

     negative rho (up, down):  8.239E-05 0.000E+00

     total cpu time spent up to now is      298.0 secs

     total energy              =   -1077.90831658 Ry
     estimated scf accuracy    <       0.00066722 Ry

     iteration #  3     ecut=   120.00 Ry     beta= 0.40
     Davidson diagonalization with overlap
     ethr =  4.63E-07,  avg # of iterations =  2.1

     negative rho (up, down):  3.584E-05 0.000E+00

     total cpu time spent up to now is      301.3 secs

     total energy              =   -1077.90840895 Ry
     estimated scf accuracy    <       0.00022633 Ry

     iteration #  4     ecut=   120.00 Ry     beta= 0.40
     Davidson diagonalization with overlap
     ethr =  1.57E-07,  avg # of iterations =  2.0

     negative rho (up, down):  2.019E-05 0.000E+00

     total cpu time spent up to now is      304.6 secs

     total energy              =   -1077.90844064 Ry
     estimated scf accuracy    <       0.00003935 Ry

     iteration #  5     ecut=   120.00 Ry     beta= 0.40
     Davidson diagonalization with overlap
     ethr =  2.73E-08,  avg # of iterations =  4.0

     negative rho (up, down):  8.281E-06 0.000E+00

     total cpu time spent up to now is      308.3 secs

     total energy              =   -1077.90844967 Ry
     estimated scf accuracy    <       0.00001228 Ry

     iteration #  6     ecut=   120.00 Ry     beta= 0.40
     Davidson diagonalization with overlap
     ethr =  8.53E-09,  avg # of iterations =  5.8

     negative rho (up, down):  2.332E-06 0.000E+00

     total cpu time spent up to now is      312.2 secs

     total energy              =   -1077.90845218 Ry
     estimated scf accuracy    <       0.00000286 Ry

     iteration #  7     ecut=   120.00 Ry     beta= 0.40
     Davidson diagonalization with overlap
     ethr =  1.98E-09,  avg # of iterations =  5.8

     negative rho (up, down):  5.953E-07 0.000E+00

     total cpu time spent up to now is      316.1 secs

     total energy              =   -1077.90845282 Ry
     estimated scf accuracy    <       0.00000027 Ry

     iteration #  8     ecut=   120.00 Ry     beta= 0.40
     Davidson diagonalization with overlap
     ethr =  1.90E-10,  avg # of iterations =  5.3

     total cpu time spent up to now is      320.3 secs

     End of self-consistent calculation

          k = 0.0000 0.0000 0.0000 ( 76179 PWs)   bands (ev):

   -58.2878 -58.2824 -58.1947 -58.1864 -57.8754 -57.8745 -34.5923 -34.5876
   -34.5073 -34.5040 -34.4645 -34.4599 -34.4062 -34.4010 -34.3969 -34.3804
   -34.2856 -34.2693 -34.2626 -34.2617 -34.1336 -34.1321 -33.9168 -33.9153
   -19.3647 -19.1909 -18.7472 -18.4052 -18.3124 -18.2837 -17.9577 -17.9305
   -17.6740 -17.6687 -17.3612 -17.3541  -6.9140  -6.6511  -6.3923  -6.3086
    -5.9446  -5.7441  -5.6729  -5.4218  -5.2737  -5.2674  -4.9807  -4.9736
    -4.7957  -4.7046  -4.6963  -4.4990  -4.2865  -4.0987  -4.0899  -3.6369
    -3.5319  -3.3851  -3.3312  -3.3195  -3.0255  -3.0127  -2.8456  -2.8415
    -2.7653  -2.5845  -2.4175  -2.2645  -2.2378  -2.0890  -1.8239  -1.5293
     0.7398   0.9175   1.0961   1.1948   1.2478   1.2530   1.3740   1.3932
     1.5466   1.6970   1.7092   2.2127   2.3430   2.3848

          k = 0.0000 0.1723 0.0000 ( 76281 PWs)   bands (ev):

   -58.2831 -58.2778 -58.1899 -58.1821 -57.8706 -57.8697 -34.5806 -34.5759
   -34.5009 -34.4977 -34.4623 -34.4589 -34.4529 -34.4492 -34.3971 -34.3775
   -34.3319 -34.3212 -34.2577 -34.2568 -34.1257 -34.1241 -33.9720 -33.9703
   -19.2445 -19.0792 -18.6554 -18.3254 -18.2333 -18.2115 -17.9932 -17.9639
   -17.7212 -17.7199 -17.3926 -17.3864  -6.7486  -6.5034  -6.2529  -6.1654
    -5.8730  -5.6974  -5.6181  -5.4486  -5.4005  -5.3989  -5.2124  -5.0372
    -4.7098  -4.6888  -4.4579  -4.3611  -4.2122  -3.9723  -3.9674  -3.8564
    -3.7584  -3.5292  -3.4004  -3.2688  -3.2331  -3.1206  -3.1126  -2.8753
    -2.8723  -2.7865  -2.5412  -2.2768  -2.2710  -2.0630  -1.8769  -1.5787
     0.8740   1.0280   1.1470   1.1559   1.2647   1.3205   1.3750   1.4651
     1.6232   1.7150   1.8345   1.9165   1.9897   2.3962

          k = 0.0000 0.3445 0.0000 ( 76251 PWs)   bands (ev):

   -58.2714 -58.2660 -58.1776 -58.1712 -57.8584 -57.8576 -34.6038 -34.5990
   -34.5416 -34.5366 -34.4953 -34.4875 -34.4633 -34.4564 -34.4305 -34.4271
   -34.3706 -34.3639 -34.2489 -34.2479 -34.1384 -34.1366 -34.0744 -34.0728
   -18.9274 -18.7904 -18.4589 -18.2375 -18.0817 -18.0455 -17.9889 -17.9788
   -17.8394 -17.8362 -17.4610 -17.4560  -6.3130  -6.1416  -5.9066  -5.8725
    -5.7136  -5.6077  -5.5467  -5.5385  -5.4407  -5.4389  -5.2700  -5.1594
    -4.7439  -4.5987  -4.4897  -4.4447  -4.3786  -4.1614  -4.1130  -4.0991
    -4.0126  -3.7595  -3.7390  -3.4006  -3.3488  -3.2067  -3.1333  -2.9204
    -2.8047  -2.7225  -2.6038  -2.5423  -2.5007  -2.1531  -2.0224  -1.7966
     0.9887   1.0578   1.1224   1.1632   1.2089   1.4998   1.5013   1.6166
     1.7532   1.8270   1.9675   1.9802   2.0666   2.1965

          k = 0.0000 0.5168 0.0000 ( 76270 PWs)   bands (ev):

   -58.2579 -58.2525 -58.1634 -58.1590 -57.8444 -57.8436 -34.7486 -34.7439
   -34.6217 -34.6106 -34.5056 -34.5007 -34.4670 -34.4632 -34.4050 -34.4000
   -34.3609 -34.3540 -34.2885 -34.2861 -34.2275 -34.2267 -34.0614 -34.0600
   -18.5363 -18.4518 -18.3893 -18.3404 -18.0494 -17.9839 -17.9384 -17.8923
   -17.8263 -17.7961 -17.4741 -17.4678  -5.8823  -5.8378  -5.8151  -5.7403
    -5.6331  -5.5660  -5.5392  -5.5253  -5.4086  -5.3764  -5.3402  -5.1555
    -5.0103  -4.9579  -4.6863  -4.6080  -4.4673  -4.1239  -4.0764  -4.0670
    -4.0001  -3.7989  -3.6373  -3.4606  -3.4082  -3.1989  -3.0606  -2.9772
    -2.8982  -2.7740  -2.7598  -2.6610  -2.6183  -2.3362  -2.2674  -2.1878
     0.8486   0.9840   1.0549   1.3360   1.4926   1.4979   1.7003   1.7101
     1.8462   1.9217   2.0284   2.1669   2.2670   2.2702

          k = 0.0000 0.6891 0.0000 ( 76376 PWs)   bands (ev):

   -58.2491 -58.2437 -58.1537 -58.1515 -57.8353 -57.8345 -34.8431 -34.8384
   -34.7101 -34.7062 -34.4828 -34.4780 -34.4629 -34.4589 -34.3868 -34.3844
   -34.3754 -34.3727 -34.3500 -34.3469 -34.2257 -34.2251 -34.0438 -34.0423
   -18.4539 -18.4350 -18.2422 -18.1908 -18.1420 -18.0260 -17.9008 -17.8768
   -17.7447 -17.7060 -17.3972 -17.3912  -6.2162  -6.1230  -5.9540  -5.8716
    -5.5574  -5.5436  -5.4993  -5.4257  -5.2850  -5.2805  -5.2338  -5.2049
    -4.7977  -4.7894  -4.5110  -4.4029  -4.2147  -4.0782  -4.0742  -4.0265
    -4.0004  -3.9181  -3.7912  -3.5341  -3.3730  -3.2366  -3.1020  -2.9869
    -2.8931  -2.8556  -2.8501  -2.7356  -2.7084  -2.6150  -2.4314  -2.3187
     0.8132   1.0192   1.1334   1.3215   1.4596   1.7025   1.7449   1.7767
     1.8754   1.9643   2.0835   2.0873   2.4294   2.4916

          k = 0.1618 0.0000 0.0000 ( 76264 PWs)   bands (ev):

   -58.2877 -58.2824 -58.1942 -58.1869 -57.8754 -57.8745 -34.5933 -34.5886
   -34.5086 -34.5060 -34.4645 -34.4602 -34.4061 -34.4009 -34.3941 -34.3804
   -34.2846 -34.2705 -34.2623 -34.2614 -34.1335 -34.1320 -33.9169 -33.9154
   -19.2921 -19.1485 -18.7512 -18.4402 -18.3265 -18.2915 -17.9737 -17.9538
   -17.6975 -17.6670 -17.3667 -17.3625  -6.8461  -6.7076  -6.3391  -6.3264
    -5.8370  -5.7254  -5.6331  -5.3288  -5.2788  -5.2748  -4.9904  -4.9786
    -4.7896  -4.7092  -4.7007  -4.4587  -4.2810  -4.1524  -3.9112  -3.6056
    -3.5675  -3.3568  -3.3150  -3.2712  -3.0517  -3.0344  -2.8950  -2.8556
    -2.6914  -2.6809  -2.5040  -2.4630  -2.3747  -2.2535  -1.9439  -1.6486
     0.8149   0.8756   1.1243   1.2047   1.2693   1.3159   1.3570   1.5059
     1.6146   1.7524   1.8493   2.2069   2.2848   2.2992

          k = 0.1618 0.1723 0.0000 ( 76282 PWs)   bands (ev):

   -58.2831 -58.2777 -58.1894 -58.1826 -57.8706 -57.8697 -34.5815 -34.5767
   -34.5021 -34.4993 -34.4625 -34.4590 -34.4528 -34.4497 -34.3944 -34.3778
   -34.3312 -34.3218 -34.2575 -34.2566 -34.1256 -34.1241 -33.9719 -33.9703
   -19.1757 -19.0386 -18.6585 -18.3608 -18.2427 -18.2116 -18.0105 -17.9909
   -17.7455 -17.7170 -17.3981 -17.3939  -6.6887  -6.5600  -6.2000  -6.1855
    -5.7963  -5.7007  -5.5995  -5.4783  -5.4170  -5.3390  -5.1620  -4.9958
    -4.6980  -4.6815  -4.4329  -4.3247  -4.2411  -4.0657  -3.8973  -3.7184
    -3.7069  -3.6105  -3.4493  -3.2000  -3.1854  -3.1242  -3.1056  -2.9296
    -2.9011  -2.8153  -2.5562  -2.4017  -2.3826  -2.2159  -1.9952  -1.6914
     0.8977   0.9818   1.1503   1.2274   1.2634   1.3746   1.4313   1.5132
     1.6961   1.7059   1.8861   1.9195   2.0317   2.4021

          k = 0.1618 0.3445 0.0000 ( 76223 PWs)   bands (ev):

   -58.2713 -58.2659 -58.1773 -58.1716 -57.8584 -57.8576 -34.6038 -34.5989
   -34.5422 -34.5373 -34.4951 -34.4885 -34.4631 -34.4575 -34.4306 -34.4282
   -34.3690 -34.3632 -34.2488 -34.2479 -34.1384 -34.1366 -34.0743 -34.0727
   -18.8715 -18.7552 -18.4550 -18.2549 -18.0863 -18.0448 -18.0198 -17.9998
   -17.8612 -17.8351 -17.4656 -17.4608  -6.2858  -6.1877  -5.9329  -5.8604
    -5.7189  -5.6927  -5.5578  -5.5269  -5.5142  -5.4603  -5.0797  -4.9949
    -4.8106  -4.6302  -4.4967  -4.4573  -4.2840  -4.2726  -4.0334  -3.9948
    -3.9895  -3.7472  -3.7281  -3.4112  -3.3934  -3.1418  -3.0962  -2.9771
    -2.8503  -2.7211  -2.6118  -2.5216  -2.5133  -2.2352  -2.0911  -1.8710
     0.9442   1.0660   1.1196   1.2055   1.2772   1.5091   1.5353   1.6313
     1.7680   1.7936   1.9506   1.9544   2.1782   2.2062

          k = 0.1618 0.5168 0.0000 ( 76310 PWs)   bands (ev):

   -58.2579 -58.2525 -58.1632 -58.1593 -57.8444 -57.8436 -34.7486 -34.7438
   -34.6210 -34.6113 -34.5060 -34.5011 -34.4675 -34.4636 -34.4051 -34.4011
   -34.3598 -34.3539 -34.2885 -34.2862 -34.2274 -34.2266 -34.0615 -34.0600
   -18.5135 -18.4373 -18.3761 -18.3272 -18.0353 -18.0253 -17.9657 -17.8881
   -17.8294 -17.8034 -17.4744 -17.4682  -5.9305  -5.8923  -5.8044  -5.8025
    -5.6703  -5.6132  -5.5764  -5.5280  -5.4600  -5.3925  -5.3901  -5.2212
    -5.0122  -4.7651  -4.5899  -4.5170  -4.3847  -4.1805  -4.1274  -4.0127
    -3.9935  -3.8391  -3.5662  -3.4474  -3.4041  -3.1068  -3.0401  -2.9980
    -2.9281  -2.8119  -2.7030  -2.6396  -2.5593  -2.3314  -2.2778  -2.1588
     0.8832   1.0039   1.0362   1.4083   1.5164   1.5199   1.6872   1.7467
     1.8818   1.8888   1.9874   2.0292   2.1779   2.2459

          k = 0.1618 0.6891 0.0000 ( 76348 PWs)   bands (ev):

   -58.2491 -58.2437 -58.1537 -58.1515 -57.8353 -57.8345 -34.8430 -34.8384
   -34.7098 -34.7064 -34.4829 -34.4780 -34.4633 -34.4593 -34.3868 -34.3851
   -34.3754 -34.3726 -34.3498 -34.3469 -34.2258 -34.2251 -34.0439 -34.0424
   -18.4584 -18.4460 -18.2243 -18.2118 -18.0785 -18.0634 -17.8959 -17.8879
   -17.7443 -17.7067 -17.3931 -17.3870  -6.2143  -6.1640  -5.9563  -5.9276
    -5.6313  -5.6059  -5.4743  -5.4530  -5.4406  -5.3340  -5.2250  -5.1904
    -4.9841  -4.7237  -4.4544  -4.4339  -4.2032  -4.1360  -4.0691  -3.9782
    -3.8770  -3.8724  -3.6598  -3.4424  -3.2530  -3.1199  -3.0834  -3.0092
    -2.9088  -2.8838  -2.7897  -2.7196  -2.6302  -2.5887  -2.4114  -2.2979
     0.8796   1.0355   1.2368   1.2400   1.5641   1.6785   1.7421   1.7462
     1.8843   1.9582   2.0601   2.0673   2.3236   2.3437

          k = 0.3236 0.0000 0.0000 ( 76372 PWs)   bands (ev):

   -58.2877 -58.2823 -58.1928 -58.1884 -57.8754 -57.8746 -34.5952 -34.5905
   -34.5117 -34.5094 -34.4640 -34.4616 -34.4059 -34.4007 -34.3883 -34.3810
   -34.2818 -34.2735 -34.2618 -34.2608 -34.1333 -34.1318 -33.9169 -33.9154
   -19.1013 -19.0410 -18.7613 -18.5332 -18.3875 -18.3702 -17.9902 -17.9678
   -17.7170 -17.6843 -17.3809 -17.3775  -6.7489  -6.7369  -6.4005  -6.3029
    -5.7329  -5.7113  -5.2899  -5.2893  -5.2753  -5.0075  -5.0033  -4.9910
    -4.7172  -4.7087  -4.6178  -4.3612  -4.3044  -4.2449  -3.8325  -3.7064
    -3.5614  -3.3676  -3.2604  -3.2067  -3.1641  -3.1584  -2.9122  -2.8853
    -2.8325  -2.7903  -2.6329  -2.5925  -2.5756  -2.4997  -2.1799  -1.9537
     0.8763   0.8889   1.0991   1.2185   1.2990   1.4011   1.5635   1.6621
     1.8058   1.8684   2.0766   2.1412   2.1511   2.2062

          k = 0.3236 0.1723 0.0000 ( 76383 PWs)   bands (ev):

   -58.2830 -58.2777 -58.1881 -58.1839 -57.8706 -57.8698 -34.5832 -34.5785
   -34.5047 -34.5020 -34.4624 -34.4592 -34.4529 -34.4504 -34.3885 -34.3793
   -34.3291 -34.3235 -34.2571 -34.2562 -34.1255 -34.1240 -33.9719 -33.9703
   -18.9949 -18.9359 -18.6670 -18.4514 -18.3015 -18.2841 -18.0241 -18.0039
   -17.7646 -17.7318 -17.4113 -17.4076  -6.6016  -6.5912  -6.2581  -6.1626
    -5.6783  -5.6650  -5.5708  -5.5270  -5.3847  -5.3274  -4.9472  -4.7651
    -4.6910  -4.6507  -4.3466  -4.3005  -4.1911  -4.0911  -3.9042  -3.7537
    -3.6498  -3.5906  -3.4039  -3.2602  -3.1972  -3.1454  -3.0870  -3.0823
    -2.9757  -2.8398  -2.7157  -2.6634  -2.4695  -2.4038  -2.1903  -1.9397
     0.9134   0.9345   1.1253   1.2838   1.3921   1.3955   1.5564   1.6141
     1.8197   1.8231   1.9377   1.9762   2.1519   2.3677

          k = 0.3236 0.3445 0.0000 ( 76318 PWs)   bands (ev):

   -58.2713 -58.2659 -58.1762 -58.1727 -57.8584 -57.8576 -34.6037 -34.5988
   -34.5435 -34.5387 -34.4946 -34.4906 -34.4627 -34.4598 -34.4311 -34.4301
   -34.3658 -34.3624 -34.2488 -34.2478 -34.1385 -34.1367 -34.0740 -34.0724
   -18.7245 -18.6665 -18.4515 -18.3118 -18.1500 -18.1200 -18.0216 -18.0158
   -17.8751 -17.8441 -17.4751 -17.4703  -6.2310  -6.2267  -5.9727  -5.8765
    -5.7641  -5.7393  -5.6224  -5.5728  -5.5425  -5.5093  -4.9209  -4.8861
    -4.6587  -4.5396  -4.4628  -4.4325  -4.3168  -4.2107  -3.9762  -3.9425
    -3.8130  -3.7622  -3.7063  -3.4645  -3.3348  -3.1429  -3.1227  -3.0306
    -2.8843  -2.8424  -2.6087  -2.5273  -2.4639  -2.4071  -2.2453  -2.0512
     1.0054   1.0184   1.1367   1.2872   1.3112   1.4799   1.5906   1.6524
     1.8186   1.8589   2.0524   2.0690   2.1402   2.2132

          k = 0.3236 0.5168 0.0000 ( 76259 PWs)   bands (ev):

   -58.2579 -58.2525 -58.1626 -58.1599 -57.8444 -57.8436 -34.7485 -34.7437
   -34.6190 -34.6133 -34.5066 -34.5017 -34.4685 -34.4647 -34.4055 -34.4031
   -34.3573 -34.3538 -34.2886 -34.2863 -34.2272 -34.2264 -34.0615 -34.0601
   -18.4569 -18.4081 -18.3454 -18.3039 -18.0879 -18.0328 -17.9922 -17.9064
   -17.8397 -17.8224 -17.4751 -17.4687  -5.9963  -5.9683  -5.9129  -5.8070
    -5.7458  -5.7359  -5.6317  -5.6220  -5.5264  -5.3964  -5.3294  -5.3131
    -4.9185  -4.6215  -4.5451  -4.4839  -4.2958  -4.1358  -4.0372  -3.9443
    -3.8864  -3.8489  -3.5725  -3.3755  -3.3384  -3.1964  -3.0558  -2.9174
    -2.8443  -2.8117  -2.6356  -2.5760  -2.4338  -2.3568  -2.3203  -2.1892
     0.9594   1.0791   1.1336   1.4437   1.4561   1.6002   1.6356   1.7559
     1.8112   1.8320   1.9788   2.0447   2.1641   2.1657

          k = 0.3236 0.6891 0.0000 ( 76319 PWs)   bands (ev):

   -58.2491 -58.2437 -58.1535 -58.1516 -57.8353 -57.8345 -34.8430 -34.8383
   -34.7092 -34.7069 -34.4823 -34.4773 -34.4647 -34.4608 -34.3873 -34.3858
   -34.3751 -34.3723 -34.3492 -34.3471 -34.2260 -34.2253 -34.0441 -34.0427
   -18.4678 -18.4615 -18.2286 -18.1789 -18.0908 -18.0253 -17.9174 -17.8890
   -17.7431 -17.7119 -17.3852 -17.3792  -6.2125  -6.2062  -6.0435  -6.0289
    -5.8202  -5.7815  -5.5853  -5.4946  -5.4083  -5.3329  -5.2369  -5.2314
    -4.9620  -4.7770  -4.5228  -4.4167  -4.1633  -4.1154  -4.0422  -3.9398
    -3.9020  -3.8103  -3.4288  -3.3508  -3.1644  -3.1094  -3.0042  -2.8992
    -2.8176  -2.7901  -2.6903  -2.6527  -2.4899  -2.4565  -2.3590  -2.2614
     0.9562   1.0719   1.2188   1.3653   1.6037   1.6833   1.7362   1.7561
     1.8947   1.9292   2.0247   2.0308   2.1891   2.2278

          k =-0.4854 0.0000 0.0000 ( 76438 PWs)   bands (ev):

   -58.2876 -58.2823 -58.1915 -58.1897 -57.8754 -57.8746 -34.5961 -34.5915
   -34.5132 -34.5109 -34.4633 -34.4626 -34.4058 -34.4005 -34.3835 -34.3834
   -34.2784 -34.2769 -34.2615 -34.2606 -34.1333 -34.1317 -33.9169 -33.9154
   -18.9554 -18.9534 -18.7100 -18.7090 -18.4359 -18.4316 -17.9723 -17.9695
   -17.7113 -17.7107 -17.3884 -17.3849  -6.7307  -6.7285  -6.3681  -6.3678
    -5.7211  -5.7166  -5.2964  -5.2958  -5.0076  -5.0059  -4.7204  -4.7121
    -4.6436  -4.6427  -4.5494  -4.5483  -4.2555  -4.2550  -4.0975  -4.0947
    -3.4493  -3.4481  -3.2268  -3.2246  -3.2120  -3.2102  -2.9172  -2.9164
    -2.8340  -2.8318  -2.6630  -2.6617  -2.4941  -2.4925  -2.2875  -2.2871
     0.8884   0.8923   1.1517   1.1536   1.4214   1.4235   1.6197   1.6213
     2.0510   2.0520   2.0633   2.0640   2.2575   2.2602

          k =-0.4854 0.1723 0.0000 ( 76384 PWs)   bands (ev):

   -58.2830 -58.2776 -58.1869 -58.1852 -57.8706 -57.8698 -34.5840 -34.5794
   -34.5060 -34.5034 -34.4622 -34.4593 -34.4528 -34.4511 -34.3829 -34.3828
   -34.3270 -34.3256 -34.2569 -34.2560 -34.1255 -34.1239 -33.9719 -33.9703
   -18.8556 -18.8535 -18.6189 -18.6178 -18.3504 -18.3466 -18.0036 -18.0011
   -17.7577 -17.7571 -17.4182 -17.4144  -6.5859  -6.5836  -6.2255  -6.2251
    -5.6626  -5.6585  -5.5429  -5.5417  -5.3344  -5.3336  -4.7100  -4.7036
    -4.5985  -4.5974  -4.2990  -4.2976  -4.0717  -4.0679  -3.9482  -3.9473
    -3.6046  -3.6032  -3.3794  -3.3782  -3.2369  -3.2349  -3.1123  -3.1120
    -2.9909  -2.9885  -2.7685  -2.7670  -2.3909  -2.3890  -2.1983  -2.1977
     0.9035   0.9080   1.1979   1.1991   1.4555   1.4588   1.6125   1.6140
     1.8677   1.8681   2.1875   2.1895   2.2221   2.2258

          k =-0.4854 0.3445 0.0000 ( 76352 PWs)   bands (ev):

   -58.2712 -58.2659 -58.1753 -58.1736 -57.8584 -57.8576 -34.6037 -34.5988
   -34.5441 -34.5394 -34.4941 -34.4919 -34.4618 -34.4614 -34.4313 -34.4311
   -34.3633 -34.3630 -34.2487 -34.2477 -34.1385 -34.1367 -34.0739 -34.0723
   -18.6017 -18.5992 -18.4266 -18.4245 -18.1916 -18.1901 -18.0090 -18.0072
   -17.8648 -17.8646 -17.4799 -17.4750  -6.2238  -6.2214  -5.9181  -5.9169
    -5.7974  -5.7961  -5.6406  -5.6397  -5.5144  -5.5122  -4.9429  -4.9408
    -4.4976  -4.4969  -4.4374  -4.4335  -4.0645  -4.0638  -4.0137  -4.0115
    -3.7295  -3.7272  -3.5801  -3.5771  -3.3223  -3.3213  -3.1429  -3.1422
    -2.8846  -2.8806  -2.5722  -2.5705  -2.4264  -2.4257  -2.2475  -2.2469
     1.0211   1.0258   1.2738   1.2755   1.2956   1.2969   1.7204   1.7212
     1.9394   1.9402   2.0847   2.0870   2.1385   2.1397

          k =-0.4854 0.5168 0.0000 ( 76318 PWs)   bands (ev):

   -58.2578 -58.2525 -58.1621 -58.1604 -57.8444 -57.8436 -34.7484 -34.7437
   -34.6169 -34.6154 -34.5068 -34.5019 -34.4690 -34.4653 -34.4051 -34.4047
   -34.3553 -34.3545 -34.2887 -34.2864 -34.2271 -34.2263 -34.0616 -34.0601
   -18.4075 -18.4046 -18.3151 -18.3125 -18.0897 -18.0895 -17.9462 -17.9458
   -17.8411 -17.8410 -17.4753 -17.4690  -5.9989  -5.9981  -5.9164  -5.9151
    -5.7724  -5.7719  -5.6758  -5.6747  -5.4807  -5.4799  -5.3071  -5.3057
    -4.7264  -4.7260  -4.5510  -4.5495  -4.1231  -4.1215  -4.0113  -4.0079
    -3.7565  -3.7544  -3.5164  -3.5128  -3.2861  -3.2846  -2.9548  -2.9537
    -2.7649  -2.7595  -2.5060  -2.5047  -2.4145  -2.4135  -2.3345  -2.3338
     1.1300   1.1330   1.3045   1.3056   1.3523   1.3555   1.7446   1.7472
     1.9098   1.9116   1.9963   1.9968   2.1234   2.1245

          k =-0.4854 0.6891 0.0000 ( 76294 PWs)   bands (ev):

   -58.2491 -58.2437 -58.1534 -58.1517 -57.8353 -57.8345 -34.8430 -34.8383
   -34.7088 -34.7073 -34.4815 -34.4766 -34.4659 -34.4620 -34.3875 -34.3865
   -34.3749 -34.3721 -34.3488 -34.3473 -34.2261 -34.2254 -34.0442 -34.0428
   -18.4712 -18.4685 -18.2057 -18.2050 -18.0491 -18.0465 -17.9041 -17.9040
   -17.7292 -17.7290 -17.3814 -17.3755  -6.2021  -6.2001  -6.1099  -6.1092
    -5.8868  -5.8851  -5.5877  -5.5874  -5.3529  -5.3515  -5.2376  -5.2360
    -4.7723  -4.7719  -4.5890  -4.5870  -4.1203  -4.1163  -3.9381  -3.9363
    -3.8802  -3.8776  -3.3878  -3.3856  -3.1268  -3.1264  -2.9204  -2.9193
    -2.7533  -2.7485  -2.5348  -2.5343  -2.3965  -2.3962  -2.2974  -2.2970
     1.0066   1.0072   1.2813   1.2836   1.6933   1.6965   1.7729   1.7752
     1.9323   1.9333   2.0083   2.0100   2.1466   2.1494

     the Fermi energy is    -0.3974 ev

!    total energy              =   -1077.90845293 Ry
     estimated scf accuracy    <       0.00000006 Ry
     smearing contrib. (-TS)   =      -0.00000000 Ry
     internal energy E=F+TS    =   -1077.90845293 Ry

     The total energy is F=E-TS. E is the sum of the following terms:
     one-electron contribution =  -24827.68807357 Ry
     hartree contribution      =   12426.33947652 Ry
     xc contribution           =    -170.02969885 Ry
     ewald contribution        =   11493.46984297 Ry

     convergence has been achieved in   8 iterations

     Forces acting on atoms (cartesian axes, Ry/au):

     atom    1 type  1   force =    -0.00059167    0.00000000    0.00274510
     atom    2 type  1   force =    -0.00724779    0.00000000   -0.00462235
     atom    3 type  1   force =     0.00569637    0.00000000    0.00437752
     atom    4 type  1   force =     0.00572907    0.00000000   -0.00444901
     atom    5 type  1   force =    -0.00729271    0.00000000    0.00442909
     atom    6 type  1   force =    -0.00013432    0.00000000   -0.00193111
     atom    7 type  2   force =    -0.00208407    0.00000000    0.00044163
     atom    8 type  2   force =    -0.00385062    0.00000000   -0.00953319
     atom    9 type  2   force =     0.00227195    0.00000000   -0.00123644
     atom   10 type  2   force =     0.00117612    0.00000000   -0.00090816
     atom   11 type  2   force =     0.00203106    0.00000000    0.00515490
     atom   12 type  2   force =     0.00260984    0.00000000   -0.00017585
     atom   13 type  2   force =     0.00119385    0.00000000    0.00077339
     atom   14 type  2   force =     0.00226103    0.00000000    0.00106226
     atom   15 type  2   force =     0.00235705    0.00000000    0.00018210
     atom   16 type  2   force =     0.00301954    0.00000000   -0.00461538
     atom   17 type  2   force =    -0.00318391    0.00000000   -0.00106406
     atom   18 type  2   force =    -0.00396081    0.00000000    0.00936952

     Total force =     0.024047     Total SCF correction =     0.000683


     Computing stress (Cartesian axis) and pressure

          total   stress  (Ry/bohr**3)                   (kbar)     P=       -0.41
   0.00001337   0.00000000   0.00000001            1.97        0.00        0.00
   0.00000000  -0.00003586   0.00000000            0.00       -5.28        0.00
   0.00000001   0.00000000   0.00001405            0.00        0.00        2.07

     Energy error            =      2.7E-03 Ry
     Gradient error          =      9.5E-03 Ry/Bohr
     Cell gradient error     =      5.3E+00 kbar

     number of scf cycles    =   7
     number of bfgs steps    =   6

     enthalpy           old  =   -1077.9057706624 Ry
     enthalpy           new  =   -1077.9084529294 Ry

     CASE: enthalpy          _new < enthalpy          _old

     new trust radius        =       0.0180223720 bohr
     new conv_thr            =       0.0000000953 Ry

     new unit-cell volume =   3552.29755 a.u.^3 (   526.39619 Ang^3 )
     density =      1.51163 g/cm^3

CELL_PARAMETERS (angstrom)
   4.742328154   0.000000000   0.000000000
   0.000000000   2.961723405   0.000000000
   0.000000000   0.000000000  37.478019714

ATOMIC_POSITIONS (angstrom)
Ti               0.1970640028        0.0000000000       14.6352873794
Ti               2.5230101246        1.4808616150       16.8538962598
Ti               0.1039940741        0.0000000000       19.2131112949
Ti               2.4748236516        1.4808616150       21.4573067780
Ti               0.1510848499        0.0000000000       23.8178169805
Ti               2.5678008698        1.4808616150       26.0367573355
O                0.6918577757        1.4808617030       13.6506493271
O                1.4318198896        0.0000000000       16.0034253264
O                3.2790035091        0.0000000000       17.7779296666
O                0.8790191573        1.4808617030       18.2879584415
O                3.7001296318        1.4808617030       15.4091592952
O                1.4218145049        0.0000000000       20.5816567625
O                3.2491534145        0.0000000000       22.3822458039
O                0.9069464458        1.4808617030       22.8948691539
O                3.7942354895        1.4808617030       20.0895652275
O                1.3289474901        0.0000000000       25.2615777375
O                3.0631799918        0.0000000000       27.0217258512
O                3.8035737397        1.4808617030       24.6699096225



     Writing config-only to output data dir ./Out/pwscf.save/
     NEW-OLD atomic charge density approx. for the potential

     negative rho (up, down):  6.197E-05 0.000E+00

     total cpu time spent up to now is      326.2 secs

     Self-consistent Calculation

     iteration #  1     ecut=   120.00 Ry     beta= 0.40
     Davidson diagonalization with overlap
     ethr =  1.00E-06,  avg # of iterations =  6.1

     Threshold (ethr) on eigenvalues was too large:
     Diagonalizing with lowered threshold

     Davidson diagonalization with overlap
     ethr =  8.12E-08,  avg # of iterations =  2.5

     negative rho (up, down):  3.614E-05 0.000E+00

     total cpu time spent up to now is      334.9 secs

     total energy              =   -1077.90908871 Ry
     estimated scf accuracy    <       0.00012603 Ry

     iteration #  2     ecut=   120.00 Ry     beta= 0.40
     Davidson diagonalization with overlap
     ethr =  8.75E-08,  avg # of iterations =  2.1

     negative rho (up, down):  2.583E-05 0.000E+00

     total cpu time spent up to now is      338.3 secs

     total energy              =   -1077.90909795 Ry
     estimated scf accuracy    <       0.00006177 Ry

     iteration #  3     ecut=   120.00 Ry     beta= 0.40
     Davidson diagonalization with overlap
     ethr =  4.29E-08,  avg # of iterations =  2.1

     negative rho (up, down):  1.039E-05 0.000E+00

     total cpu time spent up to now is      341.6 secs

     total energy              =   -1077.90910906 Ry
     estimated scf accuracy    <       0.00001948 Ry

     iteration #  4     ecut=   120.00 Ry     beta= 0.40
     Davidson diagonalization with overlap
     ethr =  1.35E-08,  avg # of iterations =  2.1

     negative rho (up, down):  4.762E-06 0.000E+00

     total cpu time spent up to now is      344.9 secs

     total energy              =   -1077.90911183 Ry
     estimated scf accuracy    <       0.00000193 Ry

     iteration #  5     ecut=   120.00 Ry     beta= 0.40
     Davidson diagonalization with overlap
     ethr =  1.34E-09,  avg # of iterations =  5.2

     negative rho (up, down):  1.757E-06 0.000E+00

     total cpu time spent up to now is      349.0 secs

     total energy              =   -1077.90911255 Ry
     estimated scf accuracy    <       0.00000055 Ry

     iteration #  6     ecut=   120.00 Ry     beta= 0.40
     Davidson diagonalization with overlap
     ethr =  3.81E-10,  avg # of iterations =  3.3

     negative rho (up, down):  4.678E-07 0.000E+00

     total cpu time spent up to now is      352.5 secs

     total energy              =   -1077.90911264 Ry
     estimated scf accuracy    <       0.00000012 Ry

     iteration #  7     ecut=   120.00 Ry     beta= 0.40
     Davidson diagonalization with overlap
     ethr =  8.17E-11,  avg # of iterations =  3.1

     total cpu time spent up to now is      356.0 secs

     End of self-consistent calculation

          k = 0.0000 0.0000 0.0000 ( 76179 PWs)   bands (ev):

   -58.2938 -58.2876 -58.2082 -58.1999 -57.8750 -57.8700 -34.5954 -34.5897
   -34.5185 -34.5141 -34.4779 -34.4735 -34.4123 -34.4091 -34.4029 -34.3943
   -34.3002 -34.2837 -34.2623 -34.2574 -34.1346 -34.1293 -33.9158 -33.9105
   -19.3723 -19.1894 -18.7661 -18.4239 -18.3199 -18.3006 -17.9583 -17.9298
   -17.7071 -17.6987 -17.3641 -17.3561  -6.9168  -6.6411  -6.4211  -6.3221
    -5.9555  -5.7582  -5.6936  -5.4315  -5.2511  -5.2442  -5.0048  -5.0015
    -4.8175  -4.7129  -4.7050  -4.5137  -4.2945  -4.1106  -4.1067  -3.6421
    -3.5375  -3.4009  -3.3301  -3.3190  -3.0276  -3.0145  -2.8493  -2.8428
    -2.7749  -2.6022  -2.4559  -2.2794  -2.2710  -2.1044  -1.8400  -1.5516
     0.7300   0.9077   1.0817   1.1777   1.2436   1.2507   1.3577   1.3923
     1.5414   1.6809   1.7272   2.2100   2.3392   2.3819

          k = 0.0000 0.1725 0.0000 ( 76281 PWs)   bands (ev):

   -58.2891 -58.2829 -58.2034 -58.1956 -57.8701 -57.8651 -34.5836 -34.5779
   -34.5113 -34.5069 -34.4715 -34.4681 -34.4611 -34.4562 -34.4127 -34.3915
   -34.3467 -34.3361 -34.2574 -34.2525 -34.1265 -34.1211 -33.9715 -33.9662
   -19.2517 -19.0776 -18.6739 -18.3413 -18.2398 -18.2279 -17.9960 -17.9640
   -17.7541 -17.7501 -17.3960 -17.3886  -6.7511  -6.4931  -6.2811  -6.1785
    -5.8816  -5.7102  -5.6391  -5.4564  -5.3971  -5.3921  -5.2319  -5.0528
    -4.7232  -4.7001  -4.4772  -4.3721  -4.2151  -3.9819  -3.9799  -3.8538
    -3.7665  -3.5474  -3.4064  -3.2709  -3.2404  -3.1254  -3.1182  -2.8878
    -2.8759  -2.8077  -2.5593  -2.2954  -2.2929  -2.0824  -1.8890  -1.6005
     0.8618   1.0193   1.1376   1.1431   1.2538   1.3135   1.3695   1.4500
     1.6149   1.7024   1.8445   1.9115   1.9929   2.3984

          k = 0.0000 0.3449 0.0000 ( 76251 PWs)   bands (ev):

   -58.2772 -58.2709 -58.1909 -58.1845 -57.8577 -57.8527 -34.6072 -34.6014
   -34.5450 -34.5389 -34.5080 -34.4977 -34.4757 -34.4711 -34.4457 -34.4419
   -34.3855 -34.3779 -34.2484 -34.2436 -34.1390 -34.1337 -34.0751 -34.0697
   -18.9332 -18.7890 -18.4743 -18.2353 -18.0798 -18.0640 -18.0018 -17.9956
   -17.8694 -17.8681 -17.4644 -17.4579  -6.3156  -6.1332  -5.9309  -5.8783
    -5.7216  -5.6122  -5.5574  -5.5535  -5.4643  -5.4636  -5.2726  -5.1694
    -4.7481  -4.5986  -4.5023  -4.4577  -4.3939  -4.1867  -4.1183  -4.1057
    -4.0317  -3.7646  -3.7379  -3.4104  -3.3626  -3.2248  -3.1502  -2.9281
    -2.8077  -2.7343  -2.6204  -2.5513  -2.5162  -2.1658  -2.0267  -1.8183
     0.9722   1.0496   1.1134   1.1528   1.2055   1.4826   1.4861   1.6123
     1.7474   1.8211   1.9577   1.9698   2.0786   2.1969

          k = 0.0000 0.5174 0.0000 ( 76270 PWs)   bands (ev):

   -58.2636 -58.2573 -58.1765 -58.1722 -57.8436 -57.8386 -34.7528 -34.7470
   -34.6400 -34.6285 -34.5085 -34.5026 -34.4755 -34.4700 -34.4204 -34.4149
   -34.3760 -34.3682 -34.2907 -34.2851 -34.2271 -34.2223 -34.0614 -34.0561
   -18.5380 -18.4539 -18.3950 -18.3345 -18.0749 -18.0016 -17.9472 -17.9179
   -17.8476 -17.8219 -17.4744 -17.4675  -5.8931  -5.8455  -5.8190  -5.7427
    -5.6312  -5.5794  -5.5540  -5.5379  -5.4222  -5.3852  -5.3677  -5.1787
    -5.0224  -4.9768  -4.7007  -4.6137  -4.4782  -4.1368  -4.0802  -4.0760
    -3.9955  -3.7982  -3.6561  -3.4830  -3.4448  -3.2056  -3.0705  -2.9930
    -2.9088  -2.7932  -2.7782  -2.6586  -2.6174  -2.3355  -2.2676  -2.2187
     0.8377   0.9738   1.0437   1.3350   1.4877   1.4959   1.6891   1.7040
     1.8394   1.9218   2.0236   2.1500   2.2631   2.2740

          k = 0.0000 0.6899 0.0000 ( 76376 PWs)   bands (ev):

   -58.2548 -58.2484 -58.1665 -58.1647 -57.8344 -57.8294 -34.8476 -34.8420
   -34.7292 -34.7254 -34.4860 -34.4800 -34.4703 -34.4645 -34.4016 -34.3992
   -34.3794 -34.3737 -34.3649 -34.3618 -34.2249 -34.2202 -34.0434 -34.0381
   -18.4507 -18.4302 -18.2595 -18.2017 -18.1602 -18.0269 -17.9246 -17.8912
   -17.7683 -17.7336 -17.3963 -17.3893  -6.2270  -6.1306  -5.9644  -5.8825
    -5.5689  -5.5559  -5.5129  -5.4438  -5.3012  -5.2982  -5.2455  -5.2216
    -4.8076  -4.8023  -4.5201  -4.4058  -4.2208  -4.0909  -4.0887  -4.0326
    -4.0163  -3.9332  -3.8066  -3.5397  -3.3911  -3.2365  -3.1194  -3.0001
    -2.9131  -2.8704  -2.8626  -2.7438  -2.7164  -2.6237  -2.4354  -2.3308
     0.8075   1.0153   1.1239   1.3113   1.4491   1.7098   1.7537   1.7644
     1.8683   1.9536   2.0905   2.0967   2.4245   2.4907

          k = 0.1616 0.0000 0.0000 ( 76264 PWs)   bands (ev):

   -58.2938 -58.2875 -58.2077 -58.2005 -57.8750 -57.8700 -34.5964 -34.5907
   -34.5198 -34.5162 -34.4779 -34.4737 -34.4095 -34.4089 -34.4028 -34.3944
   -34.2992 -34.2849 -34.2620 -34.2572 -34.1345 -34.1292 -33.9158 -33.9105
   -19.2991 -19.1466 -18.7695 -18.4599 -18.3365 -18.3093 -17.9727 -17.9524
   -17.7309 -17.6970 -17.3697 -17.3635  -6.8468  -6.7053  -6.3551  -6.3466
    -5.8486  -5.7416  -5.6533  -5.3368  -5.2563  -5.2520  -5.0145  -5.0055
    -4.8094  -4.7177  -4.7096  -4.4733  -4.2925  -4.1603  -3.9309  -3.6137
    -3.5741  -3.3687  -3.3123  -3.2682  -3.0544  -3.0398  -2.9016  -2.8624
    -2.6999  -2.6903  -2.5342  -2.4982  -2.3940  -2.2697  -1.9620  -1.6707
     0.8049   0.8658   1.1095   1.1883   1.2679   1.3088   1.3465   1.5024
     1.6124   1.7667   1.8363   2.2035   2.2820   2.2957

          k = 0.1616 0.1725 0.0000 ( 76282 PWs)   bands (ev):

   -58.2891 -58.2828 -58.2029 -58.1961 -57.8701 -57.8651 -34.5845 -34.5788
   -34.5125 -34.5086 -34.4720 -34.4680 -34.4612 -34.4562 -34.4099 -34.3919
   -34.3460 -34.3367 -34.2572 -34.2523 -34.1264 -34.1211 -33.9715 -33.9662
   -19.1823 -19.0366 -18.6765 -18.3781 -18.2520 -18.2293 -18.0110 -17.9902
   -17.7787 -17.7469 -17.4014 -17.3952  -6.6894  -6.5576  -6.2146  -6.2049
    -5.8059  -5.7124  -5.6177  -5.4823  -5.4162  -5.3447  -5.1770  -5.0066
    -4.7105  -4.6922  -4.4517  -4.3357  -4.2488  -4.0708  -3.9019  -3.7243
    -3.7172  -3.6234  -3.4608  -3.2031  -3.1944  -3.1284  -3.1120  -2.9461
    -2.9058  -2.8319  -2.5687  -2.4264  -2.4036  -2.2334  -2.0079  -1.7121
     0.8849   0.9724   1.1353   1.2184   1.2573   1.3646   1.4206   1.5058
     1.6888   1.7041   1.8847   1.9145   2.0361   2.4040

          k = 0.1616 0.3449 0.0000 ( 76223 PWs)   bands (ev):

   -58.2772 -58.2709 -58.1905 -58.1850 -57.8577 -57.8527 -34.6072 -34.6013
   -34.5456 -34.5397 -34.5075 -34.4988 -34.4758 -34.4723 -34.4457 -34.4430
   -34.3838 -34.3773 -34.2484 -34.2435 -34.1391 -34.1337 -34.0750 -34.0696
   -18.8767 -18.7535 -18.4699 -18.2552 -18.0852 -18.0605 -18.0336 -18.0172
   -17.8940 -17.8643 -17.4687 -17.4623  -6.2879  -6.1854  -5.9375  -5.8746
    -5.7280  -5.7063  -5.5731  -5.5442  -5.5287  -5.4714  -5.0884  -5.0050
    -4.8174  -4.6351  -4.5113  -4.4706  -4.2947  -4.2866  -4.0422  -4.0114
    -4.0066  -3.7504  -3.7249  -3.4259  -3.4146  -3.1547  -3.1089  -2.9834
    -2.8559  -2.7358  -2.6336  -2.5313  -2.5216  -2.2488  -2.0957  -1.8924
     0.9288   1.0606   1.1087   1.1991   1.2711   1.4920   1.5224   1.6237
     1.7572   1.7880   1.9468   1.9509   2.1843   2.2069

          k = 0.1616 0.5174 0.0000 ( 76310 PWs)   bands (ev):

   -58.2636 -58.2573 -58.1762 -58.1725 -57.8436 -57.8386 -34.7527 -34.7469
   -34.6392 -34.6293 -34.5089 -34.5030 -34.4760 -34.4705 -34.4204 -34.4161
   -34.3747 -34.3681 -34.2908 -34.2852 -34.2270 -34.2222 -34.0615 -34.0561
   -18.5150 -18.4392 -18.3813 -18.3198 -18.0607 -18.0476 -17.9763 -17.9106
   -17.8500 -17.8294 -17.4746 -17.4677  -5.9394  -5.8999  -5.8098  -5.8037
    -5.6798  -5.6233  -5.5806  -5.5408  -5.4843  -5.4042  -5.3989  -5.2432
    -5.0309  -4.7845  -4.6041  -4.5266  -4.3966  -4.1913  -4.1312  -4.0136
    -3.9981  -3.8376  -3.5854  -3.4804  -3.4273  -3.1162  -3.0507  -3.0102
    -2.9399  -2.8315  -2.7147  -2.6382  -2.5663  -2.3335  -2.2786  -2.1906
     0.8717   0.9963   1.0283   1.4053   1.5145   1.5198   1.6752   1.7375
     1.8718   1.8869   1.9755   2.0263   2.1765   2.2483

          k = 0.1616 0.6899 0.0000 ( 76348 PWs)   bands (ev):

   -58.2547 -58.2484 -58.1664 -58.1648 -57.8343 -57.8294 -34.8476 -34.8419
   -34.7290 -34.7257 -34.4860 -34.4800 -34.4707 -34.4650 -34.4016 -34.3998
   -34.3793 -34.3737 -34.3646 -34.3618 -34.2250 -34.2203 -34.0435 -34.0382
   -18.4546 -18.4416 -18.2425 -18.2314 -18.0881 -18.0653 -17.9125 -17.9068
   -17.7683 -17.7347 -17.3922 -17.3853  -6.2246  -6.1724  -5.9635  -5.9375
    -5.6487  -5.6212  -5.4871  -5.4644  -5.4512  -5.3505  -5.2391  -5.2065
    -4.9941  -4.7353  -4.4650  -4.4417  -4.2119  -4.1445  -4.0871  -3.9898
    -3.8902  -3.8843  -3.6680  -3.4493  -3.2706  -3.1257  -3.1039  -3.0206
    -2.9213  -2.8971  -2.8102  -2.7192  -2.6461  -2.5998  -2.4175  -2.3123
     0.8746   1.0309   1.2278   1.2328   1.5536   1.6718   1.7459   1.7548
     1.8756   1.9472   2.0679   2.0769   2.3216   2.3361

          k = 0.3231 0.0000 0.0000 ( 76372 PWs)   bands (ev):

   -58.2937 -58.2874 -58.2063 -58.2020 -57.8750 -57.8700 -34.5983 -34.5927
   -34.5228 -34.5198 -34.4775 -34.4747 -34.4087 -34.4033 -34.4025 -34.3953
   -34.2963 -34.2880 -34.2615 -34.2566 -34.1344 -34.1290 -33.9159 -33.9106
   -19.1046 -19.0372 -18.7807 -18.5570 -18.4022 -18.3868 -17.9887 -17.9650
   -17.7492 -17.7155 -17.3833 -17.3774  -6.7491  -6.7322  -6.4218  -6.3194
    -5.7497  -5.7289  -5.2921  -5.2685  -5.2660  -5.0316  -5.0160  -5.0106
    -4.7259  -4.7179  -4.6354  -4.3733  -4.3170  -4.2574  -3.8437  -3.7220
    -3.5766  -3.3680  -3.2539  -3.1979  -3.1847  -3.1613  -2.9249  -2.9016
    -2.8455  -2.7984  -2.6451  -2.6218  -2.5904  -2.5179  -2.2038  -1.9744
     0.8668   0.8793   1.0843   1.2016   1.2931   1.3979   1.5565   1.6693
     1.8028   1.8688   2.0694   2.1400   2.1513   2.2018

          k = 0.3231 0.1725 0.0000 ( 76383 PWs)   bands (ev):

   -58.2890 -58.2827 -58.2015 -58.1975 -57.8701 -57.8651 -34.5862 -34.5806
   -34.5152 -34.5116 -34.4716 -34.4692 -34.4612 -34.4561 -34.4037 -34.3937
   -34.3439 -34.3385 -34.2568 -34.2519 -34.1263 -34.1210 -33.9715 -33.9662
   -18.9979 -18.9322 -18.6859 -18.4732 -18.3155 -18.3002 -18.0240 -18.0019
   -17.7968 -17.7628 -17.4139 -17.4079  -6.6018  -6.5869  -6.2778  -6.1779
    -5.6934  -5.6795  -5.5691  -5.5216  -5.4009  -5.3451  -4.9594  -4.7712
    -4.7018  -4.6597  -4.3596  -4.3094  -4.2058  -4.0994  -3.9079  -3.7765
    -3.6520  -3.5913  -3.4229  -3.2677  -3.2063  -3.1493  -3.1034  -3.0912
    -2.9838  -2.8639  -2.7329  -2.6732  -2.4850  -2.4179  -2.2067  -1.9587
     0.9046   0.9232   1.1064   1.2658   1.3857   1.3915   1.5516   1.6164
     1.8140   1.8196   1.9346   1.9728   2.1514   2.3685

          k = 0.3231 0.3449 0.0000 ( 76318 PWs)   bands (ev):

   -58.2771 -58.2709 -58.1894 -58.1861 -57.8577 -57.8527 -34.6071 -34.6012
   -34.5468 -34.5411 -34.5064 -34.5011 -34.4762 -34.4744 -34.4460 -34.4449
   -34.3803 -34.3766 -34.2483 -34.2434 -34.1391 -34.1337 -34.0748 -34.0694
   -18.7267 -18.6633 -18.4661 -18.3183 -18.1583 -18.1357 -18.0323 -18.0281
   -17.9062 -17.8739 -17.4775 -17.4711  -6.2306  -6.2266  -5.9817  -5.8800
    -5.7789  -5.7473  -5.6386  -5.5823  -5.5574  -5.5281  -4.9250  -4.8890
    -4.6688  -4.5586  -4.4759  -4.4420  -4.3317  -4.2218  -3.9953  -3.9534
    -3.8258  -3.7599  -3.7104  -3.4827  -3.3570  -3.1591  -3.1384  -3.0407
    -2.8828  -2.8581  -2.6301  -2.5337  -2.4730  -2.4205  -2.2520  -2.0709
     0.9933   1.0150   1.1206   1.2834   1.3063   1.4555   1.5832   1.6461
     1.8125   1.8554   2.0471   2.0635   2.1424   2.2182

          k = 0.3231 0.5174 0.0000 ( 76259 PWs)   bands (ev):

   -58.2636 -58.2573 -58.1755 -58.1732 -57.8436 -57.8386 -34.7526 -34.7468
   -34.6371 -34.6314 -34.5095 -34.5036 -34.4770 -34.4716 -34.4207 -34.4182
   -34.3720 -34.3682 -34.2909 -34.2853 -34.2268 -34.2220 -34.0615 -34.0562
   -18.4572 -18.4092 -18.3488 -18.2938 -18.1151 -18.0493 -18.0149 -17.9283
   -17.8607 -17.8472 -17.4750 -17.4680  -6.0030  -5.9759  -5.9174  -5.8124
    -5.7586  -5.7437  -5.6380  -5.6260  -5.5430  -5.4119  -5.3421  -5.3276
    -4.9413  -4.6351  -4.5614  -4.5023  -4.3060  -4.1440  -4.0421  -3.9453
    -3.8936  -3.8517  -3.5970  -3.3912  -3.3547  -3.2094  -3.0771  -2.9428
    -2.8532  -2.8181  -2.6431  -2.5793  -2.4488  -2.3625  -2.3237  -2.2213
     0.9497   1.0767   1.1293   1.4441   1.4567   1.5913   1.6216   1.7419
     1.8071   1.8266   1.9791   2.0413   2.1598   2.1631

          k = 0.3231 0.6899 0.0000 ( 76319 PWs)   bands (ev):

   -58.2547 -58.2484 -58.1662 -58.1650 -57.8343 -57.8294 -34.8476 -34.8419
   -34.7283 -34.7263 -34.4852 -34.4792 -34.4724 -34.4666 -34.4021 -34.4007
   -34.3790 -34.3734 -34.3638 -34.3620 -34.2252 -34.2204 -34.0437 -34.0384
   -18.4637 -18.4567 -18.2512 -18.2081 -18.0845 -18.0241 -17.9385 -17.9064
   -17.7691 -17.7401 -17.3846 -17.3777  -6.2219  -6.2159  -6.0482  -6.0350
    -5.8362  -5.7984  -5.5923  -5.4999  -5.4240  -5.3525  -5.2511  -5.2444
    -4.9763  -4.7875  -4.5359  -4.4299  -4.1733  -4.1210  -4.0566  -3.9516
    -3.9112  -3.8200  -3.4414  -3.3612  -3.1760  -3.1200  -3.0154  -2.9045
    -2.8455  -2.7935  -2.6964  -2.6830  -2.5045  -2.4688  -2.3710  -2.2811
     0.9556   1.0707   1.2119   1.3593   1.5951   1.6786   1.7454   1.7598
     1.8839   1.9169   2.0308   2.0404   2.1838   2.2204

          k =-0.4847 0.0000 0.0000 ( 76438 PWs)   bands (ev):

   -58.2937 -58.2874 -58.2046 -58.2036 -57.8750 -57.8700 -34.5993 -34.5937
   -34.5243 -34.5214 -34.4771 -34.4753 -34.4086 -34.4024 -34.3981 -34.3980
   -34.2926 -34.2918 -34.2612 -34.2563 -34.1343 -34.1290 -33.9159 -33.9106
   -18.9476 -18.9435 -18.7398 -18.7386 -18.4533 -18.4466 -17.9708 -17.9662
   -17.7436 -17.7430 -17.3903 -17.3844  -6.7285  -6.7251  -6.3871  -6.3868
    -5.7397  -5.7333  -5.2751  -5.2729  -5.0316  -5.0300  -4.7293  -4.7213
    -4.6599  -4.6582  -4.5593  -4.5578  -4.2746  -4.2730  -4.1074  -4.1043
    -3.4563  -3.4550  -3.2408  -3.2388  -3.2036  -3.1991  -2.9280  -2.9249
    -2.8511  -2.8478  -2.6835  -2.6796  -2.5119  -2.5087  -2.3094  -2.3088
     0.8787   0.8833   1.1360   1.1378   1.4198   1.4221   1.6144   1.6161
     2.0515   2.0558   2.0607   2.0651   2.2530   2.2572

          k =-0.4847 0.1725 0.0000 ( 76384 PWs)   bands (ev):

   -58.2890 -58.2827 -58.2000 -58.1990 -57.8701 -57.8651 -34.5871 -34.5815
   -34.5165 -34.5130 -34.4707 -34.4703 -34.4613 -34.4561 -34.3977 -34.3975
   -34.3415 -34.3407 -34.2566 -34.2517 -34.1263 -34.1209 -33.9715 -33.9662
   -18.8481 -18.8439 -18.6474 -18.6460 -18.3669 -18.3604 -18.0035 -17.9991
   -17.7897 -17.7891 -17.4204 -17.4143  -6.5839  -6.5805  -6.2431  -6.2428
    -5.6797  -5.6736  -5.5346  -5.5319  -5.3553  -5.3545  -4.7200  -4.7130
    -4.6101  -4.6068  -4.3079  -4.3061  -4.0797  -4.0753  -3.9670  -3.9658
    -3.6004  -3.5977  -3.3992  -3.3975  -3.2539  -3.2520  -3.1253  -3.1222
    -3.0036  -3.0010  -2.7766  -2.7733  -2.4065  -2.4036  -2.2166  -2.2154
     0.8945   0.9000   1.1764   1.1775   1.4506   1.4551   1.6134   1.6144
     1.8626   1.8660   2.1873   2.1919   2.2192   2.2240

          k =-0.4847 0.3449 0.0000 ( 76352 PWs)   bands (ev):

   -58.2771 -58.2708 -58.1883 -58.1873 -57.8577 -57.8527 -34.6070 -34.6012
   -34.5475 -34.5418 -34.5055 -34.5026 -34.4763 -34.4754 -34.4462 -34.4457
   -34.3776 -34.3773 -34.2483 -34.2434 -34.1391 -34.1337 -34.0746 -34.0693
   -18.5954 -18.5909 -18.4452 -18.4425 -18.2057 -18.2013 -18.0201 -18.0159
   -17.8958 -17.8951 -17.4819 -17.4755  -6.2236  -6.2201  -5.9273  -5.9261
    -5.8041  -5.8018  -5.6550  -5.6544  -5.5326  -5.5286  -4.9485  -4.9442
    -4.5096  -4.5084  -4.4461  -4.4418  -4.0896  -4.0885  -4.0203  -4.0175
    -3.7330  -3.7310  -3.5937  -3.5897  -3.3440  -3.3416  -3.1638  -3.1636
    -2.8874  -2.8823  -2.5812  -2.5789  -2.4354  -2.4340  -2.2664  -2.2646
     1.0171   1.0233   1.2540   1.2550   1.2838   1.2885   1.7190   1.7193
     1.9347   1.9377   2.0754   2.0790   2.1406   2.1429

          k =-0.4847 0.5174 0.0000 ( 76318 PWs)   bands (ev):

   -58.2636 -58.2573 -58.1748 -58.1738 -57.8436 -57.8386 -34.7526 -34.7468
   -34.6347 -34.6338 -34.5097 -34.5039 -34.4776 -34.4721 -34.4202 -34.4200
   -34.3697 -34.3692 -34.2909 -34.2854 -34.2267 -34.2219 -34.0616 -34.0562
   -18.4077 -18.4032 -18.3133 -18.3091 -18.1115 -18.1111 -17.9700 -17.9686
   -17.8652 -17.8624 -17.4752 -17.4682  -6.0047  -6.0037  -5.9246  -5.9230
    -5.7817  -5.7810  -5.6807  -5.6783  -5.4965  -5.4949  -5.3215  -5.3177
    -4.7423  -4.7419  -4.5726  -4.5693  -4.1355  -4.1316  -4.0118  -4.0076
    -3.7650  -3.7618  -3.5326  -3.5280  -3.2979  -3.2958  -2.9855  -2.9846
    -2.7658  -2.7593  -2.5162  -2.5129  -2.4321  -2.4307  -2.3504  -2.3474
     1.1283   1.1318   1.2927   1.2942   1.3521   1.3575   1.7348   1.7373
     1.9069   1.9093   1.9890   1.9911   2.1192   2.1210

          k =-0.4847 0.6899 0.0000 ( 76294 PWs)   bands (ev):

   -58.2547 -58.2484 -58.1661 -58.1651 -57.8343 -57.8294 -34.8475 -34.8418
   -34.7277 -34.7268 -34.4842 -34.4782 -34.4738 -34.4681 -34.4020 -34.4016
   -34.3788 -34.3732 -34.3633 -34.3624 -34.2253 -34.2205 -34.0438 -34.0385
   -18.4675 -18.4629 -18.2322 -18.2315 -18.0453 -18.0414 -17.9248 -17.9209
   -17.7574 -17.7568 -17.3810 -17.3740  -6.2129  -6.2107  -6.1145  -6.1122
    -5.9012  -5.8990  -5.5957  -5.5945  -5.3697  -5.3674  -5.2536  -5.2486
    -4.7866  -4.7860  -4.6022  -4.5993  -4.1266  -4.1221  -3.9536  -3.9509
    -3.8888  -3.8846  -3.4015  -3.3981  -3.1377  -3.1365  -2.9266  -2.9247
    -2.7611  -2.7556  -2.5673  -2.5672  -2.4098  -2.4071  -2.3155  -2.3140
     1.0101   1.0106   1.2737   1.2759   1.6992   1.7036   1.7678   1.7712
     1.9227   1.9230   2.0085   2.0133   2.1420   2.1455

     the Fermi energy is    -0.4148 ev

!    total energy              =   -1077.90911266 Ry
     estimated scf accuracy    <       0.00000001 Ry
     smearing contrib. (-TS)   =      -0.00000000 Ry
     internal energy E=F+TS    =   -1077.90911266 Ry

     The total energy is F=E-TS. E is the sum of the following terms:
     one-electron contribution =  -24819.20256334 Ry
     hartree contribution      =   12422.05304956 Ry
     xc contribution           =    -170.03618994 Ry
     ewald contribution        =   11489.27659106 Ry

     convergence has been achieved in   7 iterations

     Forces acting on atoms (cartesian axes, Ry/au):

     atom    1 type  1   force =     0.00139873    0.00000000    0.00189458
     atom    2 type  1   force =    -0.00539172    0.00000000   -0.00296023
     atom    3 type  1   force =     0.00287576    0.00000000    0.00165393
     atom    4 type  1   force =     0.00288476    0.00000000   -0.00167502
     atom    5 type  1   force =    -0.00520748    0.00000000    0.00325871
     atom    6 type  1   force =     0.00148867    0.00000000   -0.00164771
     atom    7 type  2   force =    -0.00208899    0.00000000    0.00015224
     atom    8 type  2   force =    -0.00293846    0.00000000   -0.00841410
     atom    9 type  2   force =     0.00034962    0.00000000   -0.00254996
     atom   10 type  2   force =     0.00207421    0.00000000   -0.00076128
     atom   11 type  2   force =     0.00013760    0.00000000    0.00552589
     atom   12 type  2   force =     0.00349814    0.00000000   -0.00019355
     atom   13 type  2   force =     0.00224329    0.00000000    0.00063689
     atom   14 type  2   force =     0.00030081    0.00000000    0.00229779
     atom   15 type  2   force =     0.00340076    0.00000000    0.00008779
     atom   16 type  2   force =     0.00070367    0.00000000   -0.00558994
     atom   17 type  2   force =    -0.00284823    0.00000000   -0.00009684
     atom   18 type  2   force =    -0.00288114    0.00000000    0.00838081

     Total force =     0.019675     Total SCF correction =     0.000481


     Computing stress (Cartesian axis) and pressure

          total   stress  (Ry/bohr**3)                   (kbar)     P=        0.02
   0.00001278   0.00000000  -0.00000001            1.88        0.00       -0.00
   0.00000000  -0.00002738   0.00000000            0.00       -4.03        0.00
  -0.00000001   0.00000000   0.00001508           -0.00        0.00        2.22

     Energy error            =      6.6E-04 Ry
     Gradient error          =      8.4E-03 Ry/Bohr
     Cell gradient error     =      4.0E+00 kbar

     number of scf cycles    =   8
     number of bfgs steps    =   7

     enthalpy           old  =   -1077.9084529294 Ry
     enthalpy           new  =   -1077.9091126590 Ry

     CASE: enthalpy          _new < enthalpy          _old

     new trust radius        =       0.0198466130 bohr
     new conv_thr            =       0.0000000660 Ry

     new unit-cell volume =   3551.97958 a.u.^3 (   526.34907 Ang^3 )
     density =      1.51176 g/cm^3

CELL_PARAMETERS (angstrom)
   4.749811874   0.000000000   0.000000000
   0.000000000   2.956792278   0.000000000
   0.000000000   0.000000000  37.478019714

ATOMIC_POSITIONS (angstrom)
Ti               0.1928213768        0.0000000000       14.6359987163
Ti               2.5232994166        1.4783960513       16.8501546988
Ti               0.1129711696        0.0000000000       19.2168055647
Ti               2.4875446168        1.4783960513       21.4535120873
Ti               0.1477363259        0.0000000000       23.8216857749
Ti               2.5674907675        1.4783960513       26.0363575668
O                0.6875854723        1.4783961392       13.6495076379
O                1.4323467024        0.0000000000       15.9965231144
O                3.2854754322        0.0000000000       17.7755290911
O                0.8805220422        1.4783961392       18.2869953320
O                3.7077852043        1.4783961392       15.4129249794
O                1.4272832272        0.0000000000       20.5816189179
O                3.2545261052        0.0000000000       22.3829964526
O                0.9095857594        1.4783961392       22.8969820391
O                3.8033644978        1.4783961392       20.0895019208
O                1.3336526940        0.0000000000       25.2579728390
O                3.0617136050        0.0000000000       27.0229832366
O                3.8078820923        1.4783961392       24.6767982745



     Writing config-only to output data dir ./Out/pwscf.save/
     NEW-OLD atomic charge density approx. for the potential

     negative rho (up, down):  6.910E-05 0.000E+00

     total cpu time spent up to now is      361.9 secs

     Self-consistent Calculation

     iteration #  1     ecut=   120.00 Ry     beta= 0.40
     Davidson diagonalization with overlap
     ethr =  1.00E-06,  avg # of iterations =  6.1

     negative rho (up, down):  4.032E-05 0.000E+00

     total cpu time spent up to now is      367.3 secs

     total energy              =   -1077.90975332 Ry
     estimated scf accuracy    <       0.00020659 Ry

     iteration #  2     ecut=   120.00 Ry     beta= 0.40
     Davidson diagonalization with overlap
     ethr =  1.43E-07,  avg # of iterations =  3.0

     negative rho (up, down):  2.935E-05 0.000E+00

     total cpu time spent up to now is      370.9 secs

     total energy              =   -1077.90978020 Ry
     estimated scf accuracy    <       0.00010793 Ry

     iteration #  3     ecut=   120.00 Ry     beta= 0.40
     Davidson diagonalization with overlap
     ethr =  7.49E-08,  avg # of iterations =  2.1

     negative rho (up, down):  1.234E-05 0.000E+00

     total cpu time spent up to now is      374.2 secs

     total energy              =   -1077.90979946 Ry
     estimated scf accuracy    <       0.00002868 Ry

     iteration #  4     ecut=   120.00 Ry     beta= 0.40
     Davidson diagonalization with overlap
     ethr =  1.99E-08,  avg # of iterations =  2.0

     negative rho (up, down):  5.300E-06 0.000E+00

     total cpu time spent up to now is      377.5 secs

     total energy              =   -1077.90980362 Ry
     estimated scf accuracy    <       0.00000244 Ry

     iteration #  5     ecut=   120.00 Ry     beta= 0.40
     Davidson diagonalization with overlap
     ethr =  1.69E-09,  avg # of iterations =  5.5

     negative rho (up, down):  2.198E-06 0.000E+00

     total cpu time spent up to now is      381.7 secs

     total energy              =   -1077.90980459 Ry
     estimated scf accuracy    <       0.00000067 Ry

     iteration #  6     ecut=   120.00 Ry     beta= 0.40
     Davidson diagonalization with overlap
     ethr =  4.68E-10,  avg # of iterations =  2.9

     negative rho (up, down):  5.724E-07 0.000E+00

     total cpu time spent up to now is      385.1 secs

     total energy              =   -1077.90980471 Ry
     estimated scf accuracy    <       0.00000016 Ry

     iteration #  7     ecut=   120.00 Ry     beta= 0.40
     Davidson diagonalization with overlap
     ethr =  1.14E-10,  avg # of iterations =  2.7

     total cpu time spent up to now is      388.6 secs

     End of self-consistent calculation

          k = 0.0000 0.0000 0.0000 ( 76179 PWs)   bands (ev):

   -58.2927 -58.2886 -58.2316 -58.2232 -57.8638 -57.8593 -34.5932 -34.5895
   -34.5337 -34.5282 -34.4917 -34.4890 -34.4361 -34.4171 -34.4052 -34.4012
   -34.3238 -34.3072 -34.2550 -34.2507 -34.1252 -34.1207 -33.9045 -33.9000
   -19.3851 -19.1912 -18.7912 -18.4475 -18.3243 -18.3170 -17.9620 -17.9313
   -17.7481 -17.7373 -17.3658 -17.3593  -6.9246  -6.6339  -6.4590  -6.3428
    -5.9722  -5.7711  -5.7123  -5.4482  -5.2277  -5.2205  -5.0379  -5.0362
    -4.8481  -4.7136  -4.7101  -4.5333  -4.3111  -4.1400  -4.1217  -3.6539
    -3.5436  -3.4176  -3.3324  -3.3223  -3.0344  -3.0223  -2.8466  -2.8416
    -2.7878  -2.6214  -2.4975  -2.3066  -2.2996  -2.1237  -1.8566  -1.5803
     0.7170   0.8981   1.0611   1.1533   1.2406   1.2551   1.3428   1.3865
     1.5346   1.6660   1.7347   2.2166   2.3434   2.3854

          k = 0.0000 0.1728 0.0000 ( 76281 PWs)   bands (ev):

   -58.2879 -58.2838 -58.2267 -58.2188 -57.8589 -57.8543 -34.5813 -34.5776
   -34.5238 -34.5192 -34.4863 -34.4839 -34.4600 -34.4561 -34.4362 -34.4141
   -34.3708 -34.3603 -34.2501 -34.2458 -34.1169 -34.1124 -33.9611 -33.9566
   -19.2639 -19.0793 -18.6988 -18.3632 -18.2449 -18.2415 -18.0017 -17.9660
   -17.7947 -17.7891 -17.3977 -17.3920  -6.7582  -6.4853  -6.3183  -6.1986
    -5.8944  -5.7223  -5.6594  -5.4778  -5.3922  -5.3893  -5.2563  -5.0746
    -4.7357  -4.7084  -4.5004  -4.3896  -4.2273  -4.0013  -3.9936  -3.8522
    -3.7781  -3.5651  -3.4136  -3.2758  -3.2555  -3.1298  -3.1247  -2.9078
    -2.8823  -2.8252  -2.5790  -2.3197  -2.3178  -2.1052  -1.9012  -1.6277
     0.8470   1.0101   1.1228   1.1273   1.2458   1.3086   1.3666   1.4309
     1.6063   1.6911   1.8509   1.9127   1.9951   2.4055

          k = 0.0000 0.3455 0.0000 ( 76251 PWs)   bands (ev):

   -58.2758 -58.2717 -58.2140 -58.2075 -57.8462 -57.8417 -34.6050 -34.6012
   -34.5449 -34.5388 -34.5259 -34.5125 -34.4915 -34.4882 -34.4651 -34.4625
   -34.4094 -34.4009 -34.2409 -34.2366 -34.1303 -34.1259 -34.0654 -34.0608
   -18.9434 -18.7911 -18.4969 -18.2381 -18.0864 -18.0769 -18.0152 -18.0115
   -17.9068 -17.9064 -17.4654 -17.4612  -6.3218  -6.1283  -5.9630  -5.8913
    -5.7319  -5.6230  -5.5792  -5.5628  -5.4933  -5.4926  -5.2808  -5.1829
    -4.7618  -4.6092  -4.5128  -4.4722  -4.4138  -4.2172  -4.1237  -4.1142
    -4.0558  -3.7704  -3.7396  -3.4224  -3.3800  -3.2420  -3.1679  -2.9396
    -2.8158  -2.7522  -2.6413  -2.5634  -2.5329  -2.1820  -2.0296  -1.8437
     0.9478   1.0440   1.1075   1.1415   1.2028   1.4629   1.4735   1.6064
     1.7453   1.8199   1.9513   1.9581   2.0858   2.2037

          k = 0.0000 0.5183 0.0000 ( 76270 PWs)   bands (ev):

   -58.2620 -58.2579 -58.1993 -58.1950 -57.8318 -57.8273 -34.7517 -34.7479
   -34.6684 -34.6567 -34.5053 -34.5014 -34.4786 -34.4750 -34.4438 -34.4380
   -34.4001 -34.3915 -34.2846 -34.2803 -34.2194 -34.2151 -34.0507 -34.0461
   -18.5431 -18.4618 -18.4082 -18.3320 -18.1086 -18.0263 -17.9580 -17.9456
   -17.8651 -17.8468 -17.4718 -17.4678  -5.9089  -5.8543  -5.8290  -5.7534
    -5.6345  -5.6028  -5.5743  -5.5574  -5.4420  -5.4004  -5.3983  -5.2100
    -5.0360  -4.9991  -4.7144  -4.6285  -4.4912  -4.1543  -4.0898  -4.0793
    -3.9952  -3.8022  -3.6783  -3.5111  -3.4869  -3.2086  -3.0813  -3.0119
    -2.9234  -2.8162  -2.8065  -2.6570  -2.6175  -2.3356  -2.2670  -2.2538
     0.8198   0.9668   1.0341   1.3330   1.4823   1.4961   1.6815   1.6985
     1.8350   1.9259   2.0215   2.1319   2.2687   2.2897

          k = 0.0000 0.6910 0.0000 ( 76376 PWs)   bands (ev):

   -58.2529 -58.2489 -58.1890 -58.1873 -57.8224 -57.8179 -34.8474 -34.8436
   -34.7591 -34.7553 -34.4832 -34.4792 -34.4708 -34.4669 -34.4253 -34.4228
   -34.3893 -34.3858 -34.3751 -34.3708 -34.2171 -34.2128 -34.0322 -34.0276
   -18.4526 -18.4309 -18.2873 -18.2307 -18.1733 -18.0262 -17.9489 -17.9033
   -17.7936 -17.7639 -17.3916 -17.3874  -6.2449  -6.1467  -5.9817  -5.9009
    -5.5858  -5.5744  -5.5299  -5.4657  -5.3262  -5.3226  -5.2604  -5.2465
    -4.8283  -4.8089  -4.5333  -4.4110  -4.2326  -4.1140  -4.1032  -4.0459
    -4.0293  -3.9536  -3.8239  -3.5484  -3.4102  -3.2374  -3.1424  -3.0203
    -2.9381  -2.8873  -2.8804  -2.7597  -2.7171  -2.6332  -2.4405  -2.3436
     0.7964   1.0072   1.1201   1.3027   1.4440   1.7203   1.7532   1.7699
     1.8610   1.9391   2.1099   2.1142   2.4146   2.4812

          k = 0.1613 0.0000 0.0000 ( 76264 PWs)   bands (ev):

   -58.2926 -58.2886 -58.2311 -58.2238 -57.8638 -57.8593 -34.5943 -34.5906
   -34.5346 -34.5309 -34.4917 -34.4888 -34.4332 -34.4172 -34.4051 -34.4010
   -34.3228 -34.3084 -34.2547 -34.2505 -34.1252 -34.1206 -33.9045 -33.9000
   -19.3116 -19.1481 -18.7941 -18.4850 -18.3429 -18.3263 -17.9734 -17.9542
   -17.7729 -17.7349 -17.3708 -17.3662  -6.8526  -6.7085  -6.3786  -6.3734
    -5.8633  -5.7550  -5.6737  -5.3528  -5.2325  -5.2291  -5.0469  -5.0398
    -4.8368  -4.7185  -4.7147  -4.4935  -4.3126  -4.1752  -3.9603  -3.6285
    -3.5820  -3.3806  -3.3133  -3.2690  -3.0616  -3.0510  -2.9075  -2.8660
    -2.7082  -2.7009  -2.5673  -2.5347  -2.4179  -2.2909  -1.9818  -1.6984
     0.7902   0.8544   1.0892   1.1647   1.2726   1.2992   1.3394   1.4957
     1.6120   1.7711   1.8234   2.2095   2.2872   2.3001

          k = 0.1613 0.1728 0.0000 ( 76282 PWs)   bands (ev):

   -58.2879 -58.2838 -58.2262 -58.2193 -57.8589 -57.8543 -34.5823 -34.5786
   -34.5246 -34.5217 -34.4866 -34.4835 -34.4599 -34.4560 -34.4334 -34.4146
   -34.3701 -34.3609 -34.2499 -34.2456 -34.1169 -34.1124 -33.9610 -33.9566
   -19.1941 -19.0381 -18.7007 -18.4014 -18.2577 -18.2459 -18.0128 -17.9925
   -17.8207 -17.7849 -17.4026 -17.3982  -6.6947  -6.5606  -6.2365  -6.2306
    -5.8186  -5.7233  -5.6362  -5.4931  -5.4213  -5.3533  -5.1969  -5.0229
    -4.7208  -4.6997  -4.4759  -4.3536  -4.2640  -4.0811  -3.9120  -3.7361
    -3.7309  -3.6357  -3.4762  -3.2094  -3.2079  -3.1331  -3.1188  -2.9635
    -2.9131  -2.8498  -2.5832  -2.4554  -2.4289  -2.2551  -2.0211  -1.7381
     0.8685   0.9625   1.1165   1.2088   1.2536   1.3550   1.4058   1.4980
     1.6829   1.7014   1.8871   1.9161   2.0353   2.4109

          k = 0.1613 0.3455 0.0000 ( 76223 PWs)   bands (ev):

   -58.2758 -58.2717 -58.2136 -58.2080 -57.8462 -57.8417 -34.6049 -34.6011
   -34.5451 -34.5399 -34.5252 -34.5139 -34.4925 -34.4890 -34.4649 -34.4633
   -34.4076 -34.4003 -34.2409 -34.2366 -34.1303 -34.1259 -34.0652 -34.0607
   -18.8866 -18.7554 -18.4918 -18.2613 -18.0849 -18.0801 -18.0461 -18.0320
   -17.9344 -17.9002 -17.4692 -17.4652  -6.2936  -6.1883  -5.9484  -5.8957
    -5.7417  -5.7258  -5.5893  -5.5636  -5.5488  -5.4866  -5.1017  -5.0189
    -4.8334  -4.6466  -4.5279  -4.4830  -4.3110  -4.3045  -4.0592  -4.0325
    -4.0212  -3.7535  -3.7241  -3.4435  -3.4397  -3.1677  -3.1220  -2.9936
    -2.8662  -2.7576  -2.6612  -2.5436  -2.5314  -2.2657  -2.0989  -1.9178
     0.9087   1.0580   1.0976   1.1934   1.2677   1.4731   1.5108   1.6086
     1.7503   1.7879   1.9453   1.9493   2.1884   2.2128

          k = 0.1613 0.5183 0.0000 ( 76310 PWs)   bands (ev):

   -58.2620 -58.2579 -58.1990 -58.1953 -57.8318 -57.8273 -34.7516 -34.7478
   -34.6676 -34.6575 -34.5057 -34.5019 -34.4793 -34.4754 -34.4435 -34.4394
   -34.3987 -34.3914 -34.2847 -34.2803 -34.2193 -34.2150 -34.0507 -34.0462
   -18.5202 -18.4476 -18.3940 -18.3148 -18.0937 -18.0772 -17.9890 -17.9349
   -17.8669 -17.8547 -17.4719 -17.4679  -5.9529  -5.9088  -5.8209  -5.8119
    -5.6967  -5.6410  -5.5918  -5.5585  -5.5168  -5.4191  -5.4127  -5.2736
    -5.0516  -4.8061  -4.6194  -4.5435  -4.4120  -4.2039  -4.1359  -4.0165
    -4.0052  -3.8376  -3.6098  -3.5172  -3.4581  -3.1271  -3.0634  -3.0233
    -2.9549  -2.8593  -2.7317  -2.6384  -2.5741  -2.3361  -2.2786  -2.2266
     0.8516   0.9914   1.0237   1.4017   1.5152   1.5231   1.6635   1.7258
     1.8646   1.8871   1.9642   2.0272   2.1844   2.2617

          k = 0.1613 0.6910 0.0000 ( 76348 PWs)   bands (ev):

   -58.2529 -58.2489 -58.1889 -58.1874 -57.8224 -57.8179 -34.8473 -34.8436
   -34.7589 -34.7555 -34.4831 -34.4791 -34.4714 -34.4674 -34.4253 -34.4234
   -34.3890 -34.3860 -34.3749 -34.3707 -34.2171 -34.2129 -34.0323 -34.0277
   -18.4554 -18.4432 -18.2718 -18.2622 -18.1001 -18.0666 -17.9263 -17.9236
   -17.7939 -17.7663 -17.3877 -17.3836  -6.2416  -6.1881  -5.9780  -5.9544
    -5.6713  -5.6429  -5.5082  -5.4789  -5.4683  -5.3707  -5.2583  -5.2308
    -5.0062  -4.7526  -4.4799  -4.4512  -4.2250  -4.1545  -4.1099  -4.0049
    -3.9036  -3.8983  -3.6818  -3.4603  -3.2892  -3.1375  -3.1303  -3.0363
    -2.9358  -2.9157  -2.8336  -2.7165  -2.6655  -2.6123  -2.4248  -2.3277
     0.8628   1.0229   1.2214   1.2298   1.5486   1.6636   1.7559   1.7705
     1.8652   1.9322   2.0868   2.0952   2.3208   2.3261

          k = 0.3226 0.0000 0.0000 ( 76372 PWs)   bands (ev):

   -58.2925 -58.2885 -58.2296 -58.2254 -57.8638 -57.8593 -34.5964 -34.5928
   -34.5368 -34.5353 -34.4916 -34.4890 -34.4268 -34.4182 -34.4048 -34.4007
   -34.3199 -34.3115 -34.2542 -34.2499 -34.1250 -34.1205 -33.9045 -33.9001
   -19.1138 -19.0374 -18.8060 -18.5884 -18.4126 -18.4009 -17.9889 -17.9652
   -17.7900 -17.7547 -17.3834 -17.3793  -6.7549  -6.7318  -6.4518  -6.3425
    -5.7628  -5.7436  -5.3146  -5.2462  -5.2429  -5.0639  -5.0481  -5.0257
    -4.7266  -4.7228  -4.6605  -4.3925  -4.3371  -4.2764  -3.8611  -3.7451
    -3.6001  -3.3670  -3.2512  -3.2113  -3.1928  -3.1657  -2.9388  -2.9207
    -2.8604  -2.8123  -2.6550  -2.6475  -2.6053  -2.5432  -2.2322  -1.9997
     0.8539   0.8626   1.0653   1.1770   1.2861   1.3992   1.5497   1.6685
     1.8005   1.8755   2.0641   2.1479   2.1594   2.2065

          k = 0.3226 0.1728 0.0000 ( 76383 PWs)   bands (ev):

   -58.2878 -58.2837 -58.2248 -58.2208 -57.8589 -57.8544 -34.5842 -34.5806
   -34.5269 -34.5255 -34.4865 -34.4839 -34.4597 -34.4558 -34.4269 -34.4165
   -34.3680 -34.3626 -34.2495 -34.2452 -34.1168 -34.1123 -33.9610 -33.9566
   -19.0065 -18.9324 -18.7108 -18.5027 -18.3256 -18.3141 -18.0252 -18.0024
   -17.8374 -17.8017 -17.4142 -17.4101  -6.6074  -6.5869  -6.3057  -6.1994
    -5.7059  -5.6928  -5.5715  -5.5191  -5.4221  -5.3693  -4.9774  -4.7796
    -4.7085  -4.6675  -4.3792  -4.3270  -4.2272  -4.1120  -3.9156  -3.8055
    -3.6581  -3.5947  -3.4499  -3.2810  -3.2179  -3.1534  -3.1162  -3.1008
    -2.9924  -2.8940  -2.7521  -2.6891  -2.5011  -2.4370  -2.2252  -1.9822
     0.8957   0.9073   1.0861   1.2416   1.3829   1.3913   1.5422   1.6123
     1.8115   1.8216   1.9362   1.9752   2.1471   2.3752

          k = 0.3226 0.3455 0.0000 ( 76318 PWs)   bands (ev):

   -58.2757 -58.2716 -58.2125 -58.2091 -57.8462 -57.8417 -34.6049 -34.6010
   -34.5457 -34.5418 -34.5233 -34.5171 -34.4940 -34.4914 -34.4651 -34.4640
   -34.4039 -34.3997 -34.2408 -34.2365 -34.1303 -34.1259 -34.0650 -34.0605
   -18.7340 -18.6644 -18.4872 -18.3319 -18.1683 -18.1527 -18.0445 -18.0353
   -17.9437 -17.9108 -17.4772 -17.4732  -6.2344  -6.2314  -5.9976  -5.8892
    -5.7995  -5.7611  -5.6612  -5.5975  -5.5712  -5.5460  -4.9354  -4.8986
    -4.6834  -4.5794  -4.4874  -4.4555  -4.3501  -4.2385  -4.0194  -3.9669
    -3.8454  -3.7588  -3.7150  -3.5045  -3.3836  -3.1768  -3.1606  -3.0529
    -2.8824  -2.8770  -2.6617  -2.5437  -2.4842  -2.4374  -2.2570  -2.0946
     0.9773   1.0144   1.1067   1.2835   1.3058   1.4272   1.5706   1.6383
     1.8107   1.8504   2.0459   2.0616   2.1498   2.2219

          k = 0.3226 0.5183 0.0000 ( 76259 PWs)   bands (ev):

   -58.2619 -58.2579 -58.1983 -58.1960 -57.8318 -57.8273 -34.7515 -34.7477
   -34.6654 -34.6597 -34.5064 -34.5027 -34.4804 -34.4768 -34.4435 -34.4412
   -34.3958 -34.3916 -34.2848 -34.2804 -34.2191 -34.2149 -34.0508 -34.0462
   -18.4626 -18.4180 -18.3594 -18.2826 -18.1520 -18.0708 -18.0411 -17.9522
   -17.8783 -17.8713 -17.4720 -17.4680  -6.0135  -5.9854  -5.9285  -5.8250
    -5.7774  -5.7579  -5.6531  -5.6356  -5.5649  -5.4306  -5.3595  -5.3499
    -4.9688  -4.6518  -4.5804  -4.5259  -4.3169  -4.1511  -4.0467  -3.9482
    -3.9074  -3.8562  -3.6262  -3.4141  -3.3761  -3.2275  -3.1000  -2.9763
    -2.8661  -2.8247  -2.6552  -2.5849  -2.4679  -2.3680  -2.3254  -2.2581
     0.9322   1.0765   1.1282   1.4492   1.4620   1.5798   1.6069   1.7247
     1.7978   1.8261   1.9866   2.0443   2.1627   2.1662

          k = 0.3226 0.6910 0.0000 ( 76319 PWs)   bands (ev):

   -58.2529 -58.2488 -58.1887 -58.1876 -57.8224 -57.8179 -34.8473 -34.8436
   -34.7582 -34.7561 -34.4820 -34.4780 -34.4734 -34.4695 -34.4257 -34.4244
   -34.3882 -34.3863 -34.3746 -34.3704 -34.2173 -34.2130 -34.0325 -34.0279
   -18.4637 -18.4581 -18.2845 -18.2473 -18.0794 -18.0239 -17.9579 -17.9202
   -17.7978 -17.7730 -17.3803 -17.3762  -6.2370  -6.2321  -6.0592  -6.0469
    -5.8590  -5.8224  -5.6046  -5.5102  -5.4461  -5.3799  -5.2683  -5.2630
    -4.9959  -4.8048  -4.5529  -4.4461  -4.1843  -4.1279  -4.0761  -3.9671
    -3.9212  -3.8310  -3.4592  -3.3728  -3.1968  -3.1297  -3.0346  -2.9154
    -2.8807  -2.7965  -2.7158  -2.6993  -2.5221  -2.4837  -2.3853  -2.3021
     0.9448   1.0643   1.2088   1.3551   1.5870   1.6771   1.7621   1.7721
     1.8690   1.9014   2.0476   2.0581   2.1818   2.2173

          k =-0.4839 0.0000 0.0000 ( 76438 PWs)   bands (ev):

   -58.2925 -58.2884 -58.2279 -58.2271 -57.8639 -57.8593 -34.5975 -34.5939
   -34.5381 -34.5372 -34.4914 -34.4893 -34.4213 -34.4212 -34.4047 -34.4006
   -34.3161 -34.3155 -34.2539 -34.2497 -34.1249 -34.1204 -33.9046 -33.9001
   -18.9412 -18.9381 -18.7784 -18.7774 -18.4648 -18.4607 -17.9698 -17.9662
   -17.7843 -17.7836 -17.3901 -17.3859  -6.7305  -6.7279  -6.4136  -6.4134
    -5.7525  -5.7486  -5.2524  -5.2508  -5.0633  -5.0615  -4.7299  -4.7263
    -4.6853  -4.6840  -4.5741  -4.5728  -4.2969  -4.2954  -4.1252  -4.1224
    -3.4697  -3.4690  -3.2560  -3.2545  -3.1970  -3.1936  -2.9424  -2.9407
    -2.8728  -2.8707  -2.6955  -2.6921  -2.5310  -2.5283  -2.3368  -2.3361
     0.8646   0.8677   1.1143   1.1153   1.4170   1.4183   1.6085   1.6098
     2.0627   2.0663   2.0697   2.0746   2.2540   2.2563

          k =-0.4839 0.1728 0.0000 ( 76384 PWs)   bands (ev):

   -58.2877 -58.2837 -58.2232 -58.2224 -57.8589 -57.8544 -34.5852 -34.5816
   -34.5283 -34.5270 -34.4861 -34.4844 -34.4596 -34.4557 -34.4207 -34.4205
   -34.3655 -34.3649 -34.2493 -34.2450 -34.1167 -34.1122 -33.9610 -33.9566
   -18.8421 -18.8388 -18.6843 -18.6832 -18.3781 -18.3740 -18.0032 -17.9998
   -17.8302 -17.8296 -17.4203 -17.4161  -6.5860  -6.5834  -6.2680  -6.2678
    -5.6918  -5.6882  -5.5275  -5.5255  -5.3834  -5.3826  -4.7254  -4.7218
    -4.6248  -4.6223  -4.3223  -4.3207  -4.0955  -4.0920  -3.9884  -3.9869
    -3.5988  -3.5968  -3.4266  -3.4253  -3.2740  -3.2727  -3.1347  -3.1319
    -3.0175  -3.0160  -2.7869  -2.7850  -2.4244  -2.4218  -2.2383  -2.2372
     0.8852   0.8889   1.1507   1.1515   1.4504   1.4535   1.6090   1.6097
     1.8646   1.8677   2.1940   2.1967   2.2268   2.2306

          k =-0.4839 0.3455 0.0000 ( 76352 PWs)   bands (ev):

   -58.2757 -58.2716 -58.2112 -58.2104 -57.8462 -57.8417 -34.6048 -34.6010
   -34.5460 -34.5426 -34.5209 -34.5201 -34.4942 -34.4933 -34.4653 -34.4642
   -34.4009 -34.4006 -34.2408 -34.2365 -34.1304 -34.1259 -34.0649 -34.0604
   -18.5916 -18.5881 -18.4709 -18.4688 -18.2191 -18.2159 -18.0272 -18.0240
   -17.9339 -17.9333 -17.4813 -17.4773  -6.2271  -6.2243  -5.9431  -5.9422
    -5.8150  -5.8132  -5.6749  -5.6748  -5.5484  -5.5458  -4.9590  -4.9561
    -4.5226  -4.5219  -4.4545  -4.4518  -4.1172  -4.1164  -4.0324  -4.0296
    -3.7449  -3.7431  -3.6057  -3.6026  -3.3690  -3.3668  -3.1911  -3.1907
    -2.8894  -2.8861  -2.5954  -2.5941  -2.4474  -2.4469  -2.2858  -2.2843
     1.0168   1.0214   1.2266   1.2271   1.2839   1.2879   1.7117   1.7123
     1.9349   1.9374   2.0723   2.0741   2.1431   2.1445

          k =-0.4839 0.5183 0.0000 ( 76318 PWs)   bands (ev):

   -58.2619 -58.2578 -58.1975 -58.1967 -57.8318 -57.8273 -34.7515 -34.7477
   -34.6629 -34.6622 -34.5067 -34.5030 -34.4810 -34.4775 -34.4430 -34.4428
   -34.3932 -34.3928 -34.2848 -34.2805 -34.2190 -34.2148 -34.0508 -34.0462
   -18.4141 -18.4106 -18.3141 -18.3110 -18.1375 -18.1373 -17.9969 -17.9961
   -17.8856 -17.8829 -17.4720 -17.4680  -6.0143  -6.0134  -5.9375  -5.9361
    -5.7967  -5.7960  -5.6923  -5.6908  -5.5168  -5.5157  -5.3393  -5.3363
    -4.7637  -4.7633  -4.5954  -4.5932  -4.1445  -4.1417  -4.0127  -4.0100
    -3.7770  -3.7740  -3.5538  -3.5508  -3.3144  -3.3125  -3.0212  -3.0206
    -2.7664  -2.7626  -2.5291  -2.5272  -2.4566  -2.4558  -2.3619  -2.3593
     1.1237   1.1258   1.2817   1.2829   1.3596   1.3639   1.7243   1.7262
     1.9032   1.9048   1.9886   1.9907   2.1189   2.1203

          k =-0.4839 0.6910 0.0000 ( 76294 PWs)   bands (ev):

   -58.2529 -58.2488 -58.1886 -58.1878 -57.8224 -57.8179 -34.8473 -34.8435
   -34.7575 -34.7567 -34.4804 -34.4766 -34.4753 -34.4714 -34.4256 -34.4253
   -34.3874 -34.3867 -34.3744 -34.3702 -34.2174 -34.2131 -34.0326 -34.0280
   -18.4673 -18.4638 -18.2691 -18.2687 -18.0408 -18.0379 -17.9400 -17.9370
   -17.7898 -17.7892 -17.3767 -17.3726  -6.2296  -6.2281  -6.1227  -6.1207
    -5.9228  -5.9214  -5.6075  -5.6065  -5.3939  -5.3920  -5.2722  -5.2679
    -4.8075  -4.8069  -4.6172  -4.6152  -4.1340  -4.1308  -3.9727  -3.9705
    -3.8963  -3.8936  -3.4164  -3.4141  -3.1536  -3.1524  -2.9390  -2.9379
    -2.7708  -2.7676  -2.5982  -2.5979  -2.4250  -2.4229  -2.3356  -2.3342
     1.0040   1.0044   1.2690   1.2700   1.7100   1.7126   1.7697   1.7722
     1.9089   1.9093   2.0203   2.0240   2.1451   2.1473

     the Fermi energy is    -0.4235 ev

!    total energy              =   -1077.90980473 Ry
     estimated scf accuracy    <       0.00000002 Ry
     smearing contrib. (-TS)   =      -0.00000000 Ry
     internal energy E=F+TS    =   -1077.90980473 Ry

     The total energy is F=E-TS. E is the sum of the following terms:
     one-electron contribution =  -24816.38097234 Ry
     hartree contribution      =   12420.59168722 Ry
     xc contribution           =    -170.05090835 Ry
     ewald contribution        =   11487.93038874 Ry

     convergence has been achieved in   7 iterations

     Forces acting on atoms (cartesian axes, Ry/au):

     atom    1 type  1   force =     0.00109635    0.00000000    0.00013486
     atom    2 type  1   force =    -0.00248288    0.00000000   -0.00103113
     atom    3 type  1   force =    -0.00001815    0.00000000   -0.00134122
     atom    4 type  1   force =     0.00003381    0.00000000    0.00128173
     atom    5 type  1   force =    -0.00217495    0.00000000    0.00132471
     atom    6 type  1   force =     0.00096441    0.00000000   -0.00026852
     atom    7 type  2   force =    -0.00222524    0.00000000   -0.00048582
     atom    8 type  2   force =    -0.00082928    0.00000000   -0.00528090
     atom    9 type  2   force =    -0.00136150    0.00000000   -0.00303592
     atom   10 type  2   force =     0.00254652    0.00000000   -0.00053006
     atom   11 type  2   force =    -0.00084810    0.00000000    0.00432840
     atom   12 type  2   force =     0.00412667    0.00000000   -0.00025097
     atom   13 type  2   force =     0.00272223    0.00000000    0.00042614
     atom   14 type  2   force =    -0.00152884    0.00000000    0.00278131
     atom   15 type  2   force =     0.00417216    0.00000000    0.00013672
     atom   16 type  2   force =    -0.00080975    0.00000000   -0.00485228
     atom   17 type  2   force =    -0.00260816    0.00000000    0.00104573
     atom   18 type  2   force =    -0.00077531    0.00000000    0.00561722

     Total force =     0.014383     Total SCF correction =     0.000535


     Computing stress (Cartesian axis) and pressure

          total   stress  (Ry/bohr**3)                   (kbar)     P=        1.03
   0.00001366   0.00000000   0.00000011            2.01        0.00        0.02
   0.00000000  -0.00001217   0.00000000            0.00       -1.79        0.00
   0.00000011   0.00000000   0.00001943            0.02        0.00        2.86

     Energy error            =      6.9E-04 Ry
     Gradient error          =      5.6E-03 Ry/Bohr
     Cell gradient error     =      2.0E+00 kbar

     number of scf cycles    =   9
     number of bfgs steps    =   8

     enthalpy           old  =   -1077.9091126590 Ry
     enthalpy           new  =   -1077.9098047348 Ry

     CASE: enthalpy          _new < enthalpy          _old

     new trust radius        =       0.0298182331 bohr
     new conv_thr            =       0.0000000562 Ry

     new unit-cell volume =   3553.07092 a.u.^3 (   526.51079 Ang^3 )
     density =      1.51130 g/cm^3

CELL_PARAMETERS (angstrom)
   4.761693971   0.000000000   0.000000000
   0.000000000   2.950320247   0.000000000
   0.000000000   0.000000000  37.478019714

ATOMIC_POSITIONS (angstrom)
Ti               0.1883151509        0.0000000000       14.6366385578
Ti               2.5248587954        1.4751600362       16.8452356723
Ti               0.1236809611        0.0000000000       19.2197175514
Ti               2.5042610272        1.4751600362       21.4504027370
Ti               0.1437157296        0.0000000000       23.8268622430
Ti               2.5690350394        1.4751600362       26.0359653473
O                0.6803449129        1.4751601239       13.6472472273
O                1.4340111571        0.0000000000       15.9857049451
O                3.2937981239        0.0000000000       17.7705109128
O                0.8845946049        1.4751601239       18.2855098895
O                3.7182423979        1.4751601239       15.4195901695
O                1.4378724716        0.0000000000       20.5813643423
O                3.2647901422        0.0000000000       22.3841537753
O                0.9116797537        1.4751601239       22.9014921778
O                3.8198670956        1.4751601239       20.0895745922
O                1.3390047570        0.0000000000       25.2510562453
O                3.0590859722        0.0000000000       27.0258515946
O                3.8155441350        1.4751601239       24.6879702636



     Writing config-only to output data dir ./Out/pwscf.save/
     NEW-OLD atomic charge density approx. for the potential

     negative rho (up, down):  8.668E-05 0.000E+00

     total cpu time spent up to now is      394.5 secs

     Self-consistent Calculation

     iteration #  1     ecut=   120.00 Ry     beta= 0.40
     Davidson diagonalization with overlap
     ethr =  1.00E-06,  avg # of iterations =  7.0

     negative rho (up, down):  5.057E-05 0.000E+00

     total cpu time spent up to now is      400.2 secs

     total energy              =   -1077.91025929 Ry
     estimated scf accuracy    <       0.00045600 Ry

     iteration #  2     ecut=   120.00 Ry     beta= 0.40
     Davidson diagonalization with overlap
     ethr =  3.17E-07,  avg # of iterations =  7.7

     negative rho (up, down):  3.635E-05 0.000E+00

     total cpu time spent up to now is      404.6 secs

     total energy              =   -1077.91031228 Ry
     estimated scf accuracy    <       0.00021882 Ry

     iteration #  3     ecut=   120.00 Ry     beta= 0.40
     Davidson diagonalization with overlap
     ethr =  1.52E-07,  avg # of iterations =  2.6

     negative rho (up, down):  1.628E-05 0.000E+00

     total cpu time spent up to now is      408.0 secs

     total energy              =   -1077.91035075 Ry
     estimated scf accuracy    <       0.00006245 Ry

     iteration #  4     ecut=   120.00 Ry     beta= 0.40
     Davidson diagonalization with overlap
     ethr =  4.34E-08,  avg # of iterations =  2.1

     negative rho (up, down):  7.891E-06 0.000E+00

     total cpu time spent up to now is      411.4 secs

     total energy              =   -1077.91035997 Ry
     estimated scf accuracy    <       0.00000764 Ry

     iteration #  5     ecut=   120.00 Ry     beta= 0.40
     Davidson diagonalization with overlap
     ethr =  5.31E-09,  avg # of iterations =  6.0

     negative rho (up, down):  3.642E-06 0.000E+00

     total cpu time spent up to now is      415.6 secs

     total energy              =   -1077.91036277 Ry
     estimated scf accuracy    <       0.00000194 Ry

     iteration #  6     ecut=   120.00 Ry     beta= 0.40
     Davidson diagonalization with overlap
     ethr =  1.35E-09,  avg # of iterations =  3.5

     negative rho (up, down):  1.136E-06 0.000E+00

     total cpu time spent up to now is      419.2 secs

     total energy              =   -1077.91036315 Ry
     estimated scf accuracy    <       0.00000037 Ry

     iteration #  7     ecut=   120.00 Ry     beta= 0.40
     Davidson diagonalization with overlap
     ethr =  2.59E-10,  avg # of iterations =  4.2

     total cpu time spent up to now is      422.8 secs

     End of self-consistent calculation

          k = 0.0000 0.0000 0.0000 ( 76179 PWs)   bands (ev):

   -58.2874 -58.2862 -58.2702 -58.2619 -57.8498 -57.8472 -34.5915 -34.5904
   -34.5630 -34.5568 -34.5034 -34.5008 -34.4711 -34.4530 -34.3977 -34.3963
   -34.3613 -34.3448 -34.2465 -34.2443 -34.1135 -34.1112 -33.8907 -33.8884
   -19.4051 -19.1978 -18.8223 -18.4845 -18.3329 -18.3301 -17.9704 -17.9380
   -17.7993 -17.7872 -17.3734 -17.3686  -6.9392  -6.6308  -6.5073  -6.3713
    -5.9942  -5.7856  -5.7331  -5.4740  -5.2054  -5.1976  -5.0841  -5.0814
    -4.8854  -4.7147  -4.7139  -4.5575  -4.3363  -4.1815  -4.1470  -3.6748
    -3.5564  -3.4418  -3.3366  -3.3257  -3.0526  -3.0411  -2.8453  -2.8431
    -2.8052  -2.6494  -2.5445  -2.3514  -2.3325  -2.1505  -1.8771  -1.6196
     0.6991   0.8897   1.0308   1.1208   1.2249   1.2641   1.3318   1.3739
     1.5236   1.6464   1.7265   2.2265   2.3528   2.3923

          k = 0.0000 0.1731 0.0000 ( 76281 PWs)   bands (ev):

   -58.2825 -58.2813 -58.2652 -58.2573 -57.8447 -57.8421 -34.5797 -34.5784
   -34.5508 -34.5459 -34.5007 -34.4972 -34.4707 -34.4564 -34.4523 -34.4462
   -34.4090 -34.3989 -34.2414 -34.2392 -34.1050 -34.1027 -33.9484 -33.9461
   -19.2830 -19.0858 -18.7292 -18.3995 -18.2570 -18.2480 -18.0120 -17.9727
   -17.8453 -17.8396 -17.4052 -17.4013  -6.7716  -6.4808  -6.3663  -6.2263
    -5.9116  -5.7362  -5.6827  -5.5121  -5.4016  -5.3828  -5.2866  -5.1066
    -4.7529  -4.7184  -4.5267  -4.4119  -4.2472  -4.0289  -4.0150  -3.8531
    -3.7962  -3.5903  -3.4259  -3.2851  -3.2784  -3.1390  -3.1376  -2.9373
    -2.8974  -2.8457  -2.6066  -2.3566  -2.3522  -2.1339  -1.9165  -1.6643
     0.8258   1.0003   1.0911   1.1105   1.2381   1.3000   1.3637   1.4048
     1.5960   1.6767   1.8512   1.9152   1.9898   2.4102

          k = 0.0000 0.3463 0.0000 ( 76251 PWs)   bands (ev):

   -58.2701 -58.2688 -58.2523 -58.2458 -57.8318 -57.8292 -34.6008 -34.5995
   -34.5709 -34.5493 -34.5367 -34.5354 -34.5194 -34.5105 -34.4811 -34.4802
   -34.4471 -34.4373 -34.2321 -34.2299 -34.1200 -34.1178 -34.0531 -34.0508
   -18.9601 -18.7981 -18.5244 -18.2522 -18.1123 -18.0792 -18.0348 -18.0286
   -17.9533 -17.9522 -17.4716 -17.4699  -6.3328  -6.1264  -6.0059  -5.9118
    -5.7451  -5.6448  -5.6094  -5.5738  -5.5275  -5.5270  -5.2981  -5.2016
    -4.7809  -4.6301  -4.5255  -4.4930  -4.4393  -4.2540  -4.1347  -4.1324
    -4.0824  -3.7798  -3.7477  -3.4419  -3.4044  -3.2645  -3.1921  -2.9565
    -2.8325  -2.7813  -2.6717  -2.5841  -2.5578  -2.2040  -2.0347  -1.8754
     0.9089   1.0384   1.1019   1.1243   1.1970   1.4356   1.4580   1.5921
     1.7454   1.8200   1.9421   1.9433   2.0853   2.2076

          k = 0.0000 0.5194 0.0000 ( 76270 PWs)   bands (ev):

   -58.2559 -58.2546 -58.2373 -58.2330 -57.8170 -57.8144 -34.7485 -34.7473
   -34.7124 -34.7006 -34.5029 -34.5003 -34.4849 -34.4839 -34.4716 -34.4677
   -34.4382 -34.4284 -34.2779 -34.2759 -34.2102 -34.2080 -34.0372 -34.0348
   -18.5551 -18.4768 -18.4262 -18.3358 -18.1528 -18.0618 -17.9779 -17.9749
   -17.8829 -17.8724 -17.4741 -17.4730  -5.9308  -5.8661  -5.8460  -5.7722
    -5.6452  -5.6326  -5.6035  -5.5831  -5.4777  -5.4250  -5.4212  -5.2497
    -5.0528  -5.0288  -4.7320  -4.6532  -4.5092  -4.1801  -4.1066  -4.0871
    -4.0002  -3.8133  -3.7049  -3.5484  -3.5381  -3.2126  -3.1001  -3.0398
    -2.9448  -2.8484  -2.8456  -2.6619  -2.6243  -2.3422  -2.2915  -2.2686
     0.7877   0.9597   1.0227   1.3261   1.4716   1.4935   1.6703   1.6883
     1.8291   1.9296   2.0185   2.1081   2.2761   2.2935

          k = 0.0000 0.6925 0.0000 ( 76376 PWs)   bands (ev):

   -58.2466 -58.2453 -58.2268 -58.2252 -57.8073 -57.8047 -34.8454 -34.8442
   -34.8051 -34.8012 -34.4797 -34.4778 -34.4684 -34.4663 -34.4617 -34.4582
   -34.4281 -34.4240 -34.3706 -34.3687 -34.2076 -34.2054 -34.0182 -34.0158
   -18.4608 -18.4372 -18.3281 -18.2752 -18.1874 -18.0251 -17.9786 -17.9159
   -17.8242 -17.7995 -17.3912 -17.3900  -6.2697  -6.1710  -6.0059  -5.9276
    -5.6094  -5.6005  -5.5502  -5.4931  -5.3602  -5.3536  -5.2811  -5.2777
    -4.8576  -4.8175  -4.5523  -4.4201  -4.2546  -4.1474  -4.1246  -4.0742
    -4.0422  -3.9831  -3.8460  -3.5638  -3.4352  -3.2443  -3.1725  -3.0510
    -2.9688  -2.9112  -2.9096  -2.7814  -2.7183  -2.6471  -2.4508  -2.3606
     0.7750   0.9909   1.1191   1.2902   1.4409   1.7250   1.7379   1.7908
     1.8542   1.9158   2.1332   2.1348   2.3874   2.4558

          k = 0.1609 0.0000 0.0000 ( 76264 PWs)   bands (ev):

   -58.2873 -58.2861 -58.2697 -58.2625 -57.8498 -57.8472 -34.5931 -34.5920
   -34.5632 -34.5590 -34.5028 -34.5012 -34.4684 -34.4530 -34.3975 -34.3961
   -34.3604 -34.3461 -34.2462 -34.2440 -34.1134 -34.1111 -33.8908 -33.8884
   -19.3317 -19.1547 -18.8245 -18.5225 -18.3508 -18.3440 -17.9775 -17.9618
   -17.8260 -17.7832 -17.3776 -17.3753  -6.8654  -6.7195  -6.4102  -6.4072
    -5.8823  -5.7695  -5.6973  -5.3782  -5.2098  -5.2078  -5.0916  -5.0845
    -4.8702  -4.7196  -4.7181  -4.5192  -4.3421  -4.2000  -4.0026  -3.6537
    -3.5968  -3.3984  -3.3162  -3.2708  -3.0796  -3.0736  -2.9184  -2.8735
    -2.7199  -2.7186  -2.6093  -2.5740  -2.4530  -2.3201  -2.0066  -1.7365
     0.7693   0.8416   1.0625   1.1317   1.2705   1.2799   1.3431   1.4833
     1.6102   1.7598   1.8044   2.2190   2.2974   2.3095

          k = 0.1609 0.1731 0.0000 ( 76282 PWs)   bands (ev):

   -58.2824 -58.2812 -58.2647 -58.2579 -57.8447 -57.8421 -34.5810 -34.5800
   -34.5514 -34.5477 -34.4998 -34.4978 -34.4687 -34.4561 -34.4517 -34.4467
   -34.4084 -34.3995 -34.2412 -34.2390 -34.1049 -34.1026 -33.9484 -33.9461
   -19.2134 -19.0445 -18.7306 -18.4374 -18.2651 -18.2627 -18.0177 -18.0005
   -17.8737 -17.8332 -17.4092 -17.4072  -6.7064  -6.5709  -6.2664  -6.2632
    -5.8355  -5.7358  -5.6581  -5.5168  -5.4346  -5.3636  -5.2236  -5.0480
    -4.7348  -4.7086  -4.5043  -4.3771  -4.2863  -4.0983  -3.9307  -3.7569
    -3.7516  -3.6514  -3.4974  -3.2302  -3.2197  -3.1435  -3.1313  -2.9851
    -2.9282  -2.8748  -2.6072  -2.4945  -2.4641  -2.2836  -2.0377  -1.7732
     0.8449   0.9512   1.0918   1.1920   1.2484   1.3416   1.3849   1.4872
     1.6760   1.6941   1.8890   1.9195   2.0231   2.4149

          k = 0.1609 0.3463 0.0000 ( 76223 PWs)   bands (ev):

   -58.2700 -58.2687 -58.2519 -58.2463 -57.8318 -57.8292 -34.6007 -34.5994
   -34.5699 -34.5510 -34.5384 -34.5363 -34.5190 -34.5119 -34.4813 -34.4803
   -34.4450 -34.4369 -34.2320 -34.2298 -34.1200 -34.1178 -34.0529 -34.0506
   -18.9034 -18.7625 -18.5188 -18.2784 -18.1051 -18.0904 -18.0620 -18.0480
   -17.9830 -17.9445 -17.4748 -17.4736  -6.3045  -6.1975  -5.9663  -5.9252
    -5.7614  -5.7520  -5.6111  -5.5888  -5.5739  -5.5063  -5.1232  -5.0380
    -4.8548  -4.6658  -4.5500  -4.4997  -4.3353  -4.3284  -4.0901  -4.0519
    -4.0415  -3.7599  -3.7288  -3.4719  -3.4690  -3.1866  -3.1409  -3.0096
    -2.8857  -2.7911  -2.6998  -2.5645  -2.5489  -2.2888  -2.1042  -1.9497
     0.8773   1.0553   1.0837   1.1846   1.2626   1.4467   1.4938   1.5814
     1.7456   1.7892   1.9413   1.9475   2.1835   2.2147

          k = 0.1609 0.5194 0.0000 ( 76310 PWs)   bands (ev):

   -58.2558 -58.2546 -58.2370 -58.2333 -57.8170 -57.8144 -34.7485 -34.7472
   -34.7116 -34.7015 -34.5031 -34.5017 -34.4877 -34.4824 -34.4701 -34.4695
   -34.4364 -34.4285 -34.2779 -34.2759 -34.2101 -34.2079 -34.0372 -34.0349
   -18.5327 -18.4628 -18.4118 -18.3160 -18.1372 -18.1161 -18.0070 -17.9658
   -17.8844 -17.8806 -17.4740 -17.4730  -5.9726  -5.9211  -5.8382  -5.8276
    -5.7221  -5.6667  -5.6072  -5.5825  -5.5561  -5.4405  -5.4315  -5.3124
    -5.0765  -4.8338  -4.6404  -4.5703  -4.4338  -4.2225  -4.1457  -4.0251
    -4.0185  -3.8428  -3.6418  -3.5595  -3.5000  -3.1458  -3.0836  -3.0413
    -2.9769  -2.8970  -2.7599  -2.6456  -2.5883  -2.3448  -2.2810  -2.2671
     0.8163   0.9860   1.0193   1.3934   1.5127   1.5266   1.6440   1.7067
     1.8562   1.8801   1.9530   2.0286   2.1954   2.2798

          k = 0.1609 0.6925 0.0000 ( 76348 PWs)   bands (ev):

   -58.2466 -58.2453 -58.2267 -58.2253 -57.8073 -57.8047 -34.8454 -34.8441
   -34.8048 -34.8015 -34.4792 -34.4778 -34.4703 -34.4670 -34.4598 -34.4596
   -34.4277 -34.4242 -34.3704 -34.3685 -34.2077 -34.2055 -34.0183 -34.0159
   -18.4619 -18.4506 -18.3135 -18.3064 -18.1174 -18.0700 -17.9428 -17.9394
   -17.8243 -17.8040 -17.3875 -17.3863  -6.2652  -6.2111  -5.9998  -5.9790
    -5.7001  -5.6714  -5.5349  -5.4979  -5.4919  -5.3962  -5.2859  -5.2622
    -5.0231  -4.7772  -4.5022  -4.4662  -4.2469  -4.1702  -4.1394  -4.0284
    -3.9229  -3.9189  -3.7041  -3.4788  -3.3137  -3.1640  -3.1583  -3.0663
    -2.9518  -2.9436  -2.8616  -2.7172  -2.6919  -2.6299  -2.4378  -2.3479
     0.8388   1.0078   1.2135   1.2281   1.5450   1.6483   1.7638   1.7908
     1.8533   1.9080   2.1083   2.1169   2.3055   2.3122

          k = 0.3218 0.0000 0.0000 ( 76372 PWs)   bands (ev):

   -58.2871 -58.2858 -58.2684 -58.2642 -57.8498 -57.8472 -34.5962 -34.5952
   -34.5643 -34.5623 -34.5027 -34.5015 -34.4622 -34.4539 -34.3971 -34.3957
   -34.3577 -34.3494 -34.2457 -34.2435 -34.1133 -34.1110 -33.8908 -33.8885
   -19.1324 -19.0432 -18.8368 -18.6310 -18.4246 -18.4165 -17.9924 -17.9702
   -17.8413 -17.8044 -17.3888 -17.3874  -6.7681  -6.7378  -6.4905  -6.3732
    -5.7773  -5.7592  -5.3444  -5.2267  -5.2202  -5.1081  -5.0900  -5.0497
    -4.7271  -4.7258  -4.6920  -4.4188  -4.3654  -4.3053  -3.8905  -3.7782
    -3.6336  -3.3721  -3.2509  -3.2465  -3.1904  -3.1778  -2.9588  -2.9490
    -2.8840  -2.8392  -2.6702  -2.6652  -2.6249  -2.5786  -2.2686  -2.0343
     0.8374   0.8384   1.0415   1.1427   1.2718   1.4012   1.5404   1.6546
     1.7939   1.8837   2.0539   2.1613   2.1723   2.2146

          k = 0.3218 0.1731 0.0000 ( 76383 PWs)   bands (ev):

   -58.2822 -58.2810 -58.2635 -58.2595 -57.8447 -57.8421 -34.5839 -34.5828
   -34.5527 -34.5506 -34.4993 -34.4982 -34.4634 -34.4566 -34.4505 -34.4476
   -34.4066 -34.4012 -34.2408 -34.2386 -34.1048 -34.1025 -33.9483 -33.9461
   -19.0242 -18.9381 -18.7410 -18.5433 -18.3376 -18.3296 -18.0294 -18.0074
   -17.8885 -17.8512 -17.4195 -17.4182  -6.6200  -6.5927  -6.3422  -6.2283
    -5.7203  -5.7076  -5.5807  -5.5246  -5.4494  -5.3993  -5.0033  -4.7948
    -4.7166  -4.6779  -4.4062  -4.3525  -4.2542  -4.1307  -3.9312  -3.8442
    -3.6694  -3.6033  -3.4870  -3.3035  -3.2379  -3.1617  -3.1300  -3.1159
    -3.0050  -2.9342  -2.7785  -2.7185  -2.5226  -2.4647  -2.2482  -2.0143
     0.8826   0.8848   1.0634   1.2080   1.3790   1.3926   1.5242   1.5965
     1.8077   1.8261   1.9370   1.9786   2.1319   2.3782

          k = 0.3218 0.3463 0.0000 ( 76318 PWs)   bands (ev):

   -58.2699 -58.2686 -58.2508 -58.2475 -57.8318 -57.8292 -34.6010 -34.5989
   -34.5665 -34.5556 -34.5416 -34.5375 -34.5187 -34.5153 -34.4815 -34.4801
   -34.4409 -34.4363 -34.2319 -34.2297 -34.1201 -34.1179 -34.0527 -34.0504
   -18.7496 -18.6713 -18.5137 -18.3562 -18.1828 -18.1734 -18.0623 -18.0442
   -17.9873 -17.9568 -17.4819 -17.4807  -6.2455  -6.2401  -6.0215  -5.9052
    -5.8279  -5.7811  -5.6916  -5.6198  -5.5865  -5.5650  -4.9516  -4.9143
    -4.7051  -4.6069  -4.5025  -4.4753  -4.3740  -4.2631  -4.0522  -3.9860
    -3.8734  -3.7619  -3.7229  -3.5348  -3.4172  -3.2009  -3.1925  -3.0741
    -2.9005  -2.8882  -2.7092  -2.5630  -2.5028  -2.4624  -2.2639  -2.1249
     0.9493   1.0133   1.0941   1.2825   1.3061   1.3911   1.5468   1.6237
     1.8088   1.8419   2.0451   2.0606   2.1511   2.2134

          k = 0.3218 0.5194 0.0000 ( 76259 PWs)   bands (ev):

   -58.2558 -58.2545 -58.2363 -58.2341 -57.8170 -57.8144 -34.7484 -34.7471
   -34.7094 -34.7037 -34.5047 -34.5033 -34.4881 -34.4852 -34.4700 -34.4692
   -34.4332 -34.4287 -34.2780 -34.2760 -34.2099 -34.2077 -34.0373 -34.0349
   -18.4759 -18.4333 -18.3763 -18.2745 -18.2003 -18.1059 -18.0678 -17.9838
   -17.8964 -17.8959 -17.4739 -17.4728  -6.0298  -5.9991  -5.9468  -5.8438
    -5.8030  -5.7789  -5.6740  -5.6498  -5.5905  -5.4550  -5.3845  -5.3790
    -5.0032  -4.6755  -4.6066  -4.5580  -4.3314  -4.1616  -4.0565  -3.9567
    -3.9311  -3.8661  -3.6633  -3.4472  -3.4036  -3.2553  -3.1281  -3.0207
    -2.8882  -2.8354  -2.6774  -2.5984  -2.4964  -2.3809  -2.3299  -2.3009
     0.9013   1.0751   1.1271   1.4525   1.4681   1.5547   1.5946   1.6978
     1.7779   1.8261   1.9957   2.0498   2.1653   2.1706

          k = 0.3218 0.6925 0.0000 ( 76319 PWs)   bands (ev):

   -58.2465 -58.2453 -58.2265 -58.2255 -57.8073 -57.8047 -34.8453 -34.8441
   -34.8041 -34.8021 -34.4780 -34.4768 -34.4714 -34.4705 -34.4605 -34.4597
   -34.4267 -34.4245 -34.3700 -34.3682 -34.2079 -34.2056 -34.0185 -34.0161
   -18.4684 -18.4649 -18.3302 -18.2985 -18.0781 -18.0295 -17.9780 -17.9342
   -17.8312 -17.8132 -17.3803 -17.3792  -6.2585  -6.2548  -6.0770  -6.0654
    -5.8873  -5.8518  -5.6215  -5.5245  -5.4736  -5.4140  -5.2930  -5.2912
    -5.0226  -4.8297  -4.5762  -4.4691  -4.1993  -4.1406  -4.1041  -3.9903
    -3.9378  -3.8486  -3.4861  -3.3902  -3.2268  -3.1444  -3.0627  -2.9389
    -2.9246  -2.8065  -2.7512  -2.7055  -2.5475  -2.5084  -2.4066  -2.3292
     0.9183   1.0486   1.2069   1.3489   1.5749   1.6748   1.7829   1.7901
     1.8452   1.8772   2.0664   2.0778   2.1766   2.2095

          k =-0.4827 0.0000 0.0000 ( 76438 PWs)   bands (ev):

   -58.2870 -58.2857 -58.2667 -58.2661 -57.8498 -57.8472 -34.5977 -34.5967
   -34.5646 -34.5641 -34.5026 -34.5017 -34.4569 -34.4568 -34.3969 -34.3954
   -34.3539 -34.3535 -34.2454 -34.2432 -34.1132 -34.1109 -33.8909 -33.8885
   -18.9388 -18.9372 -18.8289 -18.8279 -18.4773 -18.4772 -17.9713 -17.9697
   -17.8363 -17.8354 -17.3950 -17.3935  -6.7394  -6.7378  -6.4481  -6.4478
    -5.7656  -5.7655  -5.2316  -5.2307  -5.1051  -5.1037  -4.7299  -4.7293
    -4.7229  -4.7222  -4.5944  -4.5935  -4.3260  -4.3250  -4.1520  -4.1504
    -3.4945  -3.4938  -3.2766  -3.2755  -3.1930  -3.1922  -2.9686  -2.9673
    -2.9040  -2.9028  -2.7024  -2.7019  -2.5573  -2.5554  -2.3736  -2.3725
     0.8451   0.8461   1.0854   1.0854   1.4067   1.4074   1.5988   1.5998
     2.0793   2.0816   2.0833   2.0870   2.2543   2.2552

          k =-0.4827 0.1731 0.0000 ( 76384 PWs)   bands (ev):

   -58.2821 -58.2809 -58.2619 -58.2612 -57.8447 -57.8421 -34.5853 -34.5843
   -34.5529 -34.5525 -34.4992 -34.4983 -34.4591 -34.4586 -34.4496 -34.4486
   -34.4041 -34.4037 -34.2406 -34.2384 -34.1048 -34.1025 -33.9483 -33.9460
   -18.8400 -18.8384 -18.7327 -18.7315 -18.3904 -18.3903 -18.0052 -18.0037
   -17.8821 -17.8812 -17.4251 -17.4237  -6.5946  -6.5930  -6.3006  -6.3002
    -5.7048  -5.7045  -5.5254  -5.5243  -5.4196  -5.4191  -4.7341  -4.7340
    -4.6453  -4.6446  -4.3435  -4.3420  -4.1226  -4.1206  -4.0130  -4.0116
    -3.6038  -3.6030  -3.4634  -3.4625  -3.3016  -3.3003  -3.1475  -3.1469
    -3.0358  -3.0354  -2.8066  -2.8057  -2.4503  -2.4479  -2.2668  -2.2656
     0.8717   0.8730   1.1186   1.1191   1.4504   1.4518   1.5941   1.5949
     1.8687   1.8705   2.1977   2.1980   2.2408   2.2430

          k =-0.4827 0.3463 0.0000 ( 76352 PWs)   bands (ev):

   -58.2698 -58.2685 -58.2495 -58.2489 -57.8318 -57.8292 -34.6006 -34.5994
   -34.5615 -34.5612 -34.5409 -34.5401 -34.5181 -34.5177 -34.4812 -34.4804
   -34.4376 -34.4375 -34.2319 -34.2297 -34.1201 -34.1179 -34.0526 -34.0503
   -18.5931 -18.5914 -18.5062 -18.5045 -18.2352 -18.2347 -18.0363 -18.0351
   -17.9810 -17.9807 -17.4856 -17.4843  -6.2360  -6.2342  -5.9671  -5.9665
    -5.8315  -5.8306  -5.7023  -5.7019  -5.5651  -5.5650  -4.9747  -4.9743
    -4.5417  -4.5408  -4.4669  -4.4661  -4.1518  -4.1513  -4.0518  -4.0494
    -3.7692  -3.7674  -3.6199  -3.6180  -3.4008  -3.3994  -3.2282  -3.2274
    -2.8961  -2.8947  -2.6224  -2.6221  -2.4682  -2.4668  -2.3090  -2.3084
     1.0135   1.0154   1.1918   1.1921   1.2873   1.2890   1.6930   1.6941
     1.9353   1.9366   2.0689   2.0698   2.1332   2.1335

          k =-0.4827 0.5194 0.0000 ( 76318 PWs)   bands (ev):

   -58.2557 -58.2545 -58.2355 -58.2349 -57.8170 -57.8144 -34.7484 -34.7471
   -34.7068 -34.7062 -34.5052 -34.5045 -34.4873 -34.4871 -34.4700 -34.4695
   -34.4304 -34.4301 -34.2781 -34.2761 -34.2098 -34.2076 -34.0373 -34.0349
   -18.4273 -18.4256 -18.3242 -18.3225 -18.1678 -18.1675 -18.0318 -18.0313
   -17.9053 -17.9049 -17.4738 -17.4727  -6.0299  -6.0290  -5.9559  -5.9551
    -5.8182  -5.8177  -5.7078  -5.7076  -5.5421  -5.5415  -5.3636  -5.3630
    -4.7932  -4.7926  -4.6246  -4.6242  -4.1561  -4.1555  -4.0186  -4.0174
    -3.7967  -3.7941  -3.5843  -3.5832  -3.3393  -3.3380  -3.0652  -3.0641
    -2.7724  -2.7720  -2.5529  -2.5528  -2.4942  -2.4935  -2.3733  -2.3728
     1.1085   1.1094   1.2691   1.2697   1.3689   1.3707   1.7074   1.7089
     1.8922   1.8932   1.9913   1.9926   2.1167   2.1173

          k =-0.4827 0.6925 0.0000 ( 76294 PWs)   bands (ev):

   -58.2465 -58.2453 -58.2263 -58.2257 -57.8073 -57.8047 -34.8453 -34.8441
   -34.8034 -34.8027 -34.4769 -34.4760 -34.4726 -34.4717 -34.4609 -34.4608
   -34.4257 -34.4251 -34.3698 -34.3680 -34.2079 -34.2057 -34.0186 -34.0162
   -18.4716 -18.4699 -18.3186 -18.3183 -18.0398 -18.0385 -17.9554 -17.9549
   -17.8286 -17.8283 -17.3769 -17.3758  -6.2531  -6.2524  -6.1361  -6.1348
    -5.9496  -5.9491  -5.6230  -5.6224  -5.4248  -5.4239  -5.2980  -5.2966
    -4.8379  -4.8373  -4.6360  -4.6348  -4.1477  -4.1460  -3.9998  -3.9983
    -3.9095  -3.9091  -3.4382  -3.4373  -3.1763  -3.1750  -2.9608  -2.9604
    -2.7905  -2.7900  -2.6303  -2.6296  -2.4503  -2.4496  -2.3630  -2.3623
     0.9837   0.9842   1.2637   1.2639   1.7148   1.7155   1.7796   1.7805
     1.8864   1.8868   2.0339   2.0358   2.1461   2.1468

     the Fermi energy is    -0.4462 ev

!    total energy              =   -1077.91036322 Ry
     estimated scf accuracy    <       0.00000004 Ry
     smearing contrib. (-TS)   =      -0.00000000 Ry
     internal energy E=F+TS    =   -1077.91036322 Ry

     The total energy is F=E-TS. E is the sum of the following terms:
     one-electron contribution =  -24800.15277969 Ry
     hartree contribution      =   12412.40444361 Ry
     xc contribution           =    -170.06879941 Ry
     ewald contribution        =   11479.90677227 Ry

     convergence has been achieved in   7 iterations

     Forces acting on atoms (cartesian axes, Ry/au):

     atom    1 type  1   force =    -0.00062515    0.00000000   -0.00157716
     atom    2 type  1   force =     0.00064962    0.00000000    0.00074681
     atom    3 type  1   force =    -0.00283603    0.00000000   -0.00352879
     atom    4 type  1   force =    -0.00273379    0.00000000    0.00357584
     atom    5 type  1   force =     0.00087311    0.00000000   -0.00060007
     atom    6 type  1   force =    -0.00087756    0.00000000    0.00151240
     atom    7 type  2   force =    -0.00264720    0.00000000   -0.00154680
     atom    8 type  2   force =     0.00198282    0.00000000   -0.00097152
     atom    9 type  2   force =    -0.00239468    0.00000000   -0.00220612
     atom   10 type  2   force =     0.00260367    0.00000000   -0.00025002
     atom   11 type  2   force =    -0.00066899    0.00000000    0.00174630
     atom   12 type  2   force =     0.00418564    0.00000000   -0.00056063
     atom   13 type  2   force =     0.00261159    0.00000000    0.00029855
     atom   14 type  2   force =    -0.00265759    0.00000000    0.00198578
     atom   15 type  2   force =     0.00417930    0.00000000    0.00059453
     atom   16 type  2   force =    -0.00098253    0.00000000   -0.00284307
     atom   17 type  2   force =    -0.00250900    0.00000000    0.00215058
     atom   18 type  2   force =     0.00184677    0.00000000    0.00147340

     Total force =     0.012772     Total SCF correction =     0.000827


     Computing stress (Cartesian axis) and pressure

          total   stress  (Ry/bohr**3)                   (kbar)     P=        2.25
   0.00001261   0.00000000   0.00000026            1.85        0.00        0.04
   0.00000000   0.00000881   0.00000000            0.00        1.30        0.00
   0.00000026   0.00000000   0.00002453            0.04        0.00        3.61

     Energy error            =      5.6E-04 Ry
     Gradient error          =      4.2E-03 Ry/Bohr
     Cell gradient error     =      1.9E+00 kbar

     number of scf cycles    =  10
     number of bfgs steps    =   9

     enthalpy           old  =   -1077.9098047348 Ry
     enthalpy           new  =   -1077.9103632188 Ry

     CASE: enthalpy          _new < enthalpy          _old

     new trust radius        =       0.0208115568 bohr
     new conv_thr            =       0.0000000419 Ry

     new unit-cell volume =   3556.28718 a.u.^3 (   526.98739 Ang^3 )
     density =      1.50993 g/cm^3

CELL_PARAMETERS (angstrom)
   4.770006518   0.000000000   0.000000000
   0.000000000   2.947844800   0.000000000
   0.000000000   0.000000000  37.478019714

ATOMIC_POSITIONS (angstrom)
Ti               0.1860488872        0.0000000000       14.6365913877
Ti               2.5277999747        1.4739223125       16.8428292119
Ti               0.1282014987        0.0000000000       19.2195820461
Ti               2.5130394148        1.4739223125       21.4504724093
Ti               0.1427679513        0.0000000000       23.8294134818
Ti               2.5708776431        1.4739223125       26.0362511763
O                0.6742085349        1.4739224002       13.6448258975
O                1.4366641184        0.0000000000       15.9796189940
O                3.2983370299        0.0000000000       17.7669944806
O                0.8883516931        1.4739224002       18.2846083150
O                3.7248869128        1.4739224002       15.4232506265
O                1.4463467796        0.0000000000       20.5808395048
O                3.2727909167        0.0000000000       22.3849325741
O                0.9117459621        1.4739224002       22.9046406257
O                3.8324433778        1.4739224002       20.0900651054
O                1.3417684921        0.0000000000       25.2466012918
O                3.0565053237        0.0000000000       27.0288254277
O                3.8222618149        1.4739224002       24.6945056875



     Writing config-only to output data dir ./Out/pwscf.save/
     NEW-OLD atomic charge density approx. for the potential

     negative rho (up, down):  4.313E-05 0.000E+00

     total cpu time spent up to now is      428.7 secs

     Self-consistent Calculation

     iteration #  1     ecut=   120.00 Ry     beta= 0.40
     Davidson diagonalization with overlap
     ethr =  1.00E-06,  avg # of iterations =  5.0

     negative rho (up, down):  2.515E-05 0.000E+00

     total cpu time spent up to now is      433.8 secs

     total energy              =   -1077.91056601 Ry
     estimated scf accuracy    <       0.00016287 Ry

     iteration #  2     ecut=   120.00 Ry     beta= 0.40
     Davidson diagonalization with overlap
     ethr =  1.13E-07,  avg # of iterations =  4.0

     negative rho (up, down):  1.557E-05 0.000E+00

     total cpu time spent up to now is      437.5 secs

     total energy              =   -1077.91060325 Ry
     estimated scf accuracy    <       0.00004148 Ry

     iteration #  3     ecut=   120.00 Ry     beta= 0.40
     Davidson diagonalization with overlap
     ethr =  2.88E-08,  avg # of iterations =  5.9

     negative rho (up, down):  8.002E-06 0.000E+00

     total cpu time spent up to now is      441.5 secs

     total energy              =   -1077.91061006 Ry
     estimated scf accuracy    <       0.00002263 Ry

     iteration #  4     ecut=   120.00 Ry     beta= 0.40
     Davidson diagonalization with overlap
     ethr =  1.57E-08,  avg # of iterations =  2.7

     negative rho (up, down):  3.849E-06 0.000E+00

     total cpu time spent up to now is      445.0 secs

     total energy              =   -1077.91061402 Ry
     estimated scf accuracy    <       0.00000444 Ry

     iteration #  5     ecut=   120.00 Ry     beta= 0.40
     Davidson diagonalization with overlap
     ethr =  3.08E-09,  avg # of iterations =  6.0

     negative rho (up, down):  2.137E-06 0.000E+00

     total cpu time spent up to now is      449.0 secs

     total energy              =   -1077.91061493 Ry
     estimated scf accuracy    <       0.00000084 Ry

     iteration #  6     ecut=   120.00 Ry     beta= 0.40
     Davidson diagonalization with overlap
     ethr =  5.82E-10,  avg # of iterations =  5.8

     negative rho (up, down):  8.921E-07 0.000E+00

     total cpu time spent up to now is      453.0 secs

     total energy              =   -1077.91061514 Ry
     estimated scf accuracy    <       0.00000023 Ry

     iteration #  7     ecut=   120.00 Ry     beta= 0.40
     Davidson diagonalization with overlap
     ethr =  1.57E-10,  avg # of iterations =  4.5

     negative rho (up, down):  2.651E-07 0.000E+00

     total cpu time spent up to now is      456.8 secs

     total energy              =   -1077.91061519 Ry
     estimated scf accuracy    <       0.00000004 Ry

     iteration #  8     ecut=   120.00 Ry     beta= 0.40
     Davidson diagonalization with overlap
     ethr =  2.95E-11,  avg # of iterations =  5.0

     total cpu time spent up to now is      460.6 secs

     End of self-consistent calculation

          k = 0.0000 0.0000 0.0000 ( 76179 PWs)   bands (ev):

   -58.2960 -58.2888 -58.2842 -58.2830 -57.8514 -57.8509 -34.6011 -34.5968
   -34.5745 -34.5724 -34.5125 -34.5063 -34.4878 -34.4737 -34.3968 -34.3952
   -34.3829 -34.3678 -34.2492 -34.2485 -34.1161 -34.1153 -33.8928 -33.8920
   -19.4139 -19.2028 -18.8349 -18.5029 -18.3415 -18.3370 -17.9762 -17.9451
   -17.8212 -17.8085 -17.3849 -17.3798  -6.9465  -6.6329  -6.5260  -6.3846
    -6.0020  -5.7936  -5.7445  -5.4890  -5.2007  -5.1926  -5.1040  -5.1030
    -4.8984  -4.7217  -4.7181  -4.5651  -4.3478  -4.2018  -4.1607  -3.6881
    -3.5687  -3.4581  -3.3377  -3.3238  -3.0694  -3.0573  -2.8535  -2.8502
    -2.8147  -2.6643  -2.5609  -2.3711  -2.3545  -2.1652  -1.8879  -1.6405
     0.6891   0.8880   1.0138   1.1053   1.2092   1.2651   1.3275   1.3628
     1.5133   1.6335   1.7070   2.2246   2.3538   2.3913

          k = 0.0000 0.1733 0.0000 ( 76281 PWs)   bands (ev):

   -58.2908 -58.2839 -58.2794 -58.2783 -57.8462 -57.8458 -34.5895 -34.5846
   -34.5620 -34.5617 -34.5114 -34.5033 -34.4853 -34.4718 -34.4523 -34.4496
   -34.4312 -34.4223 -34.2441 -34.2433 -34.1075 -34.1068 -33.9508 -33.9500
   -19.2915 -19.0907 -18.7413 -18.4175 -18.2649 -18.2548 -18.0184 -17.9799
   -17.8670 -17.8612 -17.4166 -17.4122  -6.7781  -6.4818  -6.3853  -6.2391
    -5.9178  -5.7439  -5.6946  -5.5296  -5.4088  -5.3831  -5.3007  -5.1239
    -4.7636  -4.7267  -4.5375  -4.4199  -4.2564  -4.0423  -4.0254  -3.8552
    -3.8072  -3.6063  -3.4350  -3.2931  -3.2906  -3.1507  -3.1483  -2.9507
    -2.9112  -2.8598  -2.6213  -2.3758  -2.3736  -2.1476  -1.9257  -1.6834
     0.8134   0.9961   1.0724   1.0992   1.2335   1.2907   1.3591   1.3908
     1.5876   1.6659   1.8404   1.9105   1.9776   2.4039

          k = 0.0000 0.3466 0.0000 ( 76251 PWs)   bands (ev):

   -58.2775 -58.2716 -58.2671 -58.2663 -57.8332 -57.8327 -34.6019 -34.6011
   -34.5915 -34.5722 -34.5471 -34.5462 -34.5277 -34.5209 -34.4867 -34.4866
   -34.4685 -34.4586 -34.2347 -34.2340 -34.1235 -34.1225 -34.0555 -34.0547
   -18.9678 -18.8032 -18.5342 -18.2624 -18.1235 -18.0870 -18.0460 -18.0383
   -17.9735 -17.9718 -17.4825 -17.4798  -6.3376  -6.1269  -6.0247  -5.9217
    -5.7503  -5.6565  -5.6243  -5.5793  -5.5423  -5.5417  -5.3097  -5.2105
    -4.7871  -4.6419  -4.5341  -4.5047  -4.4526  -4.2689  -4.1453  -4.1446
    -4.0943  -3.7860  -3.7553  -3.4546  -3.4168  -3.2783  -3.2067  -2.9664
    -2.8441  -2.7994  -2.6899  -2.5994  -2.5750  -2.2151  -2.0405  -1.8903
     0.8853   1.0341   1.0966   1.1129   1.1894   1.4205   1.4476   1.5785
     1.7428   1.8157   1.9307   1.9352   2.0734   2.2006

          k = 0.0000 0.5198 0.0000 ( 76270 PWs)   bands (ev):

   -58.2620 -58.2579 -58.2533 -58.2526 -57.8182 -57.8178 -34.7485 -34.7478
   -34.7376 -34.7260 -34.5155 -34.5097 -34.4913 -34.4905 -34.4779 -34.4755
   -34.4599 -34.4499 -34.2826 -34.2816 -34.2127 -34.2120 -34.0393 -34.0385
   -18.5613 -18.4846 -18.4328 -18.3408 -18.1725 -18.0786 -17.9918 -17.9867
   -17.8937 -17.8849 -17.4836 -17.4815  -5.9383  -5.8693  -5.8530  -5.7818
    -5.6544  -5.6425  -5.6196  -5.5940  -5.4947  -5.4351  -5.4305  -5.2651
    -5.0616  -5.0430  -4.7423  -4.6674  -4.5192  -4.1962  -4.1199  -4.0959
    -4.0052  -3.8222  -3.7172  -3.5666  -3.5580  -3.2182  -3.1140  -3.0565
    -2.9574  -2.8670  -2.8645  -2.6721  -2.6347  -2.3500  -2.3037  -2.2731
     0.7655   0.9544   1.0146   1.3181   1.4617   1.4871   1.6612   1.6774
     1.8208   1.9245   2.0127   2.0939   2.2733   2.2774

          k = 0.0000 0.6931 0.0000 ( 76376 PWs)   bands (ev):

   -58.2511 -58.2497 -58.2442 -58.2436 -57.8085 -57.8080 -34.8459 -34.8452
   -34.8311 -34.8273 -34.4887 -34.4843 -34.4793 -34.4771 -34.4648 -34.4635
   -34.4515 -34.4471 -34.3757 -34.3747 -34.2100 -34.2093 -34.0201 -34.0194
   -18.4655 -18.4412 -18.3467 -18.2940 -18.1955 -18.0275 -17.9930 -17.9239
   -17.8394 -17.8154 -17.3997 -17.3978  -6.2784  -6.1809  -6.0164  -5.9391
    -5.6224  -5.6140  -5.5564  -5.5032  -5.3740  -5.3692  -5.2920  -5.2879
    -4.8716  -4.8236  -4.5622  -4.4265  -4.2692  -4.1642  -4.1370  -4.0916
    -4.0533  -3.9991  -3.8560  -3.5755  -3.4488  -3.2521  -3.1880  -3.0668
    -2.9833  -2.9291  -2.9207  -2.7928  -2.7253  -2.6579  -2.4601  -2.3709
     0.7584   0.9779   1.1169   1.2801   1.4380   1.7178   1.7272   1.7960
     1.8496   1.8999   2.1337   2.1348   2.3636   2.4318

          k = 0.1606 0.0000 0.0000 ( 76264 PWs)   bands (ev):

   -58.2953 -58.2888 -58.2844 -58.2834 -57.8514 -57.8510 -34.6027 -34.5994
   -34.5748 -34.5734 -34.5113 -34.5069 -34.4859 -34.4735 -34.3961 -34.3949
   -34.3825 -34.3691 -34.2489 -34.2482 -34.1160 -34.1152 -33.8928 -33.8921
   -19.3410 -19.1597 -18.8370 -18.5407 -18.3586 -18.3536 -17.9817 -17.9693
   -17.8483 -17.8036 -17.3889 -17.3859  -6.8722  -6.7261  -6.4248  -6.4216
    -5.8897  -5.7780  -5.7090  -5.3925  -5.2050  -5.2034  -5.1128  -5.1038
    -4.8813  -4.7261  -4.7223  -4.5278  -4.3558  -4.2137  -4.0237  -3.6691
    -3.6093  -3.4111  -3.3168  -3.2695  -3.0962  -3.0905  -2.9285  -2.8834
    -2.7331  -2.7264  -2.6286  -2.5880  -2.4736  -2.3353  -2.0194  -1.7568
     0.7574   0.8361   1.0497   1.1148   1.2501   1.2794   1.3438   1.4727
     1.6040   1.7397   1.7906   2.2171   2.2984   2.3103

          k = 0.1606 0.1733 0.0000 ( 76282 PWs)   bands (ev):

   -58.2901 -58.2840 -58.2795 -58.2787 -57.8462 -57.8458 -34.5906 -34.5875
   -34.5627 -34.5620 -34.5100 -34.5040 -34.4840 -34.4716 -34.4514 -34.4497
   -34.4311 -34.4229 -34.2439 -34.2431 -34.1075 -34.1067 -33.9508 -33.9500
   -19.2223 -19.0495 -18.7425 -18.4550 -18.2733 -18.2716 -18.0222 -18.0082
   -17.8960 -17.8536 -17.4204 -17.4176  -6.7125  -6.5771  -6.2803  -6.2772
    -5.8421  -5.7429  -5.6690  -5.5312  -5.4423  -5.3691  -5.2369  -5.0625
    -4.7446  -4.7167  -4.5151  -4.3859  -4.2967  -4.1073  -3.9413  -3.7678
    -3.7644  -3.6613  -3.5079  -3.2419  -3.2291  -3.1549  -3.1425  -2.9958
    -2.9416  -2.8907  -2.6220  -2.5140  -2.4843  -2.2982  -2.0473  -1.7918
     0.8312   0.9455   1.0797   1.1811   1.2419   1.3297   1.3734   1.4788
     1.6689   1.6841   1.8825   1.9151   2.0063   2.4078

          k = 0.1606 0.3466 0.0000 ( 76223 PWs)   bands (ev):

   -58.2770 -58.2718 -58.2673 -58.2666 -57.8332 -57.8327 -34.6019 -34.6001
   -34.5913 -34.5738 -34.5509 -34.5457 -34.5267 -34.5224 -34.4876 -34.4862
   -34.4662 -34.4583 -34.2347 -34.2339 -34.1235 -34.1226 -34.0553 -34.0546
   -18.9114 -18.7676 -18.5286 -18.2891 -18.1167 -18.0985 -18.0728 -18.0578
   -18.0032 -17.9634 -17.4855 -17.4832  -6.3091  -6.2027  -5.9758  -5.9387
    -5.7700  -5.7620  -5.6231  -5.6015  -5.5852  -5.5159  -5.1355  -5.0469
    -4.8621  -4.6764  -4.5624  -4.5108  -4.3485  -4.3406  -4.1041  -4.0633
    -4.0531  -3.7656  -3.7348  -3.4866  -3.4827  -3.2002  -3.1539  -3.0194
    -2.8992  -2.8103  -2.7212  -2.5802  -2.5630  -2.3007  -2.1102  -1.9652
     0.8586   1.0513   1.0746   1.1772   1.2565   1.4301   1.4826   1.5625
     1.7410   1.7855   1.9341   1.9413   2.1698   2.2060

          k = 0.1606 0.5198 0.0000 ( 76310 PWs)   bands (ev):

   -58.2616 -58.2581 -58.2533 -58.2527 -57.8182 -57.8178 -34.7484 -34.7477
   -34.7368 -34.7269 -34.5162 -34.5117 -34.4928 -34.4890 -34.4786 -34.4756
   -34.4576 -34.4503 -34.2827 -34.2817 -34.2126 -34.2119 -34.0393 -34.0386
   -18.5393 -18.4704 -18.4183 -18.3207 -18.1568 -18.1328 -18.0187 -17.9802
   -17.8955 -17.8928 -17.4835 -17.4814  -5.9798  -5.9251  -5.8452  -5.8355
    -5.7335  -5.6789  -5.6142  -5.5937  -5.5704  -5.4538  -5.4398  -5.3289
    -5.0881  -4.8471  -4.6528  -4.5857  -4.4450  -4.2347  -4.1549  -4.0338
    -4.0281  -3.8498  -3.6565  -3.5751  -3.5202  -3.1592  -3.0978  -3.0520
    -2.9899  -2.9155  -2.7784  -2.6567  -2.6010  -2.3531  -2.2862  -2.2820
     0.7928   0.9807   1.0145   1.3850   1.5060   1.5237   1.6295   1.6925
     1.8483   1.8696   1.9428   2.0245   2.1918   2.2750

          k = 0.1606 0.6931 0.0000 ( 76348 PWs)   bands (ev):

   -58.2510 -58.2498 -58.2442 -58.2436 -57.8085 -57.8080 -34.8458 -34.8451
   -34.8308 -34.8276 -34.4882 -34.4860 -34.4788 -34.4774 -34.4649 -34.4639
   -34.4511 -34.4475 -34.3755 -34.3745 -34.2101 -34.2093 -34.0202 -34.0195
   -18.4658 -18.4550 -18.3315 -18.3261 -18.1272 -18.0745 -17.9527 -17.9477
   -17.8391 -17.8207 -17.3962 -17.3942  -6.2734  -6.2201  -6.0097  -5.9902
    -5.7128  -5.6842  -5.5428  -5.5060  -5.5007  -5.4080  -5.3019  -5.2747
    -5.0332  -4.7894  -4.5144  -4.4750  -4.2607  -4.1814  -4.1531  -4.0419
    -3.9358  -3.9322  -3.7166  -3.4918  -3.3269  -3.1804  -3.1706  -3.0863
    -2.9597  -2.9583  -2.8740  -2.7243  -2.7068  -2.6421  -2.4486  -2.3597
     0.8197   0.9952   1.2066   1.2250   1.5413   1.6358   1.7591   1.7957
     1.8468   1.8918   2.1078   2.1170   2.2862   2.2969

          k = 0.3213 0.0000 0.0000 ( 76372 PWs)   bands (ev):

   -58.2934 -58.2894 -58.2848 -58.2841 -57.8514 -57.8510 -34.6055 -34.6043
   -34.5759 -34.5748 -34.5101 -34.5077 -34.4809 -34.4742 -34.3949 -34.3941
   -34.3807 -34.3726 -34.2484 -34.2476 -34.1158 -34.1151 -33.8929 -33.8921
   -19.1423 -19.0482 -18.8492 -18.6500 -18.4340 -18.4264 -17.9966 -17.9762
   -17.8624 -17.8251 -17.3995 -17.3974  -6.7745  -6.7424  -6.5072  -6.3876
    -5.7863  -5.7683  -5.3563  -5.2232  -5.2151  -5.1286  -5.1085  -5.0629
    -4.7332  -4.7295  -4.7034  -4.4289  -4.3787  -4.3208  -3.9093  -3.7950
    -3.6506  -3.3806  -3.2634  -3.2512  -3.1913  -3.1902  -2.9711  -2.9667
    -2.8961  -2.8579  -2.6796  -2.6724  -2.6364  -2.5969  -2.2862  -2.0530
     0.8234   0.8300   1.0311   1.1255   1.2586   1.3978   1.5326   1.6368
     1.7849   1.8815   2.0414   2.1633   2.1737   2.2124

          k = 0.3213 0.1733 0.0000 ( 76383 PWs)   bands (ev):

   -58.2884 -58.2846 -58.2799 -58.2793 -57.8463 -57.8458 -34.5929 -34.5924
   -34.5642 -34.5628 -34.5082 -34.5050 -34.4798 -34.4727 -34.4501 -34.4494
   -34.4301 -34.4246 -34.2435 -34.2427 -34.1074 -34.1066 -33.9508 -33.9500
   -19.0336 -18.9430 -18.7529 -18.5614 -18.3470 -18.3395 -18.0339 -18.0137
   -17.9096 -17.8720 -17.4300 -17.4279  -6.6261  -6.5969  -6.3581  -6.2420
    -5.7293  -5.7161  -5.5862  -5.5316  -5.4612  -5.4112  -5.0165  -4.8062
    -4.7243  -4.6867  -4.4179  -4.3639  -4.2651  -4.1391  -3.9423  -3.8619
    -3.6763  -3.6094  -3.5036  -3.3159  -3.2527  -3.1710  -3.1389  -3.1278
    -3.0143  -2.9533  -2.7945  -2.7385  -2.5350  -2.4806  -2.2606  -2.0316
     0.8680   0.8781   1.0543   1.1914   1.3727   1.3899   1.5100   1.5796
     1.8009   1.8232   1.9305   1.9747   2.1158   2.3708

          k = 0.3213 0.3466 0.0000 ( 76318 PWs)   bands (ev):

   -58.2756 -58.2724 -58.2676 -58.2669 -57.8332 -57.8327 -34.6022 -34.5992
   -34.5885 -34.5778 -34.5551 -34.5474 -34.5260 -34.5249 -34.4879 -34.4860
   -34.4621 -34.4579 -34.2346 -34.2338 -34.1235 -34.1226 -34.0551 -34.0543
   -18.7580 -18.6764 -18.5235 -18.3683 -18.1928 -18.1850 -18.0730 -18.0531
   -18.0049 -17.9761 -17.4920 -17.4899  -6.2509  -6.2437  -6.0332  -5.9141
    -5.8402  -5.7898  -5.7049  -5.6300  -5.5950  -5.5748  -4.9596  -4.9221
    -4.7162  -4.6199  -4.5132  -4.4875  -4.3864  -4.2756  -4.0675  -3.9966
    -3.8866  -3.7671  -3.7297  -3.5498  -3.4321  -3.2163  -3.2102  -3.0875
    -2.9134  -2.8980  -2.7346  -2.5782  -2.5169  -2.4773  -2.2708  -2.1405
     0.9326   1.0095   1.0876   1.2777   1.3029   1.3741   1.5284   1.6103
     1.8028   1.8329   2.0405   2.0559   2.1407   2.1952

          k = 0.3213 0.5198 0.0000 ( 76259 PWs)   bands (ev):

   -58.2608 -58.2587 -58.2535 -58.2528 -57.8182 -57.8178 -34.7484 -34.7476
   -34.7346 -34.7291 -34.5178 -34.5147 -34.4930 -34.4908 -34.4777 -34.4755
   -34.4547 -34.4506 -34.2827 -34.2817 -34.2124 -34.2116 -34.0393 -34.0386
   -18.4828 -18.4399 -18.3832 -18.2765 -18.2202 -18.1248 -18.0796 -17.9991
   -17.9090 -17.9066 -17.4833 -17.4812  -6.0360  -6.0044  -5.9545  -5.8514
    -5.8135  -5.7889  -5.6805  -5.6556  -5.6020  -5.4672  -5.3990  -5.3922
    -5.0184  -4.6886  -4.6213  -4.5739  -4.3392  -4.1707  -4.0663  -3.9650
    -3.9453  -3.8739  -3.6799  -3.4640  -3.4148  -3.2726  -3.1433  -3.0407
    -2.9022  -2.8447  -2.6942  -2.6114  -2.5145  -2.3922  -2.3370  -2.3187
     0.8803   1.0703   1.1234   1.4478   1.4662   1.5383   1.5869   1.6801
     1.7608   1.8219   1.9920   2.0477   2.1564   2.1629

          k = 0.3213 0.6931 0.0000 ( 76319 PWs)   bands (ev):

   -58.2507 -58.2500 -58.2442 -58.2436 -57.8084 -57.8080 -34.8458 -34.8451
   -34.8301 -34.8283 -34.4888 -34.4870 -34.4777 -34.4776 -34.4660 -34.4654
   -34.4501 -34.4479 -34.3750 -34.3741 -34.2102 -34.2095 -34.0204 -34.0197
   -18.4714 -18.4687 -18.3496 -18.3203 -18.0813 -18.0367 -17.9877 -17.9427
   -17.8466 -17.8308 -17.3893 -17.3872  -6.2663  -6.2625  -6.0859  -6.0746
    -5.8979  -5.8622  -5.6279  -5.5291  -5.4835  -5.4265  -5.3097  -5.3078
    -5.0351  -4.8419  -4.5883  -4.4805  -4.2083  -4.1508  -4.1198  -4.0037
    -3.9510  -3.8616  -3.5007  -3.4023  -3.2413  -3.1555  -3.0746  -2.9536
    -2.9435  -2.8170  -2.7661  -2.7146  -2.5630  -2.5253  -2.4214  -2.3446
     0.8956   1.0336   1.2041   1.3424   1.5655   1.6706   1.7867   1.7941
     1.8298   1.8615   2.0658   2.0763   2.1656   2.1975

          k =-0.4819 0.0000 0.0000 ( 76438 PWs)   bands (ev):

   -58.2912 -58.2911 -58.2851 -58.2844 -57.8514 -57.8510 -34.6070 -34.6066
   -34.5762 -34.5758 -34.5089 -34.5088 -34.4765 -34.4764 -34.3944 -34.3936
   -34.3771 -34.3770 -34.2481 -34.2474 -34.1158 -34.1150 -33.8929 -33.8921
   -18.9407 -18.9396 -18.8500 -18.8487 -18.4890 -18.4858 -17.9749 -17.9744
   -17.8581 -17.8568 -17.4052 -17.4032  -6.7446  -6.7434  -6.4635  -6.4631
    -5.7760  -5.7733  -5.2279  -5.2266  -5.1239  -5.1227  -4.7403  -4.7392
    -4.7359  -4.7324  -4.6035  -4.6031  -4.3409  -4.3398  -4.1651  -4.1644
    -3.5096  -3.5086  -3.2889  -3.2877  -3.1950  -3.1942  -2.9892  -2.9845
    -2.9169  -2.9159  -2.7099  -2.7072  -2.5722  -2.5700  -2.3926  -2.3910
     0.8339   0.8342   1.0712   1.0718   1.3936   1.3944   1.5902   1.5909
     2.0827   2.0829   2.0835   2.0845   2.2424   2.2432

          k =-0.4819 0.1733 0.0000 ( 76384 PWs)   bands (ev):

   -58.2863 -58.2862 -58.2802 -58.2795 -57.8463 -57.8458 -34.5945 -34.5942
   -34.5644 -34.5640 -34.5065 -34.5064 -34.4756 -34.4754 -34.4497 -34.4490
   -34.4276 -34.4275 -34.2433 -34.2425 -34.1073 -34.1066 -33.9508 -33.9500
   -18.8419 -18.8409 -18.7527 -18.7513 -18.4019 -18.3988 -18.0092 -18.0087
   -17.9039 -17.9027 -17.4352 -17.4332  -6.5995  -6.5982  -6.3153  -6.3148
    -5.7152  -5.7123  -5.5281  -5.5269  -5.4346  -5.4344  -4.7443  -4.7417
    -4.6572  -4.6559  -4.3542  -4.3526  -4.1367  -4.1353  -4.0232  -4.0222
    -3.6108  -3.6100  -3.4778  -3.4772  -3.3169  -3.3154  -3.1604  -3.1576
    -3.0463  -3.0458  -2.8243  -2.8202  -2.4654  -2.4628  -2.2828  -2.2806
     0.8629   0.8630   1.1041   1.1047   1.4466   1.4476   1.5785   1.5796
     1.8652   1.8654   2.1883   2.1894   2.2316   2.2339

          k =-0.4819 0.3466 0.0000 ( 76352 PWs)   bands (ev):

   -58.2739 -58.2738 -58.2677 -58.2671 -57.8332 -57.8327 -34.6012 -34.6005
   -34.5833 -34.5832 -34.5528 -34.5525 -34.5262 -34.5257 -34.4868 -34.4868
   -34.4591 -34.4589 -34.2345 -34.2338 -34.1235 -34.1226 -34.0550 -34.0542
   -18.5963 -18.5955 -18.5209 -18.5191 -18.2462 -18.2446 -18.0443 -18.0440
   -18.0007 -18.0005 -17.4953 -17.4933  -6.2402  -6.2388  -5.9787  -5.9783
    -5.8395  -5.8388  -5.7148  -5.7136  -5.5751  -5.5731  -4.9831  -4.9817
    -4.5532  -4.5515  -4.4771  -4.4754  -4.1682  -4.1665  -4.0621  -4.0600
    -3.7826  -3.7806  -3.6281  -3.6270  -3.4173  -3.4156  -3.2477  -3.2465
    -2.9042  -2.9031  -2.6420  -2.6408  -2.4837  -2.4800  -2.3228  -2.3209
     1.0074   1.0078   1.1770   1.1770   1.2853   1.2853   1.6757   1.6771
     1.9303   1.9307   2.0631   2.0652   2.1161   2.1168

          k =-0.4819 0.5198 0.0000 ( 76318 PWs)   bands (ev):

   -58.2597 -58.2596 -58.2535 -58.2529 -57.8182 -57.8178 -34.7484 -34.7477
   -34.7318 -34.7317 -34.5175 -34.5173 -34.4924 -34.4920 -34.4767 -34.4766
   -34.4520 -34.4519 -34.2828 -34.2818 -34.2123 -34.2115 -34.0393 -34.0386
   -18.4329 -18.4319 -18.3321 -18.3307 -18.1819 -18.1814 -18.0479 -18.0473
   -17.9178 -17.9156 -17.4831 -17.4811  -6.0363  -6.0355  -5.9630  -5.9624
    -5.8277  -5.8274  -5.7131  -5.7123  -5.5546  -5.5524  -5.3783  -5.3766
    -4.8072  -4.8064  -4.6408  -4.6390  -4.1656  -4.1643  -4.0262  -4.0244
    -3.8088  -3.8063  -3.6000  -3.5996  -3.3533  -3.3522  -3.0848  -3.0826
    -2.7826  -2.7803  -2.5705  -2.5681  -2.5147  -2.5138  -2.3848  -2.3826
     1.0938   1.0943   1.2619   1.2622   1.3679   1.3681   1.6942   1.6958
     1.8799   1.8811   1.9877   1.9886   2.1075   2.1077

          k =-0.4819 0.6931 0.0000 ( 76294 PWs)   bands (ev):

   -58.2504 -58.2503 -58.2442 -58.2436 -57.8084 -57.8080 -34.8459 -34.8452
   -34.8291 -34.8290 -34.4886 -34.4885 -34.4765 -34.4764 -34.4676 -34.4670
   -34.4487 -34.4486 -34.3748 -34.3738 -34.2103 -34.2095 -34.0205 -34.0198
   -18.4744 -18.4733 -18.3399 -18.3390 -18.0437 -18.0428 -17.9654 -17.9638
   -17.8458 -17.8455 -17.3861 -17.3839  -6.2612  -6.2609  -6.1429  -6.1424
    -5.9591  -5.9587  -5.6285  -5.6281  -5.4368  -5.4358  -5.3145  -5.3130
    -4.8530  -4.8519  -4.6450  -4.6442  -4.1576  -4.1568  -4.0149  -4.0136
    -3.9225  -3.9208  -3.4517  -3.4509  -3.1882  -3.1868  -2.9718  -2.9714
    -2.8054  -2.8035  -2.6452  -2.6442  -2.4685  -2.4673  -2.3812  -2.3792
     0.9634   0.9641   1.2592   1.2596   1.7101   1.7106   1.7818   1.7822
     1.8710   1.8712   2.0323   2.0327   2.1380   2.1388

     the Fermi energy is    -0.4690 ev

!    total energy              =   -1077.91061520 Ry
     estimated scf accuracy    <          8.6E-09 Ry
     smearing contrib. (-TS)   =      -0.00000000 Ry
     internal energy E=F+TS    =   -1077.91061520 Ry

     The total energy is F=E-TS. E is the sum of the following terms:
     one-electron contribution =  -24771.18966392 Ry
     hartree contribution      =   12397.85991168 Ry
     xc contribution           =    -170.06981156 Ry
     ewald contribution        =   11465.48894860 Ry

     convergence has been achieved in   8 iterations

     Forces acting on atoms (cartesian axes, Ry/au):

     atom    1 type  1   force =    -0.00120896    0.00000000   -0.00166667
     atom    2 type  1   force =     0.00116539    0.00000000    0.00107799
     atom    3 type  1   force =    -0.00325584    0.00000000   -0.00303977
     atom    4 type  1   force =    -0.00320010    0.00000000    0.00326891
     atom    5 type  1   force =     0.00114207    0.00000000   -0.00117226
     atom    6 type  1   force =    -0.00143173    0.00000000    0.00168277
     atom    7 type  2   force =    -0.00287925    0.00000000   -0.00200807
     atom    8 type  2   force =     0.00266082    0.00000000    0.00025396
     atom    9 type  2   force =    -0.00186188    0.00000000   -0.00087442
     atom   10 type  2   force =     0.00210331    0.00000000   -0.00004599
     atom   11 type  2   force =     0.00020730    0.00000000    0.00031025
     atom   12 type  2   force =     0.00349024    0.00000000   -0.00100519
     atom   13 type  2   force =     0.00197771    0.00000000    0.00030044
     atom   14 type  2   force =    -0.00213226    0.00000000    0.00068154
     atom   15 type  2   force =     0.00333230    0.00000000    0.00114539
     atom   16 type  2   force =     0.00013430    0.00000000   -0.00119281
     atom   17 type  2   force =    -0.00265965    0.00000000    0.00214932
     atom   18 type  2   force =     0.00241623    0.00000000    0.00013460

     Total force =     0.011703     Total SCF correction =     0.000394


     Computing stress (Cartesian axis) and pressure

          total   stress  (Ry/bohr**3)                   (kbar)     P=        2.34
   0.00000827   0.00000000   0.00000040            1.22        0.00        0.06
   0.00000000   0.00001557   0.00000000            0.00        2.29        0.00
   0.00000040   0.00000000   0.00002394            0.06        0.00        3.52

     Energy error            =      2.5E-04 Ry
     Gradient error          =      3.5E-03 Ry/Bohr
     Cell gradient error     =      2.3E+00 kbar

     number of scf cycles    =  11
     number of bfgs steps    =  10

     enthalpy           old  =   -1077.9103632188 Ry
     enthalpy           new  =   -1077.9106151999 Ry

     CASE: enthalpy          _new < enthalpy          _old

     new trust radius        =       0.0311770349 bohr
     new conv_thr            =       0.0000000252 Ry

     new unit-cell volume =   3563.70707 a.u.^3 (   528.08690 Ang^3 )
     density =      1.50679 g/cm^3

CELL_PARAMETERS (angstrom)
   4.782475338   0.000000000   0.000000000
   0.000000000   2.946293609   0.000000000
   0.000000000   0.000000000  37.478019714

ATOMIC_POSITIONS (angstrom)
Ti               0.1827841134        0.0000000000       14.6360294142
Ti               2.5335663648        1.4731467170       16.8400772744
Ti               0.1323271263        0.0000000000       19.2178849051
Ti               2.5235540519        1.4731467170       21.4523171301
Ti               0.1425083901        0.0000000000       23.8321689724
Ti               2.5736706347        1.4731467170       26.0372702808
O                0.6629750155        1.4731468046       13.6398173170
O                1.4424313794        0.0000000000       15.9714831934
O                3.3043677360        0.0000000000       17.7623200370
O                0.8948541781        1.4731468046       18.2834343499
O                3.7351889986        1.4731468046       15.4275610424
O                1.4604108554        0.0000000000       20.5791985103
O                3.2854859046        0.0000000000       22.3862079848
O                0.9109092921        1.4731468046       22.9087046732
O                3.8524634773        1.4731468046       20.0918129829
O                1.3463189759        0.0000000000       25.2406918885
O                3.0508376478        0.0000000000       27.0344197987
O                3.8339083309        1.4731468046       24.7034484887



     Writing config-only to output data dir ./Out/pwscf.save/
     NEW-OLD atomic charge density approx. for the potential

     negative rho (up, down):  6.047E-05 0.000E+00

     total cpu time spent up to now is      466.5 secs

     Self-consistent Calculation

     iteration #  1     ecut=   120.00 Ry     beta= 0.40
     Davidson diagonalization with overlap
     ethr =  1.00E-06,  avg # of iterations =  6.0

     negative rho (up, down):  3.526E-05 0.000E+00

     total cpu time spent up to now is      471.9 secs

     total energy              =   -1077.91085872 Ry
     estimated scf accuracy    <       0.00039209 Ry

     iteration #  2     ecut=   120.00 Ry     beta= 0.40
     Davidson diagonalization with overlap
     ethr =  2.72E-07,  avg # of iterations =  2.0

     negative rho (up, down):  2.226E-05 0.000E+00

     total cpu time spent up to now is      475.3 secs

     total energy              =   -1077.91089376 Ry
     estimated scf accuracy    <       0.00010921 Ry

     iteration #  3     ecut=   120.00 Ry     beta= 0.40
     Davidson diagonalization with overlap
     ethr =  7.58E-08,  avg # of iterations =  2.7

     negative rho (up, down):  1.035E-05 0.000E+00

     total cpu time spent up to now is      478.7 secs

     total energy              =   -1077.91090861 Ry
     estimated scf accuracy    <       0.00004817 Ry

     iteration #  4     ecut=   120.00 Ry     beta= 0.40
     Davidson diagonalization with overlap
     ethr =  3.34E-08,  avg # of iterations =  3.0

     negative rho (up, down):  5.774E-06 0.000E+00

     total cpu time spent up to now is      482.2 secs

     total energy              =   -1077.91091663 Ry
     estimated scf accuracy    <       0.00000654 Ry

     iteration #  5     ecut=   120.00 Ry     beta= 0.40
     Davidson diagonalization with overlap
     ethr =  4.54E-09,  avg # of iterations =  6.3

     negative rho (up, down):  2.853E-06 0.000E+00

     total cpu time spent up to now is      486.4 secs

     total energy              =   -1077.91091866 Ry
     estimated scf accuracy    <       0.00000169 Ry

     iteration #  6     ecut=   120.00 Ry     beta= 0.40
     Davidson diagonalization with overlap
     ethr =  1.17E-09,  avg # of iterations =  3.2

     negative rho (up, down):  5.419E-07 0.000E+00

     total cpu time spent up to now is      489.9 secs

     total energy              =   -1077.91091897 Ry
     estimated scf accuracy    <       0.00000029 Ry

     iteration #  7     ecut=   120.00 Ry     beta= 0.40
     Davidson diagonalization with overlap
     ethr =  2.03E-10,  avg # of iterations =  5.3

     negative rho (up, down):  1.414E-07 0.000E+00

     total cpu time spent up to now is      493.9 secs

     total energy              =   -1077.91091904 Ry
     estimated scf accuracy    <       0.00000005 Ry

     iteration #  8     ecut=   120.00 Ry     beta= 0.40
     Davidson diagonalization with overlap
     ethr =  3.34E-11,  avg # of iterations =  4.3

     total cpu time spent up to now is      497.6 secs

     End of self-consistent calculation

          k = 0.0000 0.0000 0.0000 ( 76179 PWs)   bands (ev):

   -58.3372 -58.3290 -58.2925 -58.2919 -57.8686 -57.8652 -34.6333 -34.6256
   -34.5920 -34.5887 -34.5392 -34.5261 -34.5085 -34.5034 -34.4254 -34.4110
   -34.4006 -34.3988 -34.2649 -34.2611 -34.1336 -34.1298 -33.9102 -33.9062
   -19.4267 -19.2135 -18.8513 -18.5264 -18.3584 -18.3525 -17.9890 -17.9617
   -17.8486 -17.8343 -17.4074 -17.3990  -6.9586  -6.6431  -6.5463  -6.4033
    -6.0110  -5.8065  -5.7629  -5.5121  -5.2062  -5.1977  -5.1328  -5.1280
    -4.9108  -4.7374  -4.7302  -4.5724  -4.3621  -4.2304  -4.1804  -3.7089
    -3.5900  -3.4846  -3.3432  -3.3218  -3.0961  -3.0813  -2.8758  -2.8688
    -2.8321  -2.6856  -2.5774  -2.3954  -2.3893  -2.1865  -1.9050  -1.6719
     0.6687   0.8802   0.9850   1.0800   1.1782   1.2545   1.3141   1.3367
     1.4894   1.6104   1.6593   2.2109   2.3450   2.3792

          k = 0.0000 0.1734 0.0000 ( 76281 PWs)   bands (ev):

   -58.3320 -58.3243 -58.2876 -58.2870 -57.8634 -57.8600 -34.6215 -34.6132
   -34.5829 -34.5764 -34.5379 -34.5241 -34.5045 -34.4997 -34.4755 -34.4650
   -34.4553 -34.4545 -34.2597 -34.2559 -34.1251 -34.1213 -33.9683 -33.9644
   -19.3041 -19.1015 -18.7568 -18.4407 -18.2813 -18.2709 -18.0314 -17.9967
   -17.8945 -17.8873 -17.4388 -17.4309  -6.7894  -6.4906  -6.4063  -6.2574
    -5.9255  -5.7561  -5.7129  -5.5540  -5.4215  -5.3915  -5.3221  -5.1499
    -4.7808  -4.7426  -4.5518  -4.4280  -4.2675  -4.0621  -4.0398  -3.8637
    -3.8267  -3.6306  -3.4520  -3.3115  -3.3097  -3.1725  -3.1658  -2.9681
    -2.9349  -2.8829  -2.6420  -2.4069  -2.4023  -2.1666  -1.9418  -1.7120
     0.7900   0.9842   1.0405   1.0769   1.2194   1.2663   1.3431   1.3668
     1.5671   1.6440   1.8059   1.8932   1.9488   2.3822

          k = 0.0000 0.3467 0.0000 ( 76251 PWs)   bands (ev):

   -58.3188 -58.3125 -58.2751 -58.2745 -57.8503 -57.8468 -34.6334 -34.6154
   -34.6099 -34.6082 -34.5779 -34.5776 -34.5393 -34.5349 -34.5106 -34.5056
   -34.4940 -34.4890 -34.2504 -34.2466 -34.1414 -34.1373 -34.0729 -34.0692
   -18.9801 -18.8142 -18.5462 -18.2792 -18.1416 -18.1071 -18.0639 -18.0556
   -17.9989 -17.9977 -17.5040 -17.4971  -6.3464  -6.1328  -6.0478  -5.9365
    -5.7590  -5.6722  -5.6438  -5.5916  -5.5615  -5.5605  -5.3305  -5.2237
    -4.7939  -4.6594  -4.5498  -4.5241  -4.4734  -4.2858  -4.1654  -4.1619
    -4.1103  -3.7990  -3.7721  -3.4767  -3.4368  -3.2992  -3.2296  -2.9834
    -2.8635  -2.8274  -2.7158  -2.6235  -2.6023  -2.2314  -2.0540  -1.9122
     0.8470   1.0209   1.0781   1.0932   1.1687   1.3938   1.4258   1.5492
     1.7298   1.7994   1.9057   1.9163   2.0373   2.1788

          k = 0.0000 0.5201 0.0000 ( 76270 PWs)   bands (ev):

   -58.3034 -58.2993 -58.2609 -58.2603 -57.8353 -57.8318 -34.7776 -34.7671
   -34.7570 -34.7561 -34.5500 -34.5431 -34.5103 -34.5051 -34.4945 -34.4940
   -34.4842 -34.4795 -34.3010 -34.2970 -34.2283 -34.2244 -34.0567 -34.0529
   -18.5732 -18.4979 -18.4418 -18.3526 -18.1973 -18.1023 -18.0117 -18.0094
   -17.9131 -17.9045 -17.5037 -17.4975  -5.9465  -5.8748  -5.8628  -5.7968
    -5.6702  -5.6554  -5.6434  -5.6084  -5.5143  -5.4489  -5.4444  -5.2809
    -5.0766  -5.0628  -4.7593  -4.6897  -4.5356  -4.2221  -4.1428  -4.1131
    -4.0182  -3.8396  -3.7344  -3.5918  -3.5791  -3.2331  -3.1390  -3.0825
    -2.9777  -2.8943  -2.8908  -2.6924  -2.6547  -2.3637  -2.3175  -2.2845
     0.7266   0.9399   0.9966   1.2966   1.4376   1.4667   1.6400   1.6516
     1.7991   1.9053   1.9943   2.0668   2.2346   2.2557

          k = 0.0000 0.6935 0.0000 ( 76376 PWs)   bands (ev):

   -58.2928 -58.2912 -58.2515 -58.2509 -57.8254 -57.8220 -34.8715 -34.8681
   -34.8549 -34.8541 -34.5246 -34.5211 -34.4939 -34.4912 -34.4880 -34.4865
   -34.4714 -34.4709 -34.3938 -34.3900 -34.2254 -34.2215 -34.0375 -34.0338
   -18.4753 -18.4509 -18.3698 -18.3173 -18.2100 -18.0394 -18.0133 -17.9406
   -17.8621 -17.8375 -17.4197 -17.4138  -6.2881  -6.1937  -6.0294  -5.9534
    -5.6418  -5.6330  -5.5634  -5.5139  -5.3917  -5.3903  -5.3072  -5.2988
    -4.8908  -4.8368  -4.5782  -4.4413  -4.2928  -4.1889  -4.1567  -4.1193
    -4.0737  -4.0222  -3.8713  -3.5966  -3.4701  -3.2685  -3.2108  -3.0919
    -3.0031  -2.9547  -2.9368  -2.8123  -2.7422  -2.6766  -2.4749  -2.3853
     0.7255   0.9500   1.1060   1.2575   1.4265   1.6933   1.7039   1.7878
     1.8335   1.8693   2.1170   2.1203   2.3186   2.3840

          k = 0.1602 0.0000 0.0000 ( 76264 PWs)   bands (ev):

   -58.3366 -58.3295 -58.2925 -58.2919 -57.8686 -57.8652 -34.6344 -34.6287
   -34.5919 -34.5895 -34.5373 -34.5267 -34.5078 -34.5031 -34.4241 -34.4113
   -34.4008 -34.3995 -34.2646 -34.2608 -34.1335 -34.1297 -33.9102 -33.9063
   -19.3544 -19.1707 -18.8534 -18.5642 -18.3757 -18.3706 -17.9936 -17.9859
   -17.8753 -17.8286 -17.4114 -17.4042  -6.8841  -6.7377  -6.4449  -6.4408
    -5.8993  -5.7923  -5.7270  -5.4138  -5.2108  -5.2084  -5.1414  -5.1281
    -4.8913  -4.7413  -4.7341  -4.5366  -4.3742  -4.2336  -4.0524  -3.6917
    -3.6305  -3.4332  -3.3217  -3.2697  -3.1237  -3.1143  -2.9497  -2.9040
    -2.7551  -2.7433  -2.6532  -2.6037  -2.5039  -2.3562  -2.0384  -1.7872
     0.7337   0.8222   1.0284   1.0874   1.2143   1.2660   1.3342   1.4474
     1.5847   1.6924   1.7649   2.2034   2.2895   2.3013

          k = 0.1602 0.1734 0.0000 ( 76282 PWs)   bands (ev):

   -58.3315 -58.3248 -58.2876 -58.2870 -57.8634 -57.8600 -34.6222 -34.6167
   -34.5818 -34.5777 -34.5364 -34.5247 -34.5039 -34.4995 -34.4739 -34.4654
   -34.4558 -34.4548 -34.2595 -34.2557 -34.1250 -34.1212 -33.9683 -33.9644
   -19.2355 -19.0605 -18.7581 -18.4779 -18.2914 -18.2878 -18.0344 -18.0253
   -17.9230 -17.8789 -17.4425 -17.4355  -6.7235  -6.5883  -6.2999  -6.2959
    -5.8512  -5.7554  -5.6857  -5.5533  -5.4552  -5.3810  -5.2579  -5.0854
    -4.7613  -4.7323  -4.5278  -4.3954  -4.3106  -4.1212  -3.9585  -3.7869
    -3.7841  -3.6787  -3.5239  -3.2603  -3.2487  -3.1759  -3.1613  -3.0126
    -2.9653  -2.9147  -2.6448  -2.5401  -2.5142  -2.3186  -2.0637  -1.8199
     0.8060   0.9308   1.0587   1.1602   1.2222   1.3010   1.3528   1.4580
     1.6494   1.6589   1.8594   1.8983   1.9703   2.3847

          k = 0.1602 0.3467 0.0000 ( 76223 PWs)   bands (ev):

   -58.3184 -58.3129 -58.2751 -58.2745 -57.8503 -57.8468 -34.6319 -34.6148
   -34.6110 -34.6099 -34.5822 -34.5756 -34.5386 -34.5366 -34.5105 -34.5047
   -34.4927 -34.4893 -34.2504 -34.2466 -34.1414 -34.1373 -34.0728 -34.0691
   -18.9242 -18.7788 -18.5407 -18.3058 -18.1358 -18.1171 -18.0927 -18.0752
   -18.0284 -17.9877 -17.5067 -17.5000  -6.3177  -6.2128  -5.9911  -5.9569
    -5.7824  -5.7751  -5.6409  -5.6200  -5.6011  -5.5314  -5.1555  -5.0598
    -4.8702  -4.6923  -4.5812  -4.5300  -4.3694  -4.3573  -4.1206  -4.0821
    -4.0702  -3.7792  -3.7496  -3.5070  -3.5035  -3.2235  -3.1754  -3.0360
    -2.9216  -2.8392  -2.7513  -2.6051  -2.5863  -2.3182  -2.1239  -1.9882
     0.8274   1.0370   1.0550   1.1586   1.2389   1.4006   1.4601   1.5277
     1.7256   1.7698   1.9131   1.9212   2.1347   2.1811

          k = 0.1602 0.5201 0.0000 ( 76310 PWs)   bands (ev):

   -58.3031 -58.2995 -58.2609 -58.2603 -57.8353 -57.8318 -34.7768 -34.7676
   -34.7571 -34.7563 -34.5509 -34.5447 -34.5088 -34.5071 -34.4959 -34.4911
   -34.4829 -34.4809 -34.3011 -34.2970 -34.2282 -34.2243 -34.0567 -34.0530
   -18.5514 -18.4829 -18.4272 -18.3332 -18.1817 -18.1553 -18.0410 -18.0012
   -17.9163 -17.9116 -17.5036 -17.4974  -5.9883  -5.9315  -5.8553  -5.8481
    -5.7494  -5.6958  -5.6255  -5.6091  -5.5853  -5.4745  -5.4520  -5.3481
    -5.1060  -4.8655  -4.6716  -4.6092  -4.4624  -4.2556  -4.1734  -4.0506
    -4.0456  -3.8668  -3.6762  -3.5913  -3.5472  -3.1829  -3.1226  -3.0701
    -3.0109  -2.9414  -2.8067  -2.6777  -2.6230  -2.3678  -2.3005  -2.2979
     0.7522   0.9653   0.9999   1.3637   1.4848   1.5078   1.6014   1.6638
     1.8282   1.8448   1.9187   2.0080   2.1733   2.2557

          k = 0.1602 0.6935 0.0000 ( 76348 PWs)   bands (ev):

   -58.2927 -58.2912 -58.2515 -58.2509 -57.8254 -57.8220 -34.8713 -34.8682
   -34.8550 -34.8542 -34.5249 -34.5218 -34.4935 -34.4922 -34.4875 -34.4852
   -34.4722 -34.4717 -34.3936 -34.3898 -34.2255 -34.2216 -34.0376 -34.0339
   -18.4748 -18.4647 -18.3537 -18.3504 -18.1436 -18.0873 -17.9704 -17.9644
   -17.8612 -17.8434 -17.4164 -17.4104  -6.2823  -6.2316  -6.0227  -6.0047
    -5.7289  -5.7003  -5.5514  -5.5172  -5.5110  -5.4253  -5.3256  -5.2892
    -5.0508  -4.8074  -4.5333  -4.4905  -4.2837  -4.2018  -4.1726  -4.0634
    -3.9575  -3.9538  -3.7369  -3.5144  -3.3468  -3.2033  -3.1898  -3.1176
    -2.9812  -2.9721  -2.8911  -2.7424  -2.7299  -2.6617  -2.4653  -2.3763
     0.7827   0.9669   1.1883   1.2123   1.5285   1.6096   1.7369   1.7870
     1.8297   1.8611   2.0907   2.1016   2.2490   2.2625

          k = 0.3204 0.0000 0.0000 ( 76372 PWs)   bands (ev):

   -58.3351 -58.3309 -58.2926 -58.2920 -57.8686 -57.8652 -34.6366 -34.6344
   -34.5920 -34.5914 -34.5340 -34.5276 -34.5057 -34.5033 -34.4206 -34.4128
   -34.4014 -34.4007 -34.2640 -34.2603 -34.1334 -34.1296 -33.9103 -33.9063
   -19.1574 -19.0595 -18.8656 -18.6738 -18.4523 -18.4440 -18.0088 -17.9914
   -17.8877 -17.8500 -17.4211 -17.4144  -6.7852  -6.7527  -6.5285  -6.4081
    -5.8021  -5.7839  -5.3708  -5.2290  -5.2201  -5.1557  -5.1329  -5.0822
    -4.7476  -4.7404  -4.7147  -4.4407  -4.3966  -4.3424  -3.9386  -3.8170
    -3.6731  -3.3989  -3.2856  -3.2567  -3.2117  -3.1987  -2.9925  -2.9924
    -2.9131  -2.8863  -2.6949  -2.6874  -2.6561  -2.6206  -2.3094  -2.0814
     0.7949   0.8116   1.0136   1.0979   1.2290   1.3798   1.5123   1.5965
     1.7612   1.8664   2.0154   2.1555   2.1654   2.1985

          k = 0.3204 0.1734 0.0000 ( 76383 PWs)   bands (ev):

   -58.3300 -58.3261 -58.2877 -58.2871 -57.8634 -57.8600 -34.6240 -34.6223
   -34.5809 -34.5802 -34.5333 -34.5261 -34.5022 -34.4998 -34.4702 -34.4659
   -34.4571 -34.4558 -34.2591 -34.2553 -34.1249 -34.1211 -33.9683 -33.9644
   -19.0485 -18.9543 -18.7687 -18.5843 -18.3654 -18.3572 -18.0467 -18.0293
   -17.9348 -17.8971 -17.4513 -17.4447  -6.6365  -6.6064  -6.3789  -6.2618
    -5.7450  -5.7309  -5.5964  -5.5468  -5.4777  -5.4271  -5.0361  -4.8260
    -4.7395  -4.7033  -4.4318  -4.3784  -4.2785  -4.1509  -3.9627  -3.8844
    -3.6902  -3.6224  -3.5239  -3.3340  -3.2781  -3.1907  -3.1545  -3.1482
    -3.0316  -2.9785  -2.8188  -2.7688  -2.5558  -2.5035  -2.2796  -2.0585
     0.8409   0.8617   1.0388   1.1657   1.3517   1.3752   1.4818   1.5428
     1.7803   1.8085   1.9088   1.9576   2.0823   2.3439

          k = 0.3204 0.3467 0.0000 ( 76318 PWs)   bands (ev):

   -58.3172 -58.3139 -58.2751 -58.2745 -57.8503 -57.8468 -34.6282 -34.6180
   -34.6136 -34.6083 -34.5873 -34.5761 -34.5390 -34.5382 -34.5089 -34.5040
   -34.4907 -34.4895 -34.2503 -34.2465 -34.1414 -34.1373 -34.0725 -34.0688
   -18.7719 -18.6876 -18.5363 -18.3858 -18.2112 -18.2047 -18.0911 -18.0727
   -18.0281 -18.0004 -17.5124 -17.5059  -6.2605  -6.2515  -6.0503  -5.9285
    -5.8569  -5.8031  -5.7219  -5.6445  -5.6101  -5.5908  -4.9711  -4.9334
    -4.7329  -4.6379  -4.5322  -4.5063  -4.4045  -4.2942  -4.0864  -4.0125
    -3.9048  -3.7815  -3.7452  -3.5708  -3.4520  -3.2411  -3.2350  -3.1085
    -2.9356  -2.9189  -2.7697  -2.6034  -2.5402  -2.4993  -2.2857  -2.1643
     0.9052   0.9951   1.0721   1.2614   1.2888   1.3493   1.4924   1.5799
     1.7840   1.8101   2.0220   2.0372   2.1130   2.1564

          k = 0.3204 0.5201 0.0000 ( 76259 PWs)   bands (ev):

   -58.3024 -58.3002 -58.2609 -58.2603 -57.8353 -57.8318 -34.7749 -34.7694
   -34.7570 -34.7563 -34.5521 -34.5480 -34.5086 -34.5079 -34.4942 -34.4900
   -34.4825 -34.4819 -34.3011 -34.2971 -34.2280 -34.2241 -34.0567 -34.0530
   -18.4949 -18.4500 -18.3929 -18.2902 -18.2424 -18.1503 -18.1003 -18.0210
   -17.9303 -17.9253 -17.5034 -17.4972  -6.0447  -6.0129  -5.9652  -5.8630
    -5.8260  -5.8037  -5.6869  -5.6643  -5.6188  -5.4852  -5.4205  -5.4095
    -5.0391  -4.7092  -4.6428  -4.5955  -4.3532  -4.1883  -4.0840  -3.9823
    -3.9689  -3.8893  -3.7017  -3.4879  -3.4286  -3.3004  -3.1660  -3.0651
    -2.9249  -2.8629  -2.7213  -2.6337  -2.5425  -2.4112  -2.3532  -2.3418
     0.8425   1.0534   1.1093   1.4286   1.4517   1.5101   1.5673   1.6481
     1.7256   1.8062   1.9744   2.0325   2.1319   2.1439

          k = 0.3204 0.6935 0.0000 ( 76319 PWs)   bands (ev):

   -58.2925 -58.2914 -58.2515 -58.2509 -57.8254 -57.8220 -34.8707 -34.8688
   -34.8549 -34.8541 -34.5253 -34.5232 -34.4933 -34.4922 -34.4857 -34.4844
   -34.4742 -34.4736 -34.3930 -34.3893 -34.2256 -34.2217 -34.0378 -34.0340
   -18.4794 -18.4771 -18.3729 -18.3466 -18.0929 -18.0525 -18.0049 -17.9594
   -17.8688 -17.8545 -17.4100 -17.4039  -6.2760  -6.2711  -6.0989  -6.0877
    -5.9101  -5.8732  -5.6371  -5.5361  -5.4952  -5.4396  -5.3371  -5.3317
    -5.0533  -4.8596  -4.6065  -4.4974  -4.2253  -4.1704  -4.1445  -4.0262
    -3.9738  -3.8843  -3.5222  -3.4233  -3.2610  -3.1754  -3.0891  -2.9755
    -2.9675  -2.8355  -2.7877  -2.7336  -2.5857  -2.5536  -2.4435  -2.3667
     0.8509   0.9990   1.1910   1.3228   1.5454   1.6563   1.7743   1.7844
     1.8021   1.8327   2.0502   2.0583   2.1402   2.1710

          k =-0.4806 0.0000 0.0000 ( 76438 PWs)   bands (ev):

   -58.3333 -58.3325 -58.2926 -58.2920 -57.8686 -57.8652 -34.6373 -34.6372
   -34.5925 -34.5920 -34.5306 -34.5300 -34.5043 -34.5036 -34.4167 -34.4157
   -34.4018 -34.4011 -34.2638 -34.2600 -34.1333 -34.1295 -33.9103 -33.9064
   -18.9502 -18.9489 -18.8744 -18.8730 -18.5087 -18.5022 -17.9879 -17.9874
   -17.8839 -17.8822 -17.4263 -17.4198  -6.7549  -6.7535  -6.4840  -6.4839
    -5.7934  -5.7881  -5.2342  -5.2315  -5.1492  -5.1478  -4.7615  -4.7600
    -4.7499  -4.7429  -4.6167  -4.6158  -4.3623  -4.3600  -4.1837  -4.1832
    -3.5313  -3.5300  -3.3080  -3.3059  -3.2058  -3.2038  -3.0206  -3.0110
    -2.9333  -2.9325  -2.7260  -2.7200  -2.5941  -2.5902  -2.4203  -2.4177
     0.8089   0.8104   1.0484   1.0496   1.3608   1.3615   1.5684   1.5685
     2.0701   2.0714   2.0738   2.0772   2.2140   2.2151

          k =-0.4806 0.1734 0.0000 ( 76384 PWs)   bands (ev):

   -58.3284 -58.3276 -58.2877 -58.2871 -57.8634 -57.8600 -34.6249 -34.6248
   -34.5812 -34.5808 -34.5295 -34.5290 -34.5010 -34.5003 -34.4675 -34.4666
   -34.4575 -34.4569 -34.2588 -34.2551 -34.1249 -34.1211 -33.9683 -33.9643
   -18.8514 -18.8502 -18.7762 -18.7747 -18.4215 -18.4152 -18.0227 -18.0222
   -17.9298 -17.9283 -17.4560 -17.4495  -6.6092  -6.6079  -6.3352  -6.3350
    -5.7327  -5.7271  -5.5385  -5.5367  -5.4539  -5.4532  -4.7618  -4.7563
    -4.6758  -4.6728  -4.3696  -4.3684  -4.1567  -4.1556  -4.0368  -4.0364
    -3.6264  -3.6255  -3.4938  -3.4932  -3.3408  -3.3393  -3.1834  -3.1768
    -3.0636  -3.0624  -2.8530  -2.8446  -2.4886  -2.4854  -2.3075  -2.3037
     0.8415   0.8427   1.0819   1.0830   1.4286   1.4296   1.5455   1.5470
     1.8472   1.8488   2.1597   2.1602   2.2050   2.2084

          k =-0.4806 0.3467 0.0000 ( 76352 PWs)   bands (ev):

   -58.3159 -58.3151 -58.2752 -58.2746 -57.8503 -57.8468 -34.6236 -34.6230
   -34.6116 -34.6111 -34.5828 -34.5827 -34.5392 -34.5387 -34.5061 -34.5056
   -34.4899 -34.4894 -34.2502 -34.2464 -34.1414 -34.1373 -34.0724 -34.0687
   -18.6064 -18.6055 -18.5395 -18.5377 -18.2655 -18.2616 -18.0626 -18.0617
   -18.0259 -18.0248 -17.5153 -17.5090  -6.2487  -6.2473  -5.9956  -5.9951
    -5.8530  -5.8523  -5.7313  -5.7293  -5.5911  -5.5872  -4.9948  -4.9918
    -4.5718  -4.5693  -4.4948  -4.4912  -4.1887  -4.1857  -4.0784  -4.0768
    -3.8012  -3.7993  -3.6438  -3.6435  -3.4410  -3.4380  -3.2758  -3.2741
    -2.9214  -2.9196  -2.6728  -2.6705  -2.5087  -2.5021  -2.3449  -2.3411
     0.9888   0.9895   1.1551   1.1556   1.2708   1.2723   1.6388   1.6405
     1.9105   1.9109   2.0436   2.0471   2.0816   2.0833

          k =-0.4806 0.5201 0.0000 ( 76318 PWs)   bands (ev):

   -58.3017 -58.3009 -58.2609 -58.2603 -57.8353 -57.8318 -34.7726 -34.7719
   -34.7568 -34.7561 -34.5513 -34.5512 -34.5083 -34.5081 -34.4923 -34.4916
   -34.4823 -34.4818 -34.3012 -34.2971 -34.2279 -34.2240 -34.0568 -34.0530
   -18.4422 -18.4411 -18.3468 -18.3457 -18.2033 -18.2024 -18.0706 -18.0699
   -17.9392 -17.9345 -17.5032 -17.4970  -6.0461  -6.0455  -5.9726  -5.9723
    -5.8414  -5.8406  -5.7192  -5.7180  -5.5723  -5.5684  -5.3999  -5.3959
    -4.8276  -4.8264  -4.6633  -4.6592  -4.1837  -4.1807  -4.0428  -4.0393
    -3.8294  -3.8266  -3.6224  -3.6216  -3.3758  -3.3747  -3.1083  -3.1048
    -2.8019  -2.7970  -2.5962  -2.5912  -2.5449  -2.5426  -2.4072  -2.4017
     1.0618   1.0620   1.2450   1.2458   1.3531   1.3549   1.6665   1.6683
     1.8519   1.8533   1.9716   1.9730   2.0826   2.0843

          k =-0.4806 0.6935 0.0000 ( 76294 PWs)   bands (ev):

   -58.2924 -58.2915 -58.2515 -58.2509 -57.8254 -57.8220 -34.8701 -34.8695
   -34.8548 -34.8540 -34.5250 -34.5246 -34.4922 -34.4920 -34.4850 -34.4847
   -34.4753 -34.4746 -34.3927 -34.3890 -34.2257 -34.2218 -34.0379 -34.0341
   -18.4821 -18.4809 -18.3652 -18.3641 -18.0568 -18.0555 -17.9833 -17.9804
   -17.8695 -17.8685 -17.4070 -17.4008  -6.2709  -6.2708  -6.1543  -6.1535
    -5.9691  -5.9688  -5.6366  -5.6363  -5.4513  -5.4495  -5.3410  -5.3363
    -4.8737  -4.8721  -4.6598  -4.6588  -4.1770  -4.1766  -4.0390  -4.0381
    -3.9465  -3.9427  -3.4732  -3.4712  -3.2056  -3.2045  -2.9873  -2.9868
    -2.8276  -2.8230  -2.6672  -2.6657  -2.4973  -2.4941  -2.4100  -2.4046
     0.9196   0.9206   1.2432   1.2448   1.6927   1.6943   1.7713   1.7722
     1.8406   1.8408   2.0156   2.0178   2.1164   2.1177

     the Fermi energy is    -0.5155 ev

!    total energy              =   -1077.91091905 Ry
     estimated scf accuracy    <          7.5E-09 Ry
     smearing contrib. (-TS)   =      -0.00000000 Ry
     internal energy E=F+TS    =   -1077.91091905 Ry

     The total energy is F=E-TS. E is the sum of the following terms:
     one-electron contribution =  -24708.84184130 Ry
     hartree contribution      =   12366.58011343 Ry
     xc contribution           =    -170.05808570 Ry
     ewald contribution        =   11434.40889452 Ry

     convergence has been achieved in   8 iterations

     Forces acting on atoms (cartesian axes, Ry/au):

     atom    1 type  1   force =    -0.00107740    0.00000000   -0.00131985
     atom    2 type  1   force =     0.00077837    0.00000000    0.00067347
     atom    3 type  1   force =    -0.00249304    0.00000000   -0.00125225
     atom    4 type  1   force =    -0.00258175    0.00000000    0.00156644
     atom    5 type  1   force =     0.00037614    0.00000000   -0.00105536
     atom    6 type  1   force =    -0.00126926    0.00000000    0.00117142
     atom    7 type  2   force =    -0.00295506    0.00000000   -0.00148635
     atom    8 type  2   force =     0.00248487    0.00000000    0.00050025
     atom    9 type  2   force =    -0.00030037    0.00000000    0.00130989
     atom   10 type  2   force =     0.00066822    0.00000000    0.00029394
     atom   11 type  2   force =     0.00154005    0.00000000   -0.00096015
     atom   12 type  2   force =     0.00189959    0.00000000   -0.00174340
     atom   13 type  2   force =     0.00055427    0.00000000    0.00019693
     atom   14 type  2   force =    -0.00054774    0.00000000   -0.00161335
     atom   15 type  2   force =     0.00151391    0.00000000    0.00187103
     atom   16 type  2   force =     0.00178205    0.00000000    0.00088458
     atom   17 type  2   force =    -0.00279348    0.00000000    0.00163143
     atom   18 type  2   force =     0.00242062    0.00000000   -0.00066865

     Total force =     0.009194     Total SCF correction =     0.000290


     Computing stress (Cartesian axis) and pressure

          total   stress  (Ry/bohr**3)                   (kbar)     P=        1.61
  -0.00000173   0.00000000   0.00000062           -0.25        0.00        0.09
   0.00000000   0.00001617   0.00000000            0.00        2.38        0.00
   0.00000062   0.00000000   0.00001831            0.09        0.00        2.69

     Energy error            =      3.0E-04 Ry
     Gradient error          =      3.0E-03 Ry/Bohr
     Cell gradient error     =      2.4E+00 kbar

     number of scf cycles    =  12
     number of bfgs steps    =  11

     enthalpy           old  =   -1077.9106151999 Ry
     enthalpy           new  =   -1077.9109190514 Ry

     CASE: enthalpy          _new < enthalpy          _old

     new trust radius        =       0.0208065347 bohr
     new conv_thr            =       0.0000000296 Ry

     new unit-cell volume =   3569.66859 a.u.^3 (   528.97031 Ang^3 )
     density =      1.50427 g/cm^3

CELL_PARAMETERS (angstrom)
   4.789139397   0.000000000   0.000000000
   0.000000000   2.947115681   0.000000000
   0.000000000   0.000000000  37.478019714

ATOMIC_POSITIONS (angstrom)
Ti               0.1807266118        0.0000000000       14.6350130744
Ti               2.5371149020        1.4735577533       16.8389122233
Ti               0.1325180031        0.0000000000       19.2159260406
Ti               2.5270914940        1.4735577533       21.4545753338
Ti               0.1425305355        0.0000000000       23.8330685880
Ti               2.5746863369        1.4735577533       26.0384343999
O                0.6540380279        1.4735578409       13.6359602486
O                1.4473207096        0.0000000000       15.9668661799
O                3.3072440276        0.0000000000       17.7606280929
O                0.8990864874        1.4735578409       18.2829987087
O                3.7417687525        1.4735578409       15.4293895899
O                1.4698826214        0.0000000000       20.5769421761
O                3.2929601468        0.0000000000       22.3870626064
O                0.9098910257        1.4735578409       22.9098122647
O                3.8647986528        1.4735578409       20.0942135101
O                1.3500016654        0.0000000000       25.2378689332
O                3.0449729525        0.0000000000       27.0387995449
O                3.8419099608        1.4735578409       24.7083767286



     Writing config-only to output data dir ./Out/pwscf.save/
     NEW-OLD atomic charge density approx. for the potential

     negative rho (up, down):  3.445E-05 0.000E+00

     total cpu time spent up to now is      503.5 secs

     Self-consistent Calculation

     iteration #  1     ecut=   120.00 Ry     beta= 0.40
     Davidson diagonalization with overlap
     ethr =  1.00E-06,  avg # of iterations =  5.0

     negative rho (up, down):  2.009E-05 0.000E+00

     total cpu time spent up to now is      508.5 secs

     total energy              =   -1077.91106774 Ry
     estimated scf accuracy    <       0.00014600 Ry

     iteration #  2     ecut=   120.00 Ry     beta= 0.40
     Davidson diagonalization with overlap
     ethr =  1.01E-07,  avg # of iterations =  3.8

     negative rho (up, down):  9.632E-06 0.000E+00

     total cpu time spent up to now is      512.3 secs

     total energy              =   -1077.91108811 Ry
     estimated scf accuracy    <       0.00003056 Ry

     iteration #  3     ecut=   120.00 Ry     beta= 0.40
     Davidson diagonalization with overlap
     ethr =  2.12E-08,  avg # of iterations =  5.4

     negative rho (up, down):  4.861E-06 0.000E+00

     total cpu time spent up to now is      516.3 secs

     total energy              =   -1077.91109560 Ry
     estimated scf accuracy    <       0.00001185 Ry

     iteration #  4     ecut=   120.00 Ry     beta= 0.40
     Davidson diagonalization with overlap
     ethr =  8.23E-09,  avg # of iterations =  2.5

     negative rho (up, down):  2.824E-06 0.000E+00

     total cpu time spent up to now is      519.8 secs

     total energy              =   -1077.91109769 Ry
     estimated scf accuracy    <       0.00000248 Ry

     iteration #  5     ecut=   120.00 Ry     beta= 0.40
     Davidson diagonalization with overlap
     ethr =  1.72E-09,  avg # of iterations =  3.4

     negative rho (up, down):  1.142E-06 0.000E+00

     total cpu time spent up to now is      523.4 secs

     total energy              =   -1077.91109822 Ry
     estimated scf accuracy    <       0.00000049 Ry

     iteration #  6     ecut=   120.00 Ry     beta= 0.40
     Davidson diagonalization with overlap
     ethr =  3.37E-10,  avg # of iterations =  5.0

     negative rho (up, down):  4.781E-07 0.000E+00

     total cpu time spent up to now is      527.2 secs

     total energy              =   -1077.91109832 Ry
     estimated scf accuracy    <       0.00000012 Ry

     iteration #  7     ecut=   120.00 Ry     beta= 0.40
     Davidson diagonalization with overlap
     ethr =  8.37E-11,  avg # of iterations =  5.0

     negative rho (up, down):  8.962E-08 0.000E+00

     total cpu time spent up to now is      531.1 secs

     total energy              =   -1077.91109835 Ry
     estimated scf accuracy    <       0.00000004 Ry

     iteration #  8     ecut=   120.00 Ry     beta= 0.40
     Davidson diagonalization with overlap
     ethr =  2.45E-11,  avg # of iterations =  3.9

     total cpu time spent up to now is      534.7 secs

     End of self-consistent calculation

          k = 0.0000 0.0000 0.0000 ( 76179 PWs)   bands (ev):

   -58.3601 -58.3519 -58.3056 -58.3036 -57.8852 -57.8830 -34.6519 -34.6442
   -34.6064 -34.6017 -34.5564 -34.5431 -34.5224 -34.5192 -34.4461 -34.4310
   -34.4141 -34.4120 -34.2788 -34.2763 -34.1499 -34.1475 -33.9267 -33.9242
   -19.4303 -19.2199 -18.8581 -18.5342 -18.3697 -18.3655 -17.9977 -17.9723
   -17.8566 -17.8418 -17.4208 -17.4137  -6.9628  -6.6501  -6.5504  -6.4106
    -6.0119  -5.8146  -5.7758  -5.5250  -5.2150  -5.2062  -5.1442  -5.1338
    -4.9117  -4.7503  -4.7459  -4.5715  -4.3662  -4.2425  -4.1861  -3.7213
    -3.6036  -3.4991  -3.3469  -3.3195  -3.1093  -3.0958  -2.8930  -2.8879
    -2.8422  -2.6920  -2.5770  -2.4066  -2.4002  -2.1954  -1.9139  -1.6869
     0.6546   0.8694   0.9696   1.0641   1.1607   1.2395   1.3003   1.3154
     1.4695   1.5971   1.6211   2.1966   2.3308   2.3632

          k = 0.0000 0.1733 0.0000 ( 76281 PWs)   bands (ev):

   -58.3549 -58.3472 -58.3007 -58.2987 -57.8801 -57.8779 -34.6401 -34.6319
   -34.5980 -34.5898 -34.5544 -34.5412 -34.5183 -34.5153 -34.4957 -34.4846
   -34.4694 -34.4674 -34.2736 -34.2711 -34.1415 -34.1390 -33.9847 -33.9822
   -19.3079 -19.1080 -18.7631 -18.4483 -18.2931 -18.2840 -18.0399 -18.0077
   -17.9026 -17.8948 -17.4520 -17.4455  -6.7934  -6.4975  -6.4106  -6.2646
    -5.9267  -5.7639  -5.7244  -5.5646  -5.4262  -5.3991  -5.3323  -5.1619
    -4.7920  -4.7553  -4.5581  -4.4293  -4.2712  -4.0700  -4.0432  -3.8697
    -3.8376  -3.6431  -3.4634  -3.3249  -3.3215  -3.1837  -3.1779  -2.9728
    -2.9498  -2.8962  -2.6489  -2.4224  -2.4118  -2.1738  -1.9512  -1.7253
     0.7754   0.9718   1.0215   1.0633   1.2059   1.2478   1.3279   1.3522
     1.5491   1.6278   1.7740   1.8760   1.9262   2.3635

          k = 0.0000 0.3466 0.0000 ( 76251 PWs)   bands (ev):

   -58.3418 -58.3354 -58.2882 -58.2862 -57.8670 -57.8648 -34.6527 -34.6328
   -34.6269 -34.6213 -34.5962 -34.5952 -34.5529 -34.5488 -34.5286 -34.5223
   -34.5079 -34.5046 -34.2644 -34.2619 -34.1573 -34.1547 -34.0894 -34.0871
   -18.9845 -18.8212 -18.5507 -18.2871 -18.1506 -18.1209 -18.0733 -18.0661
   -18.0083 -18.0071 -17.5168 -17.5117  -6.3495  -6.1382  -6.0541  -5.9432
    -5.7632  -5.6775  -5.6503  -5.5987  -5.5693  -5.5681  -5.3419  -5.2291
    -4.7959  -4.6680  -4.5601  -4.5358  -4.4843  -4.2890  -4.1755  -4.1733
    -4.1181  -3.8063  -3.7823  -3.4875  -3.4464  -3.3100  -3.2423  -2.9941
    -2.8742  -2.8417  -2.7271  -2.6356  -2.6165  -2.2384  -2.0632  -1.9212
     0.8273   1.0088   1.0617   1.0801   1.1506   1.3782   1.4103   1.5290
     1.7151   1.7825   1.8865   1.9002   2.0051   2.1617

          k = 0.0000 0.5200 0.0000 ( 76270 PWs)   bands (ev):

   -58.3266 -58.3222 -58.2740 -58.2720 -57.8520 -57.8498 -34.7969 -34.7864
   -34.7696 -34.7675 -34.5693 -34.5625 -34.5288 -34.5222 -34.5089 -34.5074
   -34.4976 -34.4945 -34.3164 -34.3139 -34.2423 -34.2396 -34.0734 -34.0710
   -18.5783 -18.5050 -18.4460 -18.3604 -18.2052 -18.1113 -18.0226 -18.0185
   -17.9252 -17.9163 -17.5168 -17.5127  -5.9453  -5.8746  -5.8645  -5.8031
    -5.6793  -5.6601  -5.6552  -5.6148  -5.5207  -5.4541  -5.4510  -5.2837
    -5.0835  -5.0698  -4.7676  -4.7017  -4.5447  -4.2375  -4.1573  -4.1243
    -4.0278  -3.8500  -3.7424  -3.6021  -3.5804  -3.2462  -3.1538  -3.0952
    -2.9898  -2.9074  -2.9034  -2.7061  -2.6680  -2.3688  -2.3209  -2.2921
     0.7047   0.9270   0.9820   1.2797   1.4195   1.4496   1.6240   1.6309
     1.7803   1.8866   1.9762   2.0493   2.2095   2.2359

          k = 0.0000 0.6933 0.0000 ( 76376 PWs)   bands (ev):

   -58.3163 -58.3139 -58.2647 -58.2627 -57.8422 -57.8400 -34.8908 -34.8871
   -34.8672 -34.8650 -34.5445 -34.5408 -34.5134 -34.5090 -34.5026 -34.5021
   -34.4844 -34.4825 -34.4087 -34.4066 -34.2393 -34.2366 -34.0543 -34.0520
   -18.4809 -18.4575 -18.3771 -18.3244 -18.2174 -18.0499 -18.0220 -17.9518
   -17.8728 -17.8466 -17.4334 -17.4297  -6.2881  -6.1964  -6.0334  -5.9573
    -5.6509  -5.6427  -5.5639  -5.5151  -5.4002  -5.3962  -5.3132  -5.3002
    -4.8982  -4.8450  -4.5864  -4.4518  -4.3059  -4.1995  -4.1675  -4.1345
    -4.0865  -4.0322  -3.8772  -3.6094  -3.4814  -3.2798  -3.2225  -3.1043
    -3.0116  -2.9657  -2.9447  -2.8221  -2.7566  -2.6882  -2.4824  -2.3908
     0.7040   0.9304   1.0938   1.2405   1.4141   1.6746   1.6863   1.7726
     1.8173   1.8500   2.0970   2.0980   2.2902   2.3516

          k = 0.1600 0.0000 0.0000 ( 76264 PWs)   bands (ev):

   -58.3595 -58.3524 -58.3056 -58.3036 -57.8852 -57.8830 -34.6529 -34.6472
   -34.6062 -34.6027 -34.5546 -34.5434 -34.5220 -34.5190 -34.4449 -34.4316
   -34.4144 -34.4123 -34.2785 -34.2760 -34.1498 -34.1474 -33.9267 -33.9242
   -19.3585 -19.1772 -18.8601 -18.5721 -18.3880 -18.3831 -18.0029 -17.9963
   -17.8823 -17.8360 -17.4243 -17.4187  -6.8884  -6.7423  -6.4530  -6.4476
    -5.9020  -5.8022  -5.7377  -5.4246  -5.2202  -5.2156  -5.1520  -5.1352
    -4.8909  -4.7539  -4.7494  -4.5363  -4.3815  -4.2407  -4.0636  -3.7032
    -3.6436  -3.4461  -3.3253  -3.2697  -3.1368  -3.1283  -2.9650  -2.9195
    -2.7650  -2.7551  -2.6596  -2.6054  -2.5167  -2.3646  -2.0474  -1.8015
     0.7173   0.8093   1.0143   1.0717   1.1955   1.2492   1.3201   1.4270
     1.5664   1.6558   1.7492   2.1891   2.2755   2.2873

          k = 0.1600 0.1733 0.0000 ( 76282 PWs)   bands (ev):

   -58.3544 -58.3477 -58.3007 -58.2987 -57.8801 -57.8779 -34.6408 -34.6352
   -34.5968 -34.5912 -34.5531 -34.5416 -34.5179 -34.5151 -34.4943 -34.4851
   -34.4697 -34.4676 -34.2734 -34.2709 -34.1414 -34.1390 -33.9847 -33.9822
   -19.2398 -19.0671 -18.7644 -18.4857 -18.3031 -18.3011 -18.0437 -18.0359
   -17.9300 -17.8864 -17.4553 -17.4499  -6.7275  -6.5929  -6.3082  -6.3028
    -5.8537  -5.7641  -5.6953  -5.5633  -5.4602  -5.3879  -5.2681  -5.0970
    -4.7729  -4.7453  -4.5317  -4.3972  -4.3165  -4.1262  -3.9661  -3.7992
    -3.7899  -3.6888  -3.5319  -3.2706  -3.2626  -3.1882  -3.1727  -3.0209
    -2.9806  -2.9261  -2.6542  -2.5490  -2.5274  -2.3270  -2.0732  -1.8334
     0.7912   0.9178   1.0447   1.1476   1.2049   1.2804   1.3378   1.4411
     1.6317   1.6369   1.8373   1.8811   1.9441   2.3650

          k = 0.1600 0.3466 0.0000 ( 76223 PWs)   bands (ev):

   -58.3414 -58.3358 -58.2882 -58.2862 -57.8670 -57.8648 -34.6513 -34.6337
   -34.6257 -34.6243 -34.5997 -34.5933 -34.5523 -34.5504 -34.5280 -34.5214
   -34.5070 -34.5050 -34.2643 -34.2618 -34.1573 -34.1547 -34.0892 -34.0869
   -18.9289 -18.7858 -18.5454 -18.3134 -18.1451 -18.1297 -18.1041 -18.0860
   -18.0368 -17.9967 -17.5193 -17.5145  -6.3204  -6.2174  -5.9988  -5.9637
    -5.7863  -5.7779  -5.6500  -5.6296  -5.6086  -5.5388  -5.1648  -5.0649
    -4.8729  -4.6989  -4.5925  -4.5429  -4.3801  -4.3644  -4.1254  -4.0925
    -4.0784  -3.7881  -3.7590  -3.5152  -3.5115  -3.2385  -3.1880  -3.0456
    -2.9341  -2.8532  -2.7641  -2.6179  -2.5994  -2.3257  -2.1334  -1.9982
     0.8116   1.0234   1.0401   1.1432   1.2226   1.3830   1.4453   1.5066
     1.7105   1.7532   1.8938   1.9013   2.1054   2.1616

          k = 0.1600 0.5200 0.0000 ( 76310 PWs)   bands (ev):

   -58.3264 -58.3224 -58.2740 -58.2720 -57.8520 -57.8498 -34.7962 -34.7870
   -34.7696 -34.7675 -34.5702 -34.5639 -34.5277 -34.5235 -34.5091 -34.5055
   -34.4969 -34.4959 -34.3164 -34.3140 -34.2421 -34.2395 -34.0734 -34.0710
   -18.5566 -18.4894 -18.4314 -18.3417 -18.1897 -18.1631 -18.0536 -18.0091
   -17.9280 -17.9243 -17.5167 -17.5126  -5.9880  -5.9318  -5.8577  -5.8527
    -5.7560  -5.7025  -5.6320  -5.6171  -5.5880  -5.4862  -5.4578  -5.3538
    -5.1136  -4.8720  -4.6802  -4.6211  -4.4711  -4.2687  -4.1862  -4.0611
    -4.0566  -3.8792  -3.6829  -3.5929  -3.5576  -3.1971  -3.1384  -3.0803
    -3.0224  -2.9538  -2.8215  -2.6915  -2.6362  -2.3742  -2.3073  -2.3040
     0.7295   0.9511   0.9859   1.3475   1.4662   1.4911   1.5842   1.6437
     1.8105   1.8266   1.8986   1.9905   2.1525   2.2325

          k = 0.1600 0.6933 0.0000 ( 76348 PWs)   bands (ev):

   -58.3162 -58.3140 -58.2647 -58.2627 -57.8422 -57.8400 -34.8905 -34.8872
   -34.8672 -34.8650 -34.5447 -34.5414 -34.5131 -34.5096 -34.5020 -34.5014
   -34.4852 -34.4833 -34.4085 -34.4063 -34.2393 -34.2367 -34.0544 -34.0520
   -18.4805 -18.4706 -18.3601 -18.3581 -18.1517 -18.0962 -17.9810 -17.9756
   -17.8718 -17.8523 -17.4303 -17.4265  -6.2820  -6.2338  -6.0273  -6.0095
    -5.7343  -5.7061  -5.5514  -5.5218  -5.5127  -5.4328  -5.3377  -5.2930
    -5.0612  -4.8160  -4.5430  -4.4987  -4.2958  -4.2145  -4.1810  -4.0735
    -3.9684  -3.9662  -3.7471  -3.5282  -3.3569  -3.2139  -3.2006  -3.1328
    -2.9914  -2.9797  -2.8982  -2.7562  -2.7417  -2.6728  -2.4736  -2.3829
     0.7588   0.9459   1.1719   1.1993   1.5158   1.5904   1.7182   1.7716
     1.8133   1.8420   2.0697   2.0802   2.2248   2.2365

          k = 0.3200 0.0000 0.0000 ( 76372 PWs)   bands (ev):

   -58.3581 -58.3537 -58.3056 -58.3036 -57.8853 -57.8831 -34.6550 -34.6527
   -34.6062 -34.6046 -34.5511 -34.5442 -34.5204 -34.5191 -34.4417 -34.4336
   -34.4149 -34.4128 -34.2779 -34.2754 -34.1497 -34.1473 -33.9268 -33.9243
   -19.1627 -19.0662 -18.8720 -18.6810 -18.4649 -18.4576 -18.0178 -18.0021
   -17.8944 -17.8565 -17.4334 -17.4284  -6.7887  -6.7569  -6.5363  -6.4165
    -5.8131  -5.7956  -5.3740  -5.2366  -5.2282  -5.1650  -5.1415  -5.0910
    -4.7597  -4.7553  -4.7153  -4.4428  -4.4036  -4.3506  -3.9534  -3.8250
    -3.6824  -3.4090  -3.2952  -3.2620  -3.2249  -3.2065  -3.0049  -3.0048
    -2.9192  -2.8993  -2.7019  -2.6981  -2.6659  -2.6297  -2.3184  -2.0948
     0.7753   0.7960   1.0012   1.0819   1.2085   1.3604   1.4943   1.5659
     1.7418   1.8495   1.9971   2.1429   2.1521   2.1838

          k = 0.3200 0.1733 0.0000 ( 76383 PWs)   bands (ev):

   -58.3531 -58.3489 -58.3007 -58.2987 -57.8801 -57.8779 -34.6425 -34.6407
   -34.5956 -34.5938 -34.5501 -34.5427 -34.5166 -34.5152 -34.4911 -34.4861
   -34.4704 -34.4683 -34.2730 -34.2705 -34.1413 -34.1389 -33.9847 -33.9822
   -19.0538 -18.9611 -18.7749 -18.5914 -18.3780 -18.3707 -18.0559 -18.0403
   -17.9415 -17.9038 -17.4635 -17.4586  -6.6399  -6.6103  -6.3869  -6.2703
    -5.7555  -5.7420  -5.6000  -5.5548  -5.4837  -5.4328  -5.0449  -4.8378
    -4.7520  -4.7163  -4.4359  -4.3839  -4.2826  -4.1540  -3.9746  -3.8910
    -3.6978  -3.6299  -3.5302  -3.3413  -3.2925  -3.2043  -3.1637  -3.1603
    -3.0435  -2.9877  -2.8312  -2.7835  -2.5663  -2.5142  -2.2898  -2.0720
     0.8250   0.8481   1.0279   1.1526   1.3326   1.3590   1.4620   1.5160
     1.7613   1.7920   1.8884   1.9392   2.0586   2.3228

          k = 0.3200 0.3466 0.0000 ( 76318 PWs)   bands (ev):

   -58.3403 -58.3368 -58.2882 -58.2863 -57.8670 -57.8648 -34.6476 -34.6375
   -34.6281 -34.6222 -34.6052 -34.5932 -34.5533 -34.5513 -34.5259 -34.5206
   -34.5057 -34.5053 -34.2642 -34.2617 -34.1573 -34.1547 -34.0890 -34.0867
   -18.7775 -18.6946 -18.5411 -18.3920 -18.2226 -18.2167 -18.0997 -18.0853
   -18.0377 -18.0088 -17.5246 -17.5200  -6.2640  -6.2540  -6.0577  -5.9360
    -5.8617  -5.8079  -5.7276  -5.6497  -5.6201  -5.6016  -4.9770  -4.9396
    -4.7398  -4.6440  -4.5452  -4.5168  -4.4129  -4.3029  -4.0921  -4.0198
    -3.9119  -3.7922  -3.7546  -3.5784  -3.4590  -3.2537  -3.2477  -3.1184
    -2.9490  -2.9343  -2.7840  -2.6177  -2.5533  -2.5098  -2.2963  -2.1760
     0.8928   0.9819   1.0589   1.2462   1.2743   1.3382   1.4689   1.5575
     1.7662   1.7904   2.0028   2.0174   2.0913   2.1272

          k = 0.3200 0.5200 0.0000 ( 76259 PWs)   bands (ev):

   -58.3257 -58.3230 -58.2740 -58.2720 -57.8520 -57.8498 -34.7944 -34.7888
   -34.7696 -34.7675 -34.5714 -34.5672 -34.5266 -34.5243 -34.5079 -34.5042
   -34.4974 -34.4968 -34.3165 -34.3140 -34.2419 -34.2393 -34.0734 -34.0711
   -18.5000 -18.4551 -18.3973 -18.3014 -18.2479 -18.1595 -18.1113 -18.0295
   -17.9422 -17.9384 -17.5165 -17.5124  -6.0454  -6.0144  -5.9677  -5.8676
    -5.8284  -5.8100  -5.6880  -5.6688  -5.6282  -5.4943  -5.4311  -5.4168
    -5.0465  -4.7194  -4.6529  -4.6039  -4.3613  -4.2009  -4.0952  -3.9940
    -3.9814  -3.8979  -3.7091  -3.4985  -3.4324  -3.3152  -3.1774  -3.0728
    -2.9374  -2.8759  -2.7363  -2.6473  -2.5573  -2.4195  -2.3639  -2.3509
     0.8200   1.0374   1.0956   1.4112   1.4358   1.4938   1.5507   1.6293
     1.7018   1.7899   1.9558   2.0145   2.1108   2.1257

          k = 0.3200 0.6933 0.0000 ( 76319 PWs)   bands (ev):

   -58.3161 -58.3141 -58.2647 -58.2627 -57.8422 -57.8400 -34.8900 -34.8877
   -34.8672 -34.8650 -34.5451 -34.5429 -34.5124 -34.5100 -34.5008 -34.5003
   -34.4871 -34.4851 -34.4079 -34.4058 -34.2395 -34.2368 -34.0546 -34.0522
   -18.4854 -18.4820 -18.3791 -18.3541 -18.1015 -18.0611 -18.0162 -17.9708
   -17.8789 -17.8633 -17.4243 -17.4203  -6.2772  -6.2707  -6.1042  -6.0930
    -5.9128  -5.8748  -5.6404  -5.5386  -5.4979  -5.4409  -5.3509  -5.3462
    -5.0612  -4.8681  -4.6159  -4.5044  -4.2351  -4.1829  -4.1571  -4.0381
    -3.9878  -3.8978  -3.5317  -3.4354  -3.2701  -3.1879  -3.0938  -2.9851
    -2.9750  -2.8475  -2.7965  -2.7477  -2.5960  -2.5678  -2.4546  -2.3764
     0.8206   0.9726   1.1765   1.3045   1.5298   1.6416   1.7569   1.7686
     1.7847   1.8153   2.0316   2.0371   2.1201   2.1511

          k =-0.4800 0.0000 0.0000 ( 76438 PWs)   bands (ev):

   -58.3568 -58.3549 -58.3056 -58.3037 -57.8853 -57.8831 -34.6558 -34.6554
   -34.6066 -34.6053 -34.5475 -34.5467 -34.5194 -34.5192 -34.4383 -34.4364
   -34.4151 -34.4131 -34.2777 -34.2751 -34.1496 -34.1472 -33.9268 -33.9243
   -18.9588 -18.9556 -18.8795 -18.8782 -18.5211 -18.5165 -17.9985 -17.9977
   -17.8901 -17.8879 -17.4384 -17.4335  -6.7589  -6.7567  -6.4925  -6.4915
    -5.8043  -5.8010  -5.2427  -5.2381  -5.1585  -5.1568  -4.7675  -4.7666
    -4.7618  -4.7575  -4.6215  -4.6199  -4.3697  -4.3673  -4.1918  -4.1907
    -3.5399  -3.5390  -3.3177  -3.3150  -3.2150  -3.2147  -3.0361  -3.0269
    -2.9374  -2.9364  -2.7359  -2.7317  -2.6025  -2.5992  -2.4324  -2.4297
     0.7904   0.7919   1.0342   1.0355   1.3358   1.3359   1.5479   1.5492
     2.0555   2.0563   2.0621   2.0648   2.1924   2.1940

          k =-0.4800 0.1733 0.0000 ( 76384 PWs)   bands (ev):

   -58.3519 -58.3500 -58.3007 -58.2987 -57.8801 -57.8779 -34.6434 -34.6430
   -34.5958 -34.5946 -34.5464 -34.5456 -34.5157 -34.5154 -34.4888 -34.4871
   -34.4708 -34.4687 -34.2728 -34.2703 -34.1412 -34.1388 -33.9846 -33.9821
   -18.8600 -18.8570 -18.7813 -18.7797 -18.4338 -18.4293 -18.0336 -18.0328
   -17.9362 -17.9341 -17.4680 -17.4632  -6.6132  -6.6110  -6.3436  -6.3425
    -5.7437  -5.7399  -5.5450  -5.5421  -5.4601  -5.4590  -4.7722  -4.7689
    -4.6848  -4.6837  -4.3762  -4.3752  -4.1640  -4.1622  -4.0419  -4.0410
    -3.6364  -3.6351  -3.4960  -3.4954  -3.3521  -3.3507  -3.1957  -3.1901
    -3.0735  -3.0724  -2.8688  -2.8608  -2.4994  -2.4966  -2.3195  -2.3165
     0.8265   0.8272   1.0701   1.0713   1.4102   1.4115   1.5218   1.5231
     1.8291   1.8296   2.1373   2.1385   2.1843   2.1875

          k =-0.4800 0.3466 0.0000 ( 76352 PWs)   bands (ev):

   -58.3395 -58.3376 -58.2882 -58.2863 -57.8670 -57.8648 -34.6435 -34.6420
   -34.6265 -34.6252 -34.6000 -34.5998 -34.5533 -34.5518 -34.5230 -34.5222
   -34.5054 -34.5051 -34.2642 -34.2617 -34.1573 -34.1547 -34.0888 -34.0865
   -18.6146 -18.6120 -18.5441 -18.5421 -18.2765 -18.2739 -18.0736 -18.0727
   -18.0344 -18.0338 -17.5273 -17.5229  -6.2521  -6.2501  -6.0029  -6.0015
    -5.8587  -5.8574  -5.7372  -5.7351  -5.6001  -5.5977  -4.9992  -4.9983
    -4.5811  -4.5789  -4.5051  -4.5032  -4.1939  -4.1921  -4.0862  -4.0840
    -3.8086  -3.8074  -3.6526  -3.6515  -3.4507  -3.4481  -3.2885  -3.2868
    -2.9323  -2.9320  -2.6885  -2.6867  -2.5221  -2.5161  -2.3560  -2.3533
     0.9757   0.9759   1.1450   1.1459   1.2570   1.2574   1.6131   1.6144
     1.8900   1.8917   2.0239   2.0268   2.0581   2.0608

          k =-0.4800 0.5200 0.0000 ( 76318 PWs)   bands (ev):

   -58.3253 -58.3234 -58.2740 -58.2720 -57.8520 -57.8498 -34.7924 -34.7909
   -34.7695 -34.7674 -34.5706 -34.5702 -34.5255 -34.5250 -34.5067 -34.5050
   -34.4973 -34.4970 -34.3165 -34.3141 -34.2418 -34.2392 -34.0734 -34.0711
   -18.4472 -18.4445 -18.3537 -18.3526 -18.2134 -18.2123 -18.0794 -18.0786
   -17.9514 -17.9477 -17.5164 -17.5123  -6.0481  -6.0475  -5.9745  -5.9742
    -5.8462  -5.8455  -5.7212  -5.7209  -5.5809  -5.5774  -5.4090  -5.4065
    -4.8355  -4.8341  -4.6721  -4.6696  -4.1943  -4.1929  -4.0533  -4.0508
    -3.8398  -3.8370  -3.6321  -3.6310  -3.3869  -3.3858  -3.1143  -3.1116
    -2.8137  -2.8112  -2.6065  -2.6021  -2.5587  -2.5570  -2.4202  -2.4160
     1.0397   1.0401   1.2322   1.2327   1.3385   1.3391   1.6475   1.6492
     1.8296   1.8311   1.9545   1.9561   2.0628   2.0650

          k =-0.4800 0.6933 0.0000 ( 76294 PWs)   bands (ev):

   -58.3160 -58.3141 -58.2647 -58.2627 -57.8422 -57.8400 -34.8897 -34.8882
   -34.8671 -34.8649 -34.5451 -34.5439 -34.5115 -34.5102 -34.5001 -34.4999
   -34.4882 -34.4862 -34.4076 -34.4055 -34.2395 -34.2368 -34.0547 -34.0523
   -18.4881 -18.4852 -18.3719 -18.3708 -18.0661 -18.0645 -17.9944 -17.9915
   -17.8785 -17.8782 -17.4214 -17.4173  -6.2715  -6.2714  -6.1592  -6.1582
    -5.9710  -5.9702  -5.6394  -5.6391  -5.4549  -5.4537  -5.3535  -5.3496
    -4.8815  -4.8802  -4.6679  -4.6666  -4.1892  -4.1883  -4.0520  -4.0502
    -3.9604  -3.9584  -3.4829  -3.4819  -3.2144  -3.2142  -2.9932  -2.9926
    -2.8368  -2.8336  -2.6761  -2.6750  -2.5106  -2.5077  -2.4237  -2.4190
     0.8872   0.8885   1.2271   1.2298   1.6773   1.6784   1.7557   1.7565
     1.8207   1.8216   1.9993   2.0011   2.0984   2.0992

     the Fermi energy is    -0.5355 ev

!    total energy              =   -1077.91109835 Ry
     estimated scf accuracy    <          6.2E-09 Ry
     smearing contrib. (-TS)   =      -0.00000000 Ry
     internal energy E=F+TS    =   -1077.91109835 Ry

     The total energy is F=E-TS. E is the sum of the following terms:
     one-electron contribution =  -24659.93607799 Ry
     hartree contribution      =   12342.05230426 Ry
     xc contribution           =    -170.04119358 Ry
     ewald contribution        =   11410.01386896 Ry

     convergence has been achieved in   8 iterations

     Forces acting on atoms (cartesian axes, Ry/au):

     atom    1 type  1   force =    -0.00032231    0.00000000   -0.00047003
     atom    2 type  1   force =     0.00020843    0.00000000    0.00035676
     atom    3 type  1   force =    -0.00116447    0.00000000    0.00043632
     atom    4 type  1   force =    -0.00133039    0.00000000   -0.00004447
     atom    5 type  1   force =    -0.00027919    0.00000000   -0.00068850
     atom    6 type  1   force =    -0.00034920    0.00000000    0.00042932
     atom    7 type  2   force =    -0.00281058    0.00000000   -0.00140060
     atom    8 type  2   force =     0.00152255    0.00000000   -0.00027737
     atom    9 type  2   force =     0.00078195    0.00000000    0.00226832
     atom   10 type  2   force =    -0.00058006    0.00000000    0.00027657
     atom   11 type  2   force =     0.00190773    0.00000000   -0.00089169
     atom   12 type  2   force =     0.00065233    0.00000000   -0.00197221
     atom   13 type  2   force =    -0.00056595    0.00000000    0.00020308
     atom   14 type  2   force =     0.00057231    0.00000000   -0.00261116
     atom   15 type  2   force =     0.00029727    0.00000000    0.00209853
     atom   16 type  2   force =     0.00217275    0.00000000    0.00124356
     atom   17 type  2   force =    -0.00244569    0.00000000    0.00122169
     atom   18 type  2   force =     0.00173252    0.00000000   -0.00017813

     Total force =     0.007786     Total SCF correction =     0.000277


     Computing stress (Cartesian axis) and pressure

          total   stress  (Ry/bohr**3)                   (kbar)     P=        0.51
  -0.00000966   0.00000000   0.00000061           -1.42        0.00        0.09
   0.00000000   0.00000878   0.00000000            0.00        1.29        0.00
   0.00000061   0.00000000   0.00001135            0.09        0.00        1.67

     Energy error            =      1.8E-04 Ry
     Gradient error          =      2.8E-03 Ry/Bohr
     Cell gradient error     =      1.4E+00 kbar

     number of scf cycles    =  13
     number of bfgs steps    =  12

     enthalpy           old  =   -1077.9109190514 Ry
     enthalpy           new  =   -1077.9110983508 Ry

     CASE: enthalpy          _new < enthalpy          _old

     new trust radius        =       0.0199552656 bohr
     new conv_thr            =       0.0000000179 Ry

     new unit-cell volume =   3574.15919 a.u.^3 (   529.63575 Ang^3 )
     density =      1.50238 g/cm^3

CELL_PARAMETERS (angstrom)
   4.792286134   0.000000000   0.000000000
   0.000000000   2.948885528   0.000000000
   0.000000000   0.000000000  37.478019714

ATOMIC_POSITIONS (angstrom)
Ti               0.1793567891        0.0000000000       14.6339233283
Ti               2.5393137637        1.4744426767       16.8385126348
Ti               0.1311406542        0.0000000000       19.2144537830
Ti               2.5271638141        1.4744426767       21.4565828358
Ti               0.1426402202        0.0000000000       23.8330688899
Ti               2.5746611474        1.4744426767       26.0395967829
O                0.6447268135        1.4744427644       13.6318676617
O                1.4517874186        0.0000000000       15.9633541563
O                3.3085150297        0.0000000000       17.7610117567
O                0.9014987370        1.4744427644       18.2828854114
O                3.7464811060        1.4744427644       15.4301090159
O                1.4770226084        0.0000000000       20.5737131201
O                3.2969183854        0.0000000000       22.3878481841
O                0.9089810406        1.4744427644       22.9087235843
O                3.8728993172        1.4744427644       20.0976490580
O                1.3535780746        0.0000000000       25.2365862444
O                3.0374592120        0.0000000000       27.0431655212
O                3.8479993036        1.4744427644       24.7117962752



     Writing config-only to output data dir ./Out/pwscf.save/
     NEW-OLD atomic charge density approx. for the potential

     negative rho (up, down):  2.363E-05 0.000E+00

     total cpu time spent up to now is      540.6 secs

     Self-consistent Calculation

     iteration #  1     ecut=   120.00 Ry     beta= 0.40
     Davidson diagonalization with overlap
     ethr =  1.00E-06,  avg # of iterations =  5.0

     Threshold (ethr) on eigenvalues was too large:
     Diagonalizing with lowered threshold

     Davidson diagonalization with overlap
     ethr =  7.98E-08,  avg # of iterations =  5.1

     negative rho (up, down):  1.378E-05 0.000E+00

     total cpu time spent up to now is      549.3 secs

     total energy              =   -1077.91122051 Ry
     estimated scf accuracy    <       0.00012626 Ry

     iteration #  2     ecut=   120.00 Ry     beta= 0.40
     Davidson diagonalization with overlap
     ethr =  8.77E-08,  avg # of iterations =  2.0

     negative rho (up, down):  6.719E-06 0.000E+00

     total cpu time spent up to now is      552.6 secs

     total energy              =   -1077.91122443 Ry
     estimated scf accuracy    <       0.00002507 Ry

     iteration #  3     ecut=   120.00 Ry     beta= 0.40
     Davidson diagonalization with overlap
     ethr =  1.74E-08,  avg # of iterations =  3.9

     negative rho (up, down):  3.675E-06 0.000E+00

     total cpu time spent up to now is      556.3 secs

     total energy              =   -1077.91122746 Ry
     estimated scf accuracy    <       0.00001141 Ry

     iteration #  4     ecut=   120.00 Ry     beta= 0.40
     Davidson diagonalization with overlap
     ethr =  7.92E-09,  avg # of iterations =  2.5

     negative rho (up, down):  2.088E-06 0.000E+00

     total cpu time spent up to now is      559.7 secs

     total energy              =   -1077.91122963 Ry
     estimated scf accuracy    <       0.00000156 Ry

     iteration #  5     ecut=   120.00 Ry     beta= 0.40
     Davidson diagonalization with overlap
     ethr =  1.08E-09,  avg # of iterations =  5.0

     negative rho (up, down):  7.937E-07 0.000E+00

     total cpu time spent up to now is      563.7 secs

     total energy              =   -1077.91123003 Ry
     estimated scf accuracy    <       0.00000063 Ry

     iteration #  6     ecut=   120.00 Ry     beta= 0.40
     Davidson diagonalization with overlap
     ethr =  4.40E-10,  avg # of iterations =  4.3

     negative rho (up, down):  2.027E-07 0.000E+00

     total cpu time spent up to now is      567.4 secs

     total energy              =   -1077.91123015 Ry
     estimated scf accuracy    <       0.00000010 Ry

     iteration #  7     ecut=   120.00 Ry     beta= 0.40
     Davidson diagonalization with overlap
     ethr =  6.66E-11,  avg # of iterations =  4.9

     negative rho (up, down):  3.494E-08 0.000E+00

     total cpu time spent up to now is      571.3 secs

     total energy              =   -1077.91123016 Ry
     estimated scf accuracy    <       0.00000005 Ry

     iteration #  8     ecut=   120.00 Ry     beta= 0.40
     Davidson diagonalization with overlap
     ethr =  3.69E-11,  avg # of iterations =  3.8

     total cpu time spent up to now is      574.8 secs

     End of self-consistent calculation

          k = 0.0000 0.0000 0.0000 ( 76179 PWs)   bands (ev):

   -58.3749 -58.3668 -58.3242 -58.3216 -57.9021 -57.9009 -34.6641 -34.6571
   -34.6222 -34.6180 -34.5703 -34.5578 -34.5386 -34.5347 -34.4599 -34.4453
   -34.4327 -34.4299 -34.2929 -34.2917 -34.1664 -34.1653 -33.9433 -33.9421
   -19.4331 -19.2271 -18.8640 -18.5378 -18.3811 -18.3787 -18.0085 -17.9829
   -17.8582 -17.8442 -17.4307 -17.4252  -6.9664  -6.6578  -6.5511  -6.4154
    -6.0131  -5.8232  -5.7883  -5.5358  -5.2266  -5.2180  -5.1499  -5.1343
    -4.9121  -4.7633  -4.7619  -4.5722  -4.3695  -4.2506  -4.1869  -3.7310
    -3.6141  -3.5107  -3.3533  -3.3216  -3.1155  -3.1043  -2.9103  -2.9087
    -2.8524  -2.6948  -2.5728  -2.4160  -2.3990  -2.2003  -1.9215  -1.6965
     0.6410   0.8521   0.9587   1.0490   1.1488   1.2202   1.2836   1.2940
     1.4499   1.5866   1.5889   2.1822   2.3147   2.3460

          k = 0.0000 0.1732 0.0000 ( 76281 PWs)   bands (ev):

   -58.3698 -58.3621 -58.3193 -58.3167 -57.8970 -57.8958 -34.6525 -34.6448
   -34.6133 -34.6062 -34.5686 -34.5559 -34.5345 -34.5309 -34.5095 -34.4986
   -34.4874 -34.4848 -34.2878 -34.2866 -34.1580 -34.1568 -34.0011 -33.9999
   -19.3111 -19.1154 -18.7689 -18.4519 -18.3050 -18.2974 -18.0501 -18.0186
   -17.9044 -17.8970 -17.4618 -17.4571  -6.7970  -6.5058  -6.4113  -6.2697
    -5.9290  -5.7726  -5.7354  -5.5714  -5.4299  -5.4088  -5.3401  -5.1695
    -4.8030  -4.7675  -4.5632  -4.4312  -4.2748  -4.0756  -4.0436  -3.8774
    -3.8469  -3.6523  -3.4743  -3.3382  -3.3322  -3.1925  -3.1873  -2.9739
    -2.9612  -2.9057  -2.6523  -2.4306  -2.4155  -2.1778  -1.9599  -1.7339
     0.7628   0.9551   1.0064   1.0516   1.1890   1.2305   1.3105   1.3391
     1.5309   1.6127   1.7452   1.8582   1.9057   2.3472

          k = 0.0000 0.3464 0.0000 ( 76251 PWs)   bands (ev):

   -58.3568 -58.3504 -58.3070 -58.3044 -57.8839 -57.8828 -34.6648 -34.6467
   -34.6414 -34.6379 -34.6096 -34.6091 -34.5696 -34.5650 -34.5431 -34.5373
   -34.5242 -34.5204 -34.2787 -34.2774 -34.1729 -34.1717 -34.1061 -34.1050
   -18.9886 -18.8292 -18.5560 -18.2945 -18.1585 -18.1336 -18.0821 -18.0767
   -18.0125 -18.0112 -17.5264 -17.5236  -6.3531  -6.1464  -6.0559  -5.9493
    -5.7691  -5.6818  -5.6544  -5.6056  -5.5762  -5.5720  -5.3518  -5.2336
    -4.7997  -4.6754  -4.5707  -4.5470  -4.4927  -4.2892  -4.1845  -4.1821
    -4.1227  -3.8142  -3.7921  -3.4946  -3.4544  -3.3176  -3.2521  -3.0044
    -2.8828  -2.8504  -2.7318  -2.6426  -2.6256  -2.2437  -2.0726  -1.9268
     0.8151   0.9949   1.0461   1.0657   1.1312   1.3660   1.3951   1.5113
     1.6974   1.7632   1.8686   1.8835   1.9756   2.1479

          k = 0.0000 0.5197 0.0000 ( 76270 PWs)   bands (ev):

   -58.3417 -58.3372 -58.2929 -58.2903 -57.8691 -57.8679 -34.8082 -34.7981
   -34.7862 -34.7835 -34.5821 -34.5756 -34.5430 -34.5373 -34.5257 -34.5238
   -34.5144 -34.5106 -34.3312 -34.3303 -34.2565 -34.2550 -34.0904 -34.0893
   -18.5837 -18.5123 -18.4521 -18.3700 -18.2087 -18.1166 -18.0325 -18.0233
   -17.9370 -17.9266 -17.5271 -17.5256  -5.9438  -5.8759  -5.8661  -5.8079
    -5.6892  -5.6657  -5.6633  -5.6212  -5.5253  -5.4585  -5.4577  -5.2842
    -5.0889  -5.0739  -4.7742  -4.7115  -4.5526  -4.2509  -4.1698  -4.1333
    -4.0387  -3.8592  -3.7487  -3.6079  -3.5759  -3.2606  -3.1660  -3.1033
    -3.0003  -2.9154  -2.9122  -2.7168  -2.6778  -2.3726  -2.3212  -2.2990
     0.6902   0.9130   0.9672   1.2635   1.4024   1.4318   1.6078   1.6108
     1.7613   1.8665   1.9557   2.0350   2.1912   2.2155

          k = 0.0000 0.6929 0.0000 ( 76376 PWs)   bands (ev):

   -58.3315 -58.3290 -58.2836 -58.2810 -57.8594 -57.8582 -34.9015 -34.8979
   -34.8833 -34.8805 -34.5574 -34.5537 -34.5271 -34.5230 -34.5193 -34.5177
   -34.5025 -34.5000 -34.4234 -34.4227 -34.2535 -34.2520 -34.0714 -34.0704
   -18.4883 -18.4659 -18.3803 -18.3270 -18.2252 -18.0623 -18.0286 -17.9632
   -17.8803 -17.8522 -17.4450 -17.4439  -6.2874  -6.1979  -6.0365  -5.9596
    -5.6586  -5.6509  -5.5655  -5.5164  -5.4059  -5.4003  -5.3182  -5.3020
    -4.9035  -4.8538  -4.5937  -4.4634  -4.3157  -4.2064  -4.1761  -4.1458
    -4.0973  -4.0391  -3.8817  -3.6209  -3.4917  -3.2920  -3.2314  -3.1126
    -3.0182  -2.9728  -2.9503  -2.8295  -2.7703  -2.6970  -2.4851  -2.3920
     0.6874   0.9138   1.0790   1.2243   1.3994   1.6572   1.6707   1.7522
     1.7985   1.8346   2.0732   2.0746   2.2701   2.3269

          k = 0.1599 0.0000 0.0000 ( 76264 PWs)   bands (ev):

   -58.3744 -58.3673 -58.3242 -58.3216 -57.9021 -57.9009 -34.6652 -34.6600
   -34.6221 -34.6189 -34.5685 -34.5582 -34.5381 -34.5345 -34.4587 -34.4458
   -34.4330 -34.4303 -34.2927 -34.2914 -34.1663 -34.1652 -33.9433 -33.9421
   -19.3615 -19.1844 -18.8659 -18.5760 -18.4011 -18.3947 -18.0143 -18.0067
   -17.8832 -17.8385 -17.4337 -17.4304  -6.8921  -6.7467  -6.4582  -6.4518
    -5.9054  -5.8127  -5.7476  -5.4333  -5.2321  -5.2263  -5.1569  -5.1370
    -4.8900  -4.7669  -4.7652  -4.5369  -4.3882  -4.2440  -4.0699  -3.7103
    -3.6536  -3.4572  -3.3321  -3.2741  -3.1435  -3.1361  -2.9806  -2.9352
    -2.7715  -2.7672  -2.6600  -2.6042  -2.5232  -2.3693  -2.0544  -1.8107
     0.7023   0.7930   0.9995   1.0586   1.1837   1.2287   1.3011   1.4068
     1.5469   1.6250   1.7367   2.1746   2.2596   2.2717

          k = 0.1599 0.1732 0.0000 ( 76282 PWs)   bands (ev):

   -58.3693 -58.3626 -58.3193 -58.3167 -57.8970 -57.8958 -34.6532 -34.6481
   -34.6123 -34.6075 -34.5673 -34.5563 -34.5341 -34.5306 -34.5080 -34.4990
   -34.4877 -34.4851 -34.2876 -34.2864 -34.1579 -34.1567 -34.0011 -33.9999
   -19.2431 -19.0746 -18.7702 -18.4897 -18.3159 -18.3134 -18.0551 -18.0463
   -17.9309 -17.8890 -17.4647 -17.4616  -6.7313  -6.5976  -6.3140  -6.3073
    -5.8573  -5.7739  -5.7043  -5.5702  -5.4640  -5.3949  -5.2760  -5.1056
    -4.7841  -4.7578  -4.5344  -4.3995  -4.3227  -4.1296  -3.9719  -3.8096
    -3.7928  -3.6984  -3.5389  -3.2801  -3.2757  -3.1980  -3.1813  -3.0284
    -2.9931  -2.9319  -2.6597  -2.5521  -2.5343  -2.3320  -2.0819  -1.8426
     0.7793   0.9021   1.0305   1.1362   1.1861   1.2630   1.3223   1.4233
     1.6131   1.6157   1.8167   1.8631   1.9219   2.3480

          k = 0.1599 0.3464 0.0000 ( 76223 PWs)   bands (ev):

   -58.3564 -58.3508 -58.3070 -58.3044 -57.8839 -57.8828 -34.6634 -34.6468
   -34.6416 -34.6399 -34.6135 -34.6072 -34.5691 -34.5666 -34.5426 -34.5364
   -34.5233 -34.5207 -34.2787 -34.2774 -34.1729 -34.1717 -34.1059 -34.1049
   -18.9332 -18.7938 -18.5507 -18.3201 -18.1531 -18.1420 -18.1144 -18.0969
   -18.0398 -18.0014 -17.5287 -17.5263  -6.3237  -6.2228  -6.0060  -5.9682
    -5.7899  -5.7798  -5.6585  -5.6383  -5.6142  -5.5449  -5.1724  -5.0697
    -4.8771  -4.7043  -4.6032  -4.5549  -4.3887  -4.3689  -4.1284  -4.1005
    -4.0839  -3.7976  -3.7687  -3.5203  -3.5160  -3.2516  -3.1977  -3.0543
    -2.9442  -2.8615  -2.7698  -2.6255  -2.6081  -2.3307  -2.1431  -2.0049
     0.8014   1.0081   1.0254   1.1264   1.2038   1.3692   1.4317   1.4908
     1.6937   1.7343   1.8737   1.8800   2.0797   2.1459

          k = 0.1599 0.5197 0.0000 ( 76310 PWs)   bands (ev):

   -58.3415 -58.3375 -58.2929 -58.2903 -57.8691 -57.8679 -34.8075 -34.7985
   -34.7863 -34.7836 -34.5829 -34.5770 -34.5418 -34.5388 -34.5261 -34.5218
   -34.5136 -34.5118 -34.3312 -34.3303 -34.2564 -34.2549 -34.0904 -34.0893
   -18.5619 -18.4964 -18.4374 -18.3517 -18.1933 -18.1674 -18.0636 -18.0142
   -17.9391 -17.9356 -17.5271 -17.5256  -5.9875  -5.9328  -5.8601  -5.8567
    -5.7622  -5.7072  -5.6398  -5.6256  -5.5897  -5.4964  -5.4646  -5.3566
    -5.1191  -4.8759  -4.6859  -4.6299  -4.4783  -4.2812  -4.1982  -4.0695
    -4.0670  -3.8916  -3.6862  -3.5912  -3.5631  -3.2089  -3.1520  -3.0892
    -3.0316  -2.9622  -2.8309  -2.7020  -2.6451  -2.3792  -2.3148  -2.3048
     0.7144   0.9358   0.9706   1.3321   1.4472   1.4713   1.5704   1.6257
     1.7917   1.8101   1.8797   1.9706   2.1322   2.2145

          k = 0.1599 0.6929 0.0000 ( 76348 PWs)   bands (ev):

   -58.3315 -58.3290 -58.2836 -58.2810 -57.8594 -57.8582 -34.9013 -34.8980
   -34.8834 -34.8806 -34.5576 -34.5543 -34.5268 -34.5238 -34.5186 -34.5169
   -34.5033 -34.5007 -34.4231 -34.4225 -34.2535 -34.2520 -34.0715 -34.0704
   -18.4882 -18.4783 -18.3625 -18.3612 -18.1594 -18.1061 -17.9912 -17.9868
   -17.8794 -17.8573 -17.4420 -17.4408  -6.2813  -6.2352  -6.0309  -6.0130
    -5.7384  -5.7107  -5.5525  -5.5270  -5.5147  -5.4389  -5.3472  -5.2963
    -5.0708  -4.8234  -4.5506  -4.5062  -4.3049  -4.2254  -4.1868  -4.0810
    -3.9774  -3.9752  -3.7557  -3.5402  -3.3659  -3.2213  -3.2101  -3.1424
    -2.9988  -2.9879  -2.9029  -2.7691  -2.7496  -2.6803  -2.4769  -2.3849
     0.7408   0.9276   1.1545   1.1842   1.5011   1.5732   1.7007   1.7512
     1.7946   1.8266   2.0468   2.0566   2.2068   2.2154

          k = 0.3198 0.0000 0.0000 ( 76372 PWs)   bands (ev):

   -58.3730 -58.3685 -58.3242 -58.3217 -57.9021 -57.9009 -34.6674 -34.6654
   -34.6224 -34.6205 -34.5653 -34.5589 -34.5364 -34.5345 -34.4554 -34.4475
   -34.4336 -34.4310 -34.2921 -34.2909 -34.1662 -34.1650 -33.9434 -33.9422
   -19.1666 -19.0736 -18.8771 -18.6838 -18.4778 -18.4708 -18.0286 -18.0138
   -17.8958 -17.8577 -17.4422 -17.4398  -6.7922  -6.7612  -6.5407  -6.4219
    -5.8248  -5.8078  -5.3754  -5.2469  -5.2391  -5.1689  -5.1451  -5.0974
    -4.7724  -4.7708  -4.7148  -4.4448  -4.4099  -4.3556  -3.9634  -3.8277
    -3.6873  -3.4164  -3.3016  -3.2712  -3.2344  -3.2185  -3.0164  -3.0117
    -2.9243  -2.9064  -2.7098  -2.7066  -2.6738  -2.6343  -2.3232  -2.1037
     0.7581   0.7784   0.9866   1.0681   1.1916   1.3392   1.4747   1.5391
     1.7228   1.8303   1.9821   2.1286   2.1376   2.1685

          k = 0.3198 0.1732 0.0000 ( 76383 PWs)   bands (ev):

   -58.3680 -58.3637 -58.3194 -58.3168 -57.8970 -57.8958 -34.6550 -34.6534
   -34.6116 -34.6097 -34.5644 -34.5574 -34.5327 -34.5307 -34.5047 -34.4998
   -34.4887 -34.4860 -34.2872 -34.2859 -34.1578 -34.1566 -34.0010 -33.9999
   -19.0580 -18.9688 -18.7800 -18.5944 -18.3909 -18.3839 -18.0667 -18.0520
   -17.9430 -17.9052 -17.4723 -17.4700  -6.6437  -6.6146  -6.3919  -6.2761
    -5.7667  -5.7537  -5.6037  -5.5616  -5.4876  -5.4368  -5.0514  -4.8479
    -4.7643  -4.7280  -4.4388  -4.3889  -4.2862  -4.1563  -3.9849  -3.8923
    -3.7052  -3.6383  -3.5332  -3.3458  -3.3034  -3.2169  -3.1718  -3.1704
    -3.0550  -2.9919  -2.8394  -2.7917  -2.5746  -2.5211  -2.2980  -2.0818
     0.8124   0.8328   1.0151   1.1423   1.3133   1.3400   1.4441   1.4931
     1.7418   1.7742   1.8680   1.9187   2.0388   2.3051

          k = 0.3198 0.3464 0.0000 ( 76318 PWs)   bands (ev):

   -58.3554 -58.3517 -58.3070 -58.3044 -57.8839 -57.8828 -34.6599 -34.6501
   -34.6439 -34.6382 -34.6186 -34.6074 -34.5699 -34.5677 -34.5407 -34.5357
   -34.5219 -34.5208 -34.2786 -34.2773 -34.1729 -34.1717 -34.1057 -34.1046
   -18.7823 -18.7027 -18.5461 -18.3965 -18.2338 -18.2276 -18.1079 -18.0972
   -18.0430 -18.0126 -17.5336 -17.5316  -6.2683  -6.2577  -6.0633  -5.9430
    -5.8642  -5.8120  -5.7313  -5.6536  -5.6307  -5.6124  -4.9839  -4.9472
    -4.7451  -4.6481  -4.5574  -4.5245  -4.4190  -4.3096  -4.0946  -4.0254
    -3.9169  -3.8037  -3.7639  -3.5827  -3.4626  -3.2628  -3.2554  -3.1253
    -2.9608  -2.9480  -2.7907  -2.6279  -2.5624  -2.5156  -2.3066  -2.1845
     0.8854   0.9670   1.0443   1.2288   1.2567   1.3314   1.4502   1.5382
     1.7475   1.7706   1.9811   1.9954   2.0733   2.1028

          k = 0.3198 0.5197 0.0000 ( 76259 PWs)   bands (ev):

   -58.3409 -58.3380 -58.2929 -58.2903 -57.8691 -57.8679 -34.8057 -34.8002
   -34.7863 -34.7835 -34.5842 -34.5801 -34.5412 -34.5395 -34.5247 -34.5207
   -34.5138 -34.5126 -34.3313 -34.3304 -34.2562 -34.2547 -34.0904 -34.0894
   -18.5052 -18.4613 -18.4033 -18.3133 -18.2501 -18.1644 -18.1200 -18.0349
   -17.9526 -17.9511 -17.5269 -17.5254  -6.0461  -6.0158  -5.9704  -5.8721
    -5.8301  -5.8158  -5.6910  -5.6752  -5.6377  -5.5029  -5.4396  -5.4223
    -5.0509  -4.7270  -4.6595  -4.6083  -4.3700  -4.2132  -4.1047  -4.0053
    -3.9913  -3.9055  -3.7124  -3.5056  -3.4356  -3.3259  -3.1854  -3.0757
    -2.9476  -2.8882  -2.7461  -2.6567  -2.5663  -2.4253  -2.3733  -2.3549
     0.8037   1.0202   1.0802   1.3928   1.4168   1.4810   1.5333   1.6153
     1.6825   1.7711   1.9364   1.9935   2.0919   2.1070

          k = 0.3198 0.6929 0.0000 ( 76319 PWs)   bands (ev):

   -58.3314 -58.3291 -58.2836 -58.2810 -57.8593 -57.8582 -34.9008 -34.8985
   -34.8833 -34.8805 -34.5581 -34.5557 -34.5263 -34.5241 -34.5173 -34.5158
   -34.5052 -34.5025 -34.4226 -34.4220 -34.2536 -34.2521 -34.0717 -34.0706
   -18.4935 -18.4891 -18.3806 -18.3561 -18.1119 -18.0698 -18.0272 -17.9823
   -17.8860 -17.8678 -17.4363 -17.4350  -6.2784  -6.2702  -6.1093  -6.0979
    -5.9153  -5.8762  -5.6452  -5.5434  -5.5009  -5.4409  -5.3613  -5.3583
    -5.0676  -4.8755  -4.6234  -4.5094  -4.2438  -4.1935  -4.1662  -4.0474
    -3.9990  -3.9088  -3.5381  -3.4448  -3.2775  -3.1988  -3.0983  -2.9914
    -2.9778  -2.8591  -2.8016  -2.7601  -2.6010  -2.5769  -2.4597  -2.3808
     0.7972   0.9498   1.1588   1.2848   1.5145   1.6251   1.7371   1.7482
     1.7689   1.8011   2.0118   2.0149   2.1032   2.1343

          k =-0.4796 0.0000 0.0000 ( 76438 PWs)   bands (ev):

   -58.3717 -58.3696 -58.3243 -58.3217 -57.9021 -57.9009 -34.6683 -34.6679
   -34.6229 -34.6211 -34.5620 -34.5612 -34.5354 -34.5345 -34.4521 -34.4500
   -34.4339 -34.4313 -34.2919 -34.2906 -34.1661 -34.1649 -33.9434 -33.9422
   -18.9686 -18.9645 -18.8790 -18.8783 -18.5333 -18.5314 -18.0115 -18.0095
   -17.8901 -17.8882 -17.4468 -17.4446  -6.7632  -6.7602  -6.4976  -6.4957
    -5.8154  -5.8145  -5.2533  -5.2477  -5.1630  -5.1605  -4.7741  -4.7730
    -4.7711  -4.7693  -4.6253  -4.6233  -4.3736  -4.3708  -4.1975  -4.1960
    -3.5450  -3.5431  -3.3250  -3.3213  -3.2302  -3.2278  -3.0459  -3.0381
    -2.9393  -2.9389  -2.7456  -2.7441  -2.6073  -2.6048  -2.4401  -2.4376
     0.7724   0.7738   1.0199   1.0210   1.3139   1.3146   1.5257   1.5277
     2.0403   2.0410   2.0488   2.0516   2.1738   2.1760

          k =-0.4796 0.1732 0.0000 ( 76384 PWs)   bands (ev):

   -58.3669 -58.3648 -58.3194 -58.3168 -57.8970 -57.8958 -34.6559 -34.6557
   -34.6119 -34.6103 -34.5609 -34.5601 -34.5318 -34.5308 -34.5024 -34.5006
   -34.4892 -34.4865 -34.2870 -34.2857 -34.1577 -34.1566 -34.0010 -33.9999
   -18.8700 -18.8661 -18.7810 -18.7801 -18.4459 -18.4440 -18.0468 -18.0448
   -17.9364 -17.9347 -17.4765 -17.4743  -6.6176  -6.6147  -6.3492  -6.3472
    -5.7549  -5.7535  -5.5518  -5.5481  -5.4635  -5.4619  -4.7818  -4.7812
    -4.6935  -4.6920  -4.3811  -4.3804  -4.1684  -4.1657  -4.0459  -4.0444
    -3.6471  -3.6446  -3.4954  -3.4946  -3.3596  -3.3584  -3.2050  -3.2018
    -3.0833  -3.0810  -2.8799  -2.8734  -2.5068  -2.5046  -2.3285  -2.3264
     0.8116   0.8119   1.0598   1.0609   1.3908   1.3919   1.5009   1.5019
     1.8094   1.8096   2.1184   2.1201   2.1645   2.1671

          k =-0.4796 0.3464 0.0000 ( 76352 PWs)   bands (ev):

   -58.3546 -58.3524 -58.3070 -58.3044 -57.8839 -57.8828 -34.6560 -34.6545
   -34.6424 -34.6407 -34.6141 -34.6138 -34.5701 -34.5681 -34.5379 -34.5372
   -34.5215 -34.5205 -34.2785 -34.2773 -34.1729 -34.1717 -34.1055 -34.1045
   -18.6241 -18.6206 -18.5454 -18.5438 -18.2872 -18.2864 -18.0852 -18.0840
   -18.0379 -18.0371 -17.5361 -17.5343  -6.2566  -6.2539  -6.0083  -6.0062
    -5.8637  -5.8619  -5.7414  -5.7394  -5.6092  -5.6086  -5.0062  -5.0046
    -4.5889  -4.5874  -4.5144  -4.5129  -4.1952  -4.1947  -4.0932  -4.0904
    -3.8144  -3.8138  -3.6603  -3.6582  -3.4557  -3.4540  -3.2965  -3.2945
    -2.9443  -2.9421  -2.6985  -2.6974  -2.5317  -2.5270  -2.3643  -2.3628
     0.9620   0.9632   1.1381   1.1391   1.2401   1.2405   1.5920   1.5926
     1.8686   1.8708   2.0027   2.0057   2.0380   2.0414

          k =-0.4796 0.5197 0.0000 ( 76318 PWs)   bands (ev):

   -58.3405 -58.3383 -58.2929 -58.2903 -57.8691 -57.8679 -34.8039 -34.8022
   -34.7861 -34.7834 -34.5836 -34.5830 -34.5406 -34.5398 -34.5234 -34.5216
   -34.5137 -34.5126 -34.3313 -34.3304 -34.2561 -34.2546 -34.0904 -34.0894
   -18.4531 -18.4494 -18.3603 -18.3591 -18.2212 -18.2199 -18.0848 -18.0839
   -17.9622 -17.9605 -17.5268 -17.5254  -6.0500  -6.0495  -5.9766  -5.9764
    -5.8507  -5.8497  -5.7268  -5.7254  -5.5888  -5.5862  -5.4157  -5.4153
    -4.8407  -4.8392  -4.6772  -4.6764  -4.2046  -4.2040  -4.0634  -4.0623
    -3.8478  -3.8452  -3.6385  -3.6368  -3.3955  -3.3946  -3.1155  -3.1136
    -2.8247  -2.8244  -2.6113  -2.6078  -2.5664  -2.5655  -2.4305  -2.4282
     1.0215   1.0221   1.2182   1.2191   1.3209   1.3217   1.6311   1.6325
     1.8089   1.8106   1.9354   1.9375   2.0447   2.0474

          k =-0.4796 0.6929 0.0000 ( 76294 PWs)   bands (ev):

   -58.3313 -58.3291 -58.2836 -58.2810 -57.8593 -57.8581 -34.9005 -34.8989
   -34.8833 -34.8805 -34.5581 -34.5567 -34.5256 -34.5241 -34.5167 -34.5154
   -34.5063 -34.5036 -34.4223 -34.4217 -34.2537 -34.2522 -34.0718 -34.0707
   -18.4963 -18.4923 -18.3729 -18.3724 -18.0768 -18.0748 -18.0049 -18.0029
   -17.8839 -17.8837 -17.4336 -17.4322  -6.2722  -6.2719  -6.1644  -6.1633
    -5.9730  -5.9718  -5.6437  -5.6435  -5.4580  -5.4575  -5.3626  -5.3605
    -4.8866  -4.8855  -4.6755  -4.6741  -4.1997  -4.1983  -4.0614  -4.0594
    -3.9716  -3.9715  -3.4895  -3.4893  -3.2234  -3.2221  -2.9984  -2.9977
    -2.8429  -2.8416  -2.6810  -2.6803  -2.5173  -2.5153  -2.4312  -2.4279
     0.8603   0.8618   1.2087   1.2114   1.6609   1.6620   1.7347   1.7362
     1.8051   1.8060   1.9830   1.9849   2.0817   2.0819

     the Fermi energy is    -0.5524 ev

!    total energy              =   -1077.91123016 Ry
     estimated scf accuracy    <          2.3E-09 Ry
     smearing contrib. (-TS)   =      -0.00000000 Ry
     internal energy E=F+TS    =   -1077.91123016 Ry

     The total energy is F=E-TS. E is the sum of the following terms:
     one-electron contribution =  -24622.30983519 Ry
     hartree contribution      =   12323.17530908 Ry
     xc contribution           =    -170.02417245 Ry
     ewald contribution        =   11391.24746839 Ry

     convergence has been achieved in   8 iterations

     Forces acting on atoms (cartesian axes, Ry/au):

     atom    1 type  1   force =     0.00032173    0.00000000   -0.00009675
     atom    2 type  1   force =    -0.00027123    0.00000000    0.00020262
     atom    3 type  1   force =     0.00015682    0.00000000    0.00157335
     atom    4 type  1   force =    -0.00001402    0.00000000   -0.00123028
     atom    5 type  1   force =    -0.00059043    0.00000000   -0.00036452
     atom    6 type  1   force =     0.00053338    0.00000000    0.00003443
     atom    7 type  2   force =    -0.00161999    0.00000000   -0.00125565
     atom    8 type  2   force =     0.00053747    0.00000000   -0.00100775
     atom    9 type  2   force =     0.00121006    0.00000000    0.00232322
     atom   10 type  2   force =    -0.00148457    0.00000000   -0.00001716
     atom   11 type  2   force =     0.00142609    0.00000000    0.00012348
     atom   12 type  2   force =    -0.00028534    0.00000000   -0.00163264
     atom   13 type  2   force =    -0.00142577    0.00000000    0.00034524
     atom   14 type  2   force =     0.00105854    0.00000000   -0.00257750
     atom   15 type  2   force =    -0.00042002    0.00000000    0.00194471
     atom   16 type  2   force =     0.00157866    0.00000000    0.00026463
     atom   17 type  2   force =    -0.00157782    0.00000000    0.00080573
     atom   18 type  2   force =     0.00086645    0.00000000    0.00056485

     Total force =     0.006710     Total SCF correction =     0.000190


     Computing stress (Cartesian axis) and pressure

          total   stress  (Ry/bohr**3)                   (kbar)     P=       -0.60
  -0.00001498   0.00000000   0.00000051           -2.20        0.00        0.08
   0.00000000  -0.00000168   0.00000000            0.00       -0.25        0.00
   0.00000051   0.00000000   0.00000449            0.08        0.00        0.66

     Energy error            =      1.3E-04 Ry
     Gradient error          =      2.6E-03 Ry/Bohr
     Cell gradient error     =      2.2E+00 kbar

     number of scf cycles    =  14
     number of bfgs steps    =  13

     enthalpy           old  =   -1077.9110983508 Ry
     enthalpy           new  =   -1077.9112301639 Ry

     CASE: enthalpy          _new < enthalpy          _old

     new trust radius        =       0.0089079115 bohr
     new conv_thr            =       0.0000000132 Ry

     new unit-cell volume =   3573.75877 a.u.^3 (   529.57641 Ang^3 )
     density =      1.50255 g/cm^3

CELL_PARAMETERS (angstrom)
   4.789404538   0.000000000   0.000000000
   0.000000000   2.950329188   0.000000000
   0.000000000   0.000000000  37.478019714

ATOMIC_POSITIONS (angstrom)
Ti               0.1788086986        0.0000000000       14.6327377600
Ti               2.5374789619        1.4751645064       16.8392536517
Ti               0.1282341408        0.0000000000       19.2140258806
Ti               2.5226207440        1.4751645064       21.4575541835
Ti               0.1417369942        0.0000000000       23.8320115629
Ti               2.5726822782        1.4751645064       26.0406770854
O                0.6402916901        1.4751645941       13.6294554133
O                1.4534848175        0.0000000000       15.9618080137
O                3.3067956499        0.0000000000       17.7631915759
O                0.9011030618        1.4751645941       18.2829546775
O                3.7466065038        1.4751645941       15.4307262880
O                1.4787644196        0.0000000000       20.5709200692
O                3.2951011369        0.0000000000       22.3883989825
O                0.9082986998        1.4751645941       22.9060345229
O                3.8727898973        1.4751645941       20.1007936236
O                1.3553666975        0.0000000000       25.2359521425
O                3.0318434535        0.0000000000       27.0453878623
O                3.8485236211        1.4751645941       24.7129649484



     Writing config-only to output data dir ./Out/pwscf.save/
     NEW-OLD atomic charge density approx. for the potential

     negative rho (up, down):  2.023E-05 0.000E+00

     total cpu time spent up to now is      580.8 secs

     Self-consistent Calculation

     iteration #  1     ecut=   120.00 Ry     beta= 0.40
     Davidson diagonalization with overlap
     ethr =  1.00E-06,  avg # of iterations =  4.3

     Threshold (ethr) on eigenvalues was too large:
     Diagonalizing with lowered threshold

     Davidson diagonalization with overlap
     ethr =  3.28E-08,  avg # of iterations =  4.8

     negative rho (up, down):  1.178E-05 0.000E+00

     total cpu time spent up to now is      589.5 secs

     total energy              =   -1077.91131755 Ry
     estimated scf accuracy    <       0.00005353 Ry

     iteration #  2     ecut=   120.00 Ry     beta= 0.40
     Davidson diagonalization with overlap
     ethr =  3.72E-08,  avg # of iterations =  2.5

     negative rho (up, down):  7.514E-06 0.000E+00

     total cpu time spent up to now is      593.0 secs

     total energy              =   -1077.91132210 Ry
     estimated scf accuracy    <       0.00001441 Ry

     iteration #  3     ecut=   120.00 Ry     beta= 0.40
     Davidson diagonalization with overlap
     ethr =  1.00E-08,  avg # of iterations =  2.5

     negative rho (up, down):  3.163E-06 0.000E+00

     total cpu time spent up to now is      596.4 secs

     total energy              =   -1077.91132390 Ry
     estimated scf accuracy    <       0.00000388 Ry

     iteration #  4     ecut=   120.00 Ry     beta= 0.40
     Davidson diagonalization with overlap
     ethr =  2.70E-09,  avg # of iterations =  2.4

     negative rho (up, down):  1.756E-06 0.000E+00

     total cpu time spent up to now is      599.8 secs

     total energy              =   -1077.91132446 Ry
     estimated scf accuracy    <       0.00000072 Ry

     iteration #  5     ecut=   120.00 Ry     beta= 0.40
     Davidson diagonalization with overlap
     ethr =  5.00E-10,  avg # of iterations =  4.8

     negative rho (up, down):  8.296E-07 0.000E+00

     total cpu time spent up to now is      603.6 secs

     total energy              =   -1077.91132463 Ry
     estimated scf accuracy    <       0.00000023 Ry

     iteration #  6     ecut=   120.00 Ry     beta= 0.40
     Davidson diagonalization with overlap
     ethr =  1.62E-10,  avg # of iterations =  4.6

     negative rho (up, down):  2.026E-07 0.000E+00

     total cpu time spent up to now is      607.4 secs

     total energy              =   -1077.91132467 Ry
     estimated scf accuracy    <       0.00000006 Ry

     iteration #  7     ecut=   120.00 Ry     beta= 0.40
     Davidson diagonalization with overlap
     ethr =  4.43E-11,  avg # of iterations =  4.5

     total cpu time spent up to now is      611.1 secs

     End of self-consistent calculation

          k = 0.0000 0.0000 0.0000 ( 76179 PWs)   bands (ev):

   -58.3709 -58.3628 -58.3335 -58.3303 -57.9063 -57.9061 -34.6607 -34.6547
   -34.6266 -34.6238 -34.5694 -34.5591 -34.5429 -34.5364 -34.4568 -34.4461
   -34.4404 -34.4351 -34.2962 -34.2961 -34.1704 -34.1704 -33.9474 -33.9473
   -19.4306 -19.2277 -18.8632 -18.5324 -18.3830 -18.3805 -18.0118 -17.9836
   -17.8492 -17.8370 -17.4297 -17.4248  -6.9647  -6.6591  -6.5455  -6.4126
    -6.0118  -5.8241  -5.7914  -5.5380  -5.2309  -5.2227  -5.1444  -5.1264
    -4.9088  -4.7679  -4.7676  -4.5700  -4.3671  -4.2484  -4.1779  -3.7321
    -3.6123  -3.5076  -3.3546  -3.3211  -3.1115  -3.1022  -2.9151  -2.9133
    -2.8530  -2.6857  -2.5609  -2.4086  -2.3850  -2.1939  -1.9180  -1.6916
     0.6380   0.8409   0.9614   1.0455   1.1521   1.2127   1.2798   1.2851
     1.4439   1.5790   1.5908   2.1787   2.3057   2.3371

          k = 0.0000 0.1731 0.0000 ( 76281 PWs)   bands (ev):

   -58.3658 -58.3581 -58.3287 -58.3255 -57.9012 -57.9010 -34.6491 -34.6425
   -34.6167 -34.6119 -34.5684 -34.5569 -34.5390 -34.5331 -34.5077 -34.4996
   -34.4931 -34.4894 -34.2911 -34.2910 -34.1619 -34.1619 -34.0050 -34.0050
   -19.3089 -19.1162 -18.7684 -18.4466 -18.3067 -18.2996 -18.0530 -18.0194
   -17.8956 -17.8896 -17.4609 -17.4569  -6.7956  -6.5080  -6.4055  -6.2673
    -5.9281  -5.7737  -5.7377  -5.5696  -5.4276  -5.4118  -5.3386  -5.1662
    -4.8054  -4.7702  -4.5622  -4.4297  -4.2731  -4.0726  -4.0362  -3.8779
    -3.8460  -3.6481  -3.4758  -3.3419  -3.3349  -3.1910  -3.1838  -2.9670
    -2.9615  -2.9028  -2.6447  -2.4223  -2.4052  -2.1719  -1.9575  -1.7287
     0.7621   0.9464   1.0065   1.0523   1.1818   1.2274   1.3050   1.3408
     1.5249   1.6112   1.7353   1.8521   1.8996   2.3462

          k = 0.0000 0.3463 0.0000 ( 76251 PWs)   bands (ev):

   -58.3529 -58.3465 -58.3164 -58.3132 -57.8882 -57.8881 -34.6604 -34.6503
   -34.6443 -34.6385 -34.6077 -34.6072 -34.5762 -34.5708 -34.5422 -34.5391
   -34.5285 -34.5223 -34.2820 -34.2819 -34.1763 -34.1762 -34.1103 -34.1102
   -18.9870 -18.8303 -18.5564 -18.2943 -18.1568 -18.1343 -18.0821 -18.0780
   -18.0053 -18.0041 -17.5260 -17.5244  -6.3521  -6.1495  -6.0500  -5.9487
    -5.7693  -5.6799  -5.6522  -5.6052  -5.5752  -5.5672  -5.3533  -5.2301
    -4.7997  -4.6758  -4.5724  -4.5490  -4.4915  -4.2814  -4.1842  -4.1815
    -4.1210  -3.8140  -3.7921  -3.4900  -3.4530  -3.3140  -3.2500  -3.0062
    -2.8819  -2.8468  -2.7245  -2.6378  -2.6197  -2.2399  -2.0715  -1.9213
     0.8202   0.9901   1.0434   1.0620   1.1247   1.3677   1.3937   1.5088
     1.6911   1.7565   1.8650   1.8787   1.9656   2.1502

          k = 0.0000 0.5194 0.0000 ( 76270 PWs)   bands (ev):

   -58.3379 -58.3333 -58.3024 -58.2992 -57.8735 -57.8733 -34.8026 -34.7957
   -34.7921 -34.7890 -34.5782 -34.5724 -34.5434 -34.5405 -34.5296 -34.5286
   -34.5194 -34.5133 -34.3343 -34.3342 -34.2598 -34.2595 -34.0947 -34.0946
   -18.5829 -18.5124 -18.4540 -18.3731 -18.2035 -18.1116 -18.0304 -18.0199
   -17.9371 -17.9244 -17.5278 -17.5275  -5.9385  -5.8738  -5.8629  -5.8056
    -5.6909  -5.6654  -5.6632  -5.6214  -5.5220  -5.4588  -5.4561  -5.2793
    -5.0859  -5.0690  -4.7713  -4.7131  -4.5529  -4.2519  -4.1691  -4.1328
    -4.0425  -3.8593  -3.7471  -3.6031  -3.5634  -3.2650  -3.1661  -3.0993
    -3.0015  -2.9112  -2.9090  -2.7163  -2.6763  -2.3697  -2.3139  -2.2970
     0.6936   0.9084   0.9636   1.2602   1.3993   1.4281   1.6053   1.6068
     1.7576   1.8609   1.9484   2.0360   2.1935   2.2110

          k = 0.0000 0.6925 0.0000 ( 76376 PWs)   bands (ev):

   -58.3278 -58.3251 -58.2932 -58.2901 -57.8638 -57.8636 -34.8956 -34.8930
   -34.8895 -34.8868 -34.5533 -34.5496 -34.5282 -34.5255 -34.5206 -34.5178
   -34.5109 -34.5079 -34.4268 -34.4264 -34.2568 -34.2564 -34.0758 -34.0757
   -18.4905 -18.4688 -18.3752 -18.3211 -18.2258 -18.0655 -18.0262 -17.9642
   -17.8763 -17.8469 -17.4464 -17.4461  -6.2831  -6.1947  -6.0339  -5.9560
    -5.6585  -5.6509  -5.5627  -5.5113  -5.4037  -5.3978  -5.3162  -5.3007
    -4.9003  -4.8541  -4.5929  -4.4667  -4.3150  -4.2032  -4.1743  -4.1437
    -4.0962  -4.0353  -3.8790  -3.6218  -3.4921  -3.2952  -3.2293  -3.1102
    -3.0155  -2.9699  -2.9485  -2.8257  -2.7732  -2.6959  -2.4805  -2.3856
     0.6864   0.9113   1.0734   1.2218   1.3949   1.6549   1.6702   1.7429
     1.7929   1.8362   2.0643   2.0670   2.2716   2.3246

          k = 0.1600 0.0000 0.0000 ( 76264 PWs)   bands (ev):

   -58.3704 -58.3632 -58.3335 -58.3304 -57.9063 -57.9061 -34.6619 -34.6576
   -34.6269 -34.6244 -34.5677 -34.5597 -34.5420 -34.5361 -34.4554 -34.4458
   -34.4407 -34.4363 -34.2959 -34.2958 -34.1703 -34.1703 -33.9474 -33.9473
   -19.3589 -19.1850 -18.8649 -18.5709 -18.4036 -18.3955 -18.0178 -18.0075
   -17.8744 -17.8313 -17.4323 -17.4301  -6.8906  -6.7460  -6.4555  -6.4485
    -5.9046  -5.8145  -5.7492  -5.4340  -5.2363  -5.2303  -5.1511  -5.1298
    -4.8861  -4.7718  -4.7706  -4.5337  -4.3872  -4.2378  -4.0659  -3.7079
    -3.6518  -3.4559  -3.3338  -3.2748  -3.1403  -3.1323  -2.9836  -2.9372
    -2.7683  -2.7652  -2.6485  -2.5947  -2.5157  -2.3634  -2.0500  -1.8056
     0.6989   0.7849   0.9951   1.0582   1.1891   1.2205   1.2931   1.3994
     1.5403   1.6168   1.7397   2.1710   2.2511   2.2637

          k = 0.1600 0.1731 0.0000 ( 76282 PWs)   bands (ev):

   -58.3653 -58.3586 -58.3287 -58.3255 -57.9012 -57.9010 -34.6500 -34.6457
   -34.6161 -34.6129 -34.5669 -34.5576 -34.5384 -34.5327 -34.5059 -34.4997
   -34.4939 -34.4899 -34.2909 -34.2908 -34.1619 -34.1618 -34.0050 -34.0050
   -19.2408 -19.0754 -18.7694 -18.4849 -18.3185 -18.3141 -18.0583 -18.0470
   -17.9221 -17.8818 -17.4635 -17.4616  -6.7301  -6.5972  -6.3118  -6.3044
    -5.8564  -5.7759  -5.7055  -5.5685  -5.4616  -5.3948  -5.2750  -5.1042
    -4.7864  -4.7607  -4.5321  -4.3974  -4.3218  -4.1252  -3.9699  -3.8084
    -3.7870  -3.6977  -3.5381  -3.2815  -3.2780  -3.1965  -3.1782  -3.0256
    -2.9940  -2.9270  -2.6531  -2.5422  -2.5267  -2.3267  -2.0797  -1.8384
     0.7798   0.8954   1.0276   1.1361   1.1801   1.2610   1.3203   1.4183
     1.6072   1.6093   1.8107   1.8567   1.9169   2.3468

          k = 0.1600 0.3463 0.0000 ( 76223 PWs)   bands (ev):

   -58.3525 -58.3468 -58.3164 -58.3132 -57.8883 -57.8881 -34.6591 -34.6493
   -34.6459 -34.6398 -34.6116 -34.6058 -34.5756 -34.5722 -34.5425 -34.5383
   -34.5269 -34.5224 -34.2820 -34.2819 -34.1763 -34.1762 -34.1101 -34.1100
   -18.9315 -18.7949 -18.5508 -18.3194 -18.1512 -18.1431 -18.1144 -18.0979
   -18.0324 -17.9954 -17.5281 -17.5271  -6.3227  -6.2230  -6.0060  -5.9653
    -5.7883  -5.7768  -5.6590  -5.6385  -5.6118  -5.5434  -5.1714  -5.0668
    -4.8776  -4.7028  -4.6045  -4.5564  -4.3883  -4.3652  -4.1242  -4.0999
    -4.0804  -3.7981  -3.7690  -3.5160  -3.5104  -3.2527  -3.1960  -3.0543
    -2.9436  -2.8571  -2.7618  -2.6212  -2.6040  -2.3265  -2.1424  -2.0000
     0.8061   1.0030   1.0229   1.1211   1.1970   1.3706   1.4319   1.4912
     1.6889   1.7283   1.8668   1.8718   2.0727   2.1467

          k = 0.1600 0.5194 0.0000 ( 76310 PWs)   bands (ev):

   -58.3377 -58.3335 -58.3024 -58.2992 -57.8735 -57.8733 -34.8019 -34.7954
   -34.7922 -34.7897 -34.5791 -34.5739 -34.5428 -34.5416 -34.5313 -34.5263
   -34.5177 -34.5144 -34.3344 -34.3342 -34.2597 -34.2594 -34.0947 -34.0946
   -18.5610 -18.4967 -18.4393 -18.3546 -18.1880 -18.1624 -18.0617 -18.0106
   -17.9391 -17.9336 -17.5277 -17.5275  -5.9829  -5.9296  -5.8575  -5.8550
    -5.7622  -5.7047  -5.6419  -5.6274  -5.5867  -5.4974  -5.4662  -5.3522
    -5.1159  -4.8703  -4.6816  -4.6291  -4.4781  -4.2825  -4.1995  -4.0692
    -4.0680  -3.8938  -3.6811  -3.5826  -3.5580  -3.2089  -3.1538  -3.0879
    -3.0307  -2.9599  -2.8266  -2.7012  -2.6424  -2.3759  -2.3128  -2.2970
     0.7177   0.9306   0.9656   1.3296   1.4420   1.4645   1.5724   1.6239
     1.7873   1.8083   1.8766   1.9631   2.1268   2.2134

          k = 0.1600 0.6925 0.0000 ( 76348 PWs)   bands (ev):

   -58.3277 -58.3251 -58.2932 -58.2901 -57.8638 -57.8636 -34.8954 -34.8929
   -34.8897 -34.8870 -34.5535 -34.5503 -34.5282 -34.5259 -34.5202 -34.5165
   -34.5118 -34.5087 -34.4266 -34.4262 -34.2569 -34.2565 -34.0758 -34.0758
   -18.4908 -18.4807 -18.3571 -18.3556 -18.1591 -18.1080 -17.9913 -17.9877
   -17.8757 -17.8516 -17.4434 -17.4431  -6.2773  -6.2323  -6.0290  -6.0103
    -5.7358  -5.7087  -5.5503  -5.5269  -5.5117  -5.4372  -5.3471  -5.2953
    -5.0715  -4.8227  -4.5492  -4.5054  -4.3029  -4.2256  -4.1833  -4.0776
    -3.9749  -3.9718  -3.7553  -3.5410  -3.3654  -3.2183  -3.2107  -3.1387
    -2.9969  -2.9872  -2.9002  -2.7714  -2.7448  -2.6780  -2.4721  -2.3784
     0.7401   0.9237   1.1487   1.1791   1.4972   1.5710   1.6978   1.7423
     1.7895   1.8281   2.0392   2.0484   2.2082   2.2132

          k = 0.3200 0.0000 0.0000 ( 76372 PWs)   bands (ev):

   -58.3689 -58.3644 -58.3336 -58.3304 -57.9063 -57.9061 -34.6643 -34.6628
   -34.6276 -34.6256 -34.5652 -34.5604 -34.5394 -34.5362 -34.4518 -34.4452
   -34.4420 -34.4390 -34.2954 -34.2953 -34.1701 -34.1701 -33.9475 -33.9474
   -19.1639 -19.0743 -18.8752 -18.6778 -18.4803 -18.4725 -18.0314 -18.0162
   -17.8879 -17.8495 -17.4402 -17.4399  -6.7914  -6.7607  -6.5372  -6.4191
    -5.8275  -5.8104  -5.3717  -5.2503  -5.2431  -5.1628  -5.1390  -5.0959
    -4.7773  -4.7761  -4.7101  -4.4416  -4.4081  -4.3507  -3.9599  -3.8213
    -3.6836  -3.4128  -3.2980  -3.2746  -3.2332  -3.2228  -3.0165  -3.0077
    -2.9204  -2.9006  -2.7096  -2.7024  -2.6711  -2.6284  -2.3166  -2.0994
     0.7539   0.7701   0.9809   1.0668   1.1905   1.3314   1.4688   1.5318
     1.7174   1.8235   1.9825   2.1220   2.1312   2.1645

          k = 0.3200 0.1731 0.0000 ( 76383 PWs)   bands (ev):

   -58.3640 -58.3597 -58.3287 -58.3256 -57.9012 -57.9010 -34.6519 -34.6509
   -34.6162 -34.6144 -34.5643 -34.5586 -34.5363 -34.5329 -34.5018 -34.4992
   -34.4958 -34.4918 -34.2906 -34.2904 -34.1617 -34.1617 -34.0050 -34.0049
   -19.0556 -18.9696 -18.7783 -18.5888 -18.3932 -18.3855 -18.0695 -18.0543
   -17.9352 -17.8973 -17.4707 -17.4703  -6.6430  -6.6143  -6.3888  -6.2738
    -5.7692  -5.7563  -5.6024  -5.5610  -5.4840  -5.4337  -5.0497  -4.8481
    -4.7673  -4.7301  -4.4356  -4.3866  -4.2834  -4.1524  -3.9848  -3.8839
    -3.7049  -3.6385  -3.5280  -3.3414  -3.3016  -3.2179  -3.1704  -3.1681
    -3.0568  -2.9856  -2.8367  -2.7863  -2.5721  -2.5168  -2.2953  -2.0787
     0.8124   0.8273   1.0123   1.1445   1.3078   1.3325   1.4408   1.4885
     1.7351   1.7675   1.8613   1.9108   2.0367   2.3045

          k = 0.3200 0.3463 0.0000 ( 76318 PWs)   bands (ev):

   -58.3515 -58.3477 -58.3164 -58.3133 -57.8883 -57.8881 -34.6560 -34.6496
   -34.6470 -34.6419 -34.6162 -34.6068 -34.5760 -34.5736 -34.5416 -34.5377
   -34.5244 -34.5223 -34.2819 -34.2818 -34.1763 -34.1762 -34.1099 -34.1098
   -18.7806 -18.7038 -18.5453 -18.3935 -18.2351 -18.2275 -18.1079 -18.0982
   -18.0374 -18.0063 -17.5329 -17.5325  -6.2679  -6.2574  -6.0614  -5.9431
    -5.8604  -5.8109  -5.7279  -5.6515  -5.6332  -5.6141  -4.9846  -4.9482
    -4.7427  -4.6441  -4.5592  -4.5223  -4.4164  -4.3086  -4.0886  -4.0225
    -3.9140  -3.8062  -3.7639  -3.5773  -3.4571  -3.2603  -3.2514  -3.1220
    -2.9608  -2.9496  -2.7836  -2.6262  -2.5599  -2.5113  -2.3066  -2.1811
     0.8914   0.9632   1.0410   1.2227   1.2507   1.3380   1.4488   1.5348
     1.7420   1.7643   1.9723   1.9868   2.0723   2.0971

          k = 0.3200 0.5194 0.0000 ( 76259 PWs)   bands (ev):

   -58.3371 -58.3340 -58.3024 -58.2992 -57.8735 -57.8733 -34.8004 -34.7958
   -34.7927 -34.7902 -34.5805 -34.5769 -34.5435 -34.5421 -34.5295 -34.5257
   -34.5168 -34.5149 -34.3344 -34.3343 -34.2595 -34.2592 -34.0947 -34.0946
   -18.5044 -18.4622 -18.4045 -18.3157 -18.2449 -18.1595 -18.1180 -18.0310
   -17.9518 -17.9505 -17.5276 -17.5274  -6.0426  -6.0123  -5.9690  -5.8713
    -5.8271  -5.8157  -5.6916  -5.6772  -5.6400  -5.5030  -5.4388  -5.4209
    -5.0468  -4.7247  -4.6559  -4.6032  -4.3710  -4.2145  -4.1037  -4.0069
    -3.9911  -3.9038  -3.7058  -3.5025  -3.4321  -3.3237  -3.1822  -3.0686
    -2.9472  -2.8899  -2.7428  -2.6551  -2.5625  -2.4211  -2.3718  -2.3477
     0.8045   1.0145   1.0757   1.3879   1.4106   1.4835   1.5290   1.6176
     1.6805   1.7650   1.9305   1.9847   2.0886   2.1020

          k = 0.3200 0.6925 0.0000 ( 76319 PWs)   bands (ev):

   -58.3276 -58.3252 -58.2932 -58.2901 -57.8638 -57.8636 -34.8951 -34.8932
   -34.8897 -34.8869 -34.5540 -34.5515 -34.5279 -34.5257 -34.5184 -34.5158
   -34.5138 -34.5106 -34.4262 -34.4257 -34.2570 -34.2566 -34.0760 -34.0759
   -18.4964 -18.4915 -18.3742 -18.3489 -18.1146 -18.0705 -18.0277 -17.9835
   -17.8819 -17.8618 -17.4377 -17.4375  -6.2759  -6.2670  -6.1089  -6.0969
    -5.9135  -5.8737  -5.6453  -5.5442  -5.4995  -5.4363  -5.3606  -5.3589
    -5.0665  -4.8753  -4.6226  -4.5068  -4.2432  -4.1936  -4.1636  -4.0457
    -3.9978  -3.9073  -3.5340  -3.4427  -3.2759  -3.1978  -3.0963  -2.9874
    -2.9717  -2.8608  -2.7953  -2.7610  -2.5956  -2.5712  -2.4550  -2.3745
     0.7936   0.9440   1.1512   1.2776   1.5107   1.6192   1.7296   1.7396
     1.7693   1.8029   2.0052   2.0084   2.1017   2.1343

          k =-0.4799 0.0000 0.0000 ( 76438 PWs)   bands (ev):

   -58.3678 -58.3655 -58.3336 -58.3304 -57.9063 -57.9061 -34.6655 -34.6652
   -34.6281 -34.6262 -34.5626 -34.5623 -34.5377 -34.5365 -34.4481 -34.4459
   -34.4435 -34.4403 -34.2952 -34.2950 -34.1700 -34.1700 -33.9475 -33.9474
   -18.9712 -18.9669 -18.8707 -18.8703 -18.5352 -18.5347 -18.0158 -18.0128
   -17.8810 -17.8796 -17.4449 -17.4447  -6.7630  -6.7595  -6.4944  -6.4921
    -5.8184  -5.8173  -5.2568  -5.2509  -5.1575  -5.1544  -4.7789  -4.7784
    -4.7666  -4.7639  -4.6221  -4.6205  -4.3677  -4.3647  -4.1951  -4.1933
    -3.5409  -3.5379  -3.3223  -3.3185  -3.2363  -3.2322  -3.0434  -3.0373
    -2.9341  -2.9338  -2.7450  -2.7442  -2.6019  -2.5999  -2.4356  -2.4332
     0.7659   0.7670   1.0162   1.0171   1.3095   1.3106   1.5175   1.5198
     2.0369   2.0371   2.0438   2.0463   2.1716   2.1742

          k =-0.4799 0.1731 0.0000 ( 76384 PWs)   bands (ev):

   -58.3630 -58.3606 -58.3288 -58.3256 -57.9012 -57.9010 -34.6532 -34.6529
   -34.6167 -34.6149 -34.5613 -34.5610 -34.5348 -34.5334 -34.4991 -34.4987
   -34.4958 -34.4947 -34.2904 -34.2902 -34.1617 -34.1617 -34.0050 -34.0049
   -18.8727 -18.8686 -18.7730 -18.7725 -18.4478 -18.4473 -18.0509 -18.0479
   -17.9275 -17.9262 -17.4748 -17.4746  -6.6176  -6.6142  -6.3464  -6.3441
    -5.7576  -5.7568  -5.5522  -5.5481  -5.4590  -5.4571  -4.7841  -4.7829
    -4.6936  -4.6905  -4.3785  -4.3779  -4.1634  -4.1601  -4.0423  -4.0404
    -3.6486  -3.6451  -3.4882  -3.4873  -3.3563  -3.3549  -3.2024  -3.2008
    -3.0839  -3.0812  -2.8788  -2.8738  -2.5033  -2.5014  -2.3255  -2.3241
     0.8073   0.8083   1.0612   1.0621   1.3843   1.3853   1.4957   1.4963
     1.8015   1.8018   2.1160   2.1181   2.1604   2.1621

          k =-0.4799 0.3463 0.0000 ( 76352 PWs)   bands (ev):

   -58.3507 -58.3484 -58.3165 -58.3133 -57.8883 -57.8881 -34.6529 -34.6523
   -34.6455 -34.6446 -34.6129 -34.6126 -34.5764 -34.5740 -34.5396 -34.5389
   -34.5233 -34.5222 -34.2819 -34.2817 -34.1763 -34.1762 -34.1097 -34.1097
   -18.6265 -18.6228 -18.5396 -18.5381 -18.2889 -18.2880 -18.0876 -18.0852
   -18.0308 -18.0300 -17.5354 -17.5351  -6.2566  -6.2536  -6.0062  -6.0040
    -5.8627  -5.8606  -5.7390  -5.7372  -5.6111  -5.6101  -5.0079  -5.0046
    -4.5877  -4.5870  -4.5145  -4.5125  -4.1878  -4.1869  -4.0919  -4.0887
    -3.8126  -3.8120  -3.6581  -3.6551  -3.4507  -3.4494  -3.2923  -3.2899
    -2.9456  -2.9424  -2.6955  -2.6949  -2.5301  -2.5266  -2.3614  -2.3610
     0.9601   0.9622   1.1439   1.1452   1.2339   1.2352   1.5886   1.5888
     1.8602   1.8628   1.9951   1.9979   2.0356   2.0393

          k =-0.4799 0.5194 0.0000 ( 76318 PWs)   bands (ev):

   -58.3367 -58.3344 -58.3024 -58.2992 -57.8735 -57.8733 -34.7987 -34.7977
   -34.7926 -34.7901 -34.5802 -34.5794 -34.5436 -34.5422 -34.5280 -34.5269
   -34.5162 -34.5148 -34.3345 -34.3343 -34.2594 -34.2591 -34.0947 -34.0947
   -18.4540 -18.4500 -18.3595 -18.3581 -18.2191 -18.2178 -18.0807 -18.0797
   -17.9611 -17.9605 -17.5275 -17.5273  -6.0474  -6.0468  -5.9744  -5.9741
    -5.8499  -5.8485  -5.7294  -5.7277  -5.5894  -5.5878  -5.4148  -5.4133
    -4.8376  -4.8359  -4.6733  -4.6724  -4.2055  -4.2036  -4.0645  -4.0644
    -3.8461  -3.8436  -3.6346  -3.6328  -3.3928  -3.3917  -3.1070  -3.1060
    -2.8266  -2.8249  -2.6064  -2.6036  -2.5607  -2.5604  -2.4284  -2.4280
     1.0191   1.0200   1.2160   1.2173   1.3154   1.3175   1.6300   1.6314
     1.8036   1.8054   1.9279   1.9302   2.0422   2.0452

          k =-0.4799 0.6925 0.0000 ( 76294 PWs)   bands (ev):

   -58.3276 -58.3252 -58.2932 -58.2901 -57.8638 -57.8636 -34.8948 -34.8939
   -34.8894 -34.8868 -34.5541 -34.5524 -34.5270 -34.5249 -34.5184 -34.5164
   -34.5145 -34.5114 -34.4259 -34.4255 -34.2570 -34.2567 -34.0761 -34.0760
   -18.4993 -18.4948 -18.3655 -18.3653 -18.0794 -18.0770 -18.0051 -18.0042
   -17.8786 -17.8782 -17.4349 -17.4348  -6.2698  -6.2693  -6.1641  -6.1635
    -5.9714  -5.9702  -5.6438  -5.6435  -5.4559  -5.4556  -5.3611  -5.3608
    -4.8834  -4.8824  -4.6762  -4.6749  -4.2002  -4.1984  -4.0593  -4.0573
    -3.9716  -3.9705  -3.4856  -3.4850  -3.2225  -3.2204  -2.9961  -2.9952
    -2.8398  -2.8396  -2.6737  -2.6731  -2.5107  -2.5095  -2.4261  -2.4243
     0.8529   0.8546   1.2013   1.2036   1.6558   1.6569   1.7257   1.7280
     1.8058   1.8068   1.9788   1.9807   2.0798   2.0803

     the Fermi energy is    -0.5531 ev

!    total energy              =   -1077.91132468 Ry
     estimated scf accuracy    <          4.1E-09 Ry
     smearing contrib. (-TS)   =      -0.00000000 Ry
     internal energy E=F+TS    =   -1077.91132468 Ry

     The total energy is F=E-TS. E is the sum of the following terms:
     one-electron contribution =  -24621.97268201 Ry
     hartree contribution      =   12323.00499936 Ry
     xc contribution           =    -170.01818034 Ry
     ewald contribution        =   11391.07453832 Ry

     convergence has been achieved in   7 iterations

     Forces acting on atoms (cartesian axes, Ry/au):

     atom    1 type  1   force =     0.00072302    0.00000000    0.00004908
     atom    2 type  1   force =    -0.00013784    0.00000000    0.00041218
     atom    3 type  1   force =     0.00099584    0.00000000    0.00161708
     atom    4 type  1   force =     0.00087772    0.00000000   -0.00131207
     atom    5 type  1   force =    -0.00016329    0.00000000   -0.00041747
     atom    6 type  1   force =     0.00097217    0.00000000   -0.00028715
     atom    7 type  2   force =    -0.00086906    0.00000000   -0.00132931
     atom    8 type  2   force =    -0.00002373    0.00000000   -0.00132864
     atom    9 type  2   force =     0.00086787    0.00000000    0.00168798
     atom   10 type  2   force =    -0.00165218    0.00000000   -0.00039583
     atom   11 type  2   force =     0.00061861    0.00000000    0.00105543
     atom   12 type  2   force =    -0.00068748    0.00000000   -0.00101181
     atom   13 type  2   force =    -0.00163695    0.00000000    0.00057821
     atom   14 type  2   force =     0.00078116    0.00000000   -0.00173565
     atom   15 type  2   force =    -0.00057141    0.00000000    0.00144914
     atom   16 type  2   force =     0.00059004    0.00000000   -0.00088071
     atom   17 type  2   force =    -0.00091649    0.00000000    0.00081403
     atom   18 type  2   force =     0.00023198    0.00000000    0.00103552

     Total force =     0.005884     Total SCF correction =     0.000214


     Computing stress (Cartesian axis) and pressure

          total   stress  (Ry/bohr**3)                   (kbar)     P=       -0.99
  -0.00001414   0.00000000   0.00000040           -2.08        0.00        0.06
   0.00000000  -0.00000780   0.00000000            0.00       -1.15        0.00
   0.00000040   0.00000000   0.00000178            0.06        0.00        0.26

     Energy error            =      9.5E-05 Ry
     Gradient error          =      1.7E-03 Ry/Bohr
     Cell gradient error     =      2.1E+00 kbar

     number of scf cycles    =  15
     number of bfgs steps    =  14

     enthalpy           old  =   -1077.9112301639 Ry
     enthalpy           new  =   -1077.9113246787 Ry

     CASE: enthalpy          _new < enthalpy          _old

     new trust radius        =       0.0133559373 bohr
     new conv_thr            =       0.0000000100 Ry

     new unit-cell volume =   3570.72760 a.u.^3 (   529.12724 Ang^3 )
     density =      1.50382 g/cm^3

CELL_PARAMETERS (angstrom)
   4.784054421   0.000000000   0.000000000
   0.000000000   2.951123421   0.000000000
   0.000000000   0.000000000  37.478019714

ATOMIC_POSITIONS (angstrom)
Ti               0.1784883309        0.0000000000       14.6312966020
Ti               2.5344860762        1.4755616233       16.8405657056
Ti               0.1257476783        0.0000000000       19.2145588680
Ti               2.5171685935        1.4755616233       21.4578224130
Ti               0.1409126521        0.0000000000       23.8303755603
Ti               2.5698620963        1.4755616233       26.0417404906
O                0.6349496888        1.4755617110       13.6258997249
O                1.4547619882        0.0000000000       15.9596050629
O                3.3038819748        0.0000000000       17.7666436464
O                0.8989472965        1.4755617110       18.2826946296
O                3.7452857556        1.4755617110       15.4322043142
O                1.4792240619        0.0000000000       20.5673328396
O                3.2902769974        0.0000000000       22.3894416142
O                0.9075797520        1.4755617110       22.9020536136
O                3.8702754431        1.4755617110       20.1050900518
O                1.3568863172        0.0000000000       25.2345639170
O                3.0240951705        0.0000000000       27.0483820317
O                3.8475757182        1.4755617110       24.7145771585



     Writing config-only to output data dir ./Out/pwscf.save/
     NEW-OLD atomic charge density approx. for the potential

     negative rho (up, down):  2.747E-05 0.000E+00

     total cpu time spent up to now is      617.0 secs

     Self-consistent Calculation

     iteration #  1     ecut=   120.00 Ry     beta= 0.40
     Davidson diagonalization with overlap
     ethr =  1.00E-06,  avg # of iterations =  4.0

     Threshold (ethr) on eigenvalues was too large:
     Diagonalizing with lowered threshold

     Davidson diagonalization with overlap
     ethr =  4.78E-08,  avg # of iterations =  4.5

     negative rho (up, down):  1.599E-05 0.000E+00

     total cpu time spent up to now is      625.6 secs

     total energy              =   -1077.91141598 Ry
     estimated scf accuracy    <       0.00008309 Ry

     iteration #  2     ecut=   120.00 Ry     beta= 0.40
     Davidson diagonalization with overlap
     ethr =  5.77E-08,  avg # of iterations =  2.5

     negative rho (up, down):  1.056E-05 0.000E+00

     total cpu time spent up to now is      629.1 secs

     total energy              =   -1077.91142351 Ry
     estimated scf accuracy    <       0.00002495 Ry

     iteration #  3     ecut=   120.00 Ry     beta= 0.40
     Davidson diagonalization with overlap
     ethr =  1.73E-08,  avg # of iterations =  2.5

     negative rho (up, down):  4.196E-06 0.000E+00

     total cpu time spent up to now is      632.4 secs

     total energy              =   -1077.91142689 Ry
     estimated scf accuracy    <       0.00000578 Ry

     iteration #  4     ecut=   120.00 Ry     beta= 0.40
     Davidson diagonalization with overlap
     ethr =  4.01E-09,  avg # of iterations =  2.1

     negative rho (up, down):  2.427E-06 0.000E+00

     total cpu time spent up to now is      635.8 secs

     total energy              =   -1077.91142766 Ry
     estimated scf accuracy    <       0.00000095 Ry

     iteration #  5     ecut=   120.00 Ry     beta= 0.40
     Davidson diagonalization with overlap
     ethr =  6.58E-10,  avg # of iterations =  5.0

     negative rho (up, down):  1.178E-06 0.000E+00

     total cpu time spent up to now is      639.7 secs

     total energy              =   -1077.91142788 Ry
     estimated scf accuracy    <       0.00000037 Ry

     iteration #  6     ecut=   120.00 Ry     beta= 0.40
     Davidson diagonalization with overlap
     ethr =  2.56E-10,  avg # of iterations =  4.0

     negative rho (up, down):  2.665E-07 0.000E+00

     total cpu time spent up to now is      643.4 secs

     total energy              =   -1077.91142795 Ry
     estimated scf accuracy    <       0.00000009 Ry

     iteration #  7     ecut=   120.00 Ry     beta= 0.40
     Davidson diagonalization with overlap
     ethr =  5.96E-11,  avg # of iterations =  4.2

     total cpu time spent up to now is      647.0 secs

     End of self-consistent calculation

          k = 0.0000 0.0000 0.0000 ( 76179 PWs)   bands (ev):

   -58.3627 -58.3546 -58.3404 -58.3372 -57.9067 -57.9064 -34.6556 -34.6514
   -34.6280 -34.6267 -34.5666 -34.5600 -34.5433 -34.5334 -34.4542 -34.4503
   -34.4429 -34.4300 -34.2967 -34.2962 -34.1711 -34.1706 -33.9479 -33.9474
   -19.4309 -19.2289 -18.8641 -18.5285 -18.3838 -18.3811 -18.0155 -17.9837
   -17.8417 -17.8321 -17.4266 -17.4216  -6.9651  -6.6610  -6.5434  -6.4108
    -6.0151  -5.8253  -5.7942  -5.5412  -5.2331  -5.2263  -5.1398  -5.1213
    -4.9096  -4.7699  -4.7691  -4.5734  -4.3676  -4.2494  -4.1683  -3.7322
    -3.6079  -3.5041  -3.3567  -3.3221  -3.1059  -3.0985  -2.9191  -2.9150
    -2.8540  -2.6785  -2.5526  -2.3981  -2.3722  -2.1855  -1.9128  -1.6851
     0.6363   0.8298   0.9658   1.0438   1.1581   1.2083   1.2790   1.2797
     1.4416   1.5780   1.5975   2.1784   2.3014   2.3334

          k = 0.0000 0.1731 0.0000 ( 76281 PWs)   bands (ev):

   -58.3576 -58.3500 -58.3356 -58.3324 -57.9016 -57.9013 -34.6441 -34.6393
   -34.6172 -34.6148 -34.5656 -34.5573 -34.5401 -34.5308 -34.5083 -34.5039
   -34.4919 -34.4838 -34.2917 -34.2912 -34.1626 -34.1621 -34.0055 -34.0050
   -19.3093 -19.1175 -18.7697 -18.4429 -18.3075 -18.3004 -18.0563 -18.0195
   -17.8884 -17.8845 -17.4580 -17.4540  -6.7963  -6.5106  -6.4031  -6.2659
    -5.9311  -5.7752  -5.7408  -5.5694  -5.4262  -5.4153  -5.3390  -5.1632
    -4.8076  -4.7711  -4.5623  -4.4312  -4.2729  -4.0716  -4.0288  -3.8784
    -3.8454  -3.6436  -3.4770  -3.3444  -3.3374  -3.1886  -3.1787  -2.9615
    -2.9605  -2.8996  -2.6383  -2.4115  -2.3945  -2.1652  -1.9533  -1.7226
     0.7627   0.9383   1.0095   1.0543   1.1760   1.2271   1.3017   1.3459
     1.5229   1.6133   1.7331   1.8494   1.8979   2.3508

          k = 0.0000 0.3462 0.0000 ( 76251 PWs)   bands (ev):

   -58.3447 -58.3382 -58.3235 -58.3202 -57.8887 -57.8884 -34.6562 -34.6536
   -34.6472 -34.6311 -34.6032 -34.6027 -34.5806 -34.5745 -34.5414 -34.5397
   -34.5271 -34.5190 -34.2826 -34.2821 -34.1765 -34.1760 -34.1111 -34.1104
   -18.9877 -18.8318 -18.5590 -18.2953 -18.1558 -18.1338 -18.0824 -18.0788
   -17.9993 -17.9982 -17.5235 -17.5219  -6.3536  -6.1532  -6.0472  -5.9491
    -5.7715  -5.6801  -5.6531  -5.6067  -5.5752  -5.5636  -5.3570  -5.2271
    -4.8008  -4.6768  -4.5741  -4.5513  -4.4907  -4.2760  -4.1842  -4.1794
    -4.1197  -3.8148  -3.7921  -3.4845  -3.4535  -3.3095  -3.2472  -3.0080
    -2.8807  -2.8416  -2.7163  -2.6317  -2.6116  -2.2356  -2.0688  -1.9161
     0.8281   0.9874   1.0426   1.0607   1.1206   1.3717   1.3940   1.5095
     1.6880   1.7531   1.8650   1.8769   1.9639   2.1583

          k = 0.0000 0.5193 0.0000 ( 76270 PWs)   bands (ev):

   -58.3297 -58.3251 -58.3096 -58.3063 -57.8740 -57.8737 -34.8004 -34.7974
   -34.7935 -34.7829 -34.5720 -34.5672 -34.5455 -34.5436 -34.5315 -34.5295
   -34.5184 -34.5104 -34.3345 -34.3338 -34.2601 -34.2598 -34.0955 -34.0948
   -18.5843 -18.5134 -18.4575 -18.3769 -18.2005 -18.1072 -18.0274 -18.0185
   -17.9365 -17.9216 -17.5259 -17.5258  -5.9367  -5.8756  -5.8622  -5.8039
    -5.6935  -5.6682  -5.6641  -5.6233  -5.5197  -5.4616  -5.4566  -5.2764
    -5.0839  -5.0665  -4.7692  -4.7152  -4.5538  -4.2525  -4.1676  -4.1310
    -4.0466  -3.8589  -3.7466  -3.5993  -3.5541  -3.2689  -3.1660  -3.0936
    -3.0022  -2.9093  -2.9017  -2.7140  -2.6726  -2.3671  -2.3081  -2.2934
     0.7008   0.9064   0.9631   1.2607   1.3989   1.4274   1.6047   1.6062
     1.7581   1.8589   1.9444   2.0402   2.2026   2.2121

          k = 0.0000 0.6923 0.0000 ( 76376 PWs)   bands (ev):

   -58.3196 -58.3168 -58.3005 -58.2972 -57.8643 -57.8640 -34.8965 -34.8934
   -34.8863 -34.8826 -34.5463 -34.5427 -34.5322 -34.5288 -34.5192 -34.5160
   -34.5124 -34.5080 -34.4273 -34.4264 -34.2571 -34.2568 -34.0766 -34.0759
   -18.4941 -18.4728 -18.3722 -18.3177 -18.2270 -18.0675 -18.0251 -17.9647
   -17.8722 -17.8423 -17.4453 -17.4445  -6.2819  -6.1944  -6.0322  -5.9541
    -5.6604  -5.6528  -5.5631  -5.5084  -5.4028  -5.3984  -5.3157  -5.3039
    -4.8988  -4.8550  -4.5929  -4.4703  -4.3134  -4.2010  -4.1721  -4.1403
    -4.0945  -4.0332  -3.8779  -3.6231  -3.4946  -3.2989  -3.2267  -3.1085
    -3.0120  -2.9672  -2.9471  -2.8219  -2.7738  -2.6939  -2.4733  -2.3780
     0.6894   0.9127   1.0704   1.2234   1.3935   1.6556   1.6750   1.7374
     1.7918   1.8421   2.0617   2.0647   2.2796   2.3292

          k = 0.1602 0.0000 0.0000 ( 76264 PWs)   bands (ev):

   -58.3621 -58.3550 -58.3405 -58.3372 -57.9067 -57.9064 -34.6571 -34.6540
   -34.6285 -34.6271 -34.5654 -34.5605 -34.5419 -34.5331 -34.4533 -34.4498
   -34.4429 -34.4313 -34.2964 -34.2960 -34.1711 -34.1705 -33.9479 -33.9474
   -19.3589 -19.1861 -18.8656 -18.5673 -18.4047 -18.3955 -18.0212 -18.0082
   -17.8677 -17.8263 -17.4292 -17.4269  -6.8912  -6.7474  -6.4536  -6.4469
    -5.9071  -5.8164  -5.7519  -5.4358  -5.2384  -5.2337  -5.1464  -5.1251
    -4.8861  -4.7737  -4.7722  -4.5352  -4.3893  -4.2318  -4.0641  -3.7040
    -3.6475  -3.4546  -3.3365  -3.2766  -3.1362  -3.1267  -2.9861  -2.9384
    -2.7688  -2.7590  -2.6377  -2.5879  -2.5074  -2.3564  -2.0446  -1.7997
     0.6971   0.7773   0.9923   1.0596   1.1982   1.2156   1.2882   1.3948
     1.5369   1.6170   1.7456   2.1708   2.2474   2.2606

          k = 0.1602 0.1731 0.0000 ( 76282 PWs)   bands (ev):

   -58.3571 -58.3503 -58.3357 -58.3324 -57.9016 -57.9013 -34.6452 -34.6422
   -34.6171 -34.6156 -34.5643 -34.5580 -34.5391 -34.5305 -34.5073 -34.5038
   -34.4921 -34.4843 -34.2915 -34.2910 -34.1626 -34.1620 -34.0055 -34.0050
   -19.2409 -19.0766 -18.7704 -18.4816 -18.3196 -18.3141 -18.0615 -18.0475
   -17.9157 -17.8768 -17.4605 -17.4586  -6.7310  -6.5988  -6.3105  -6.3030
    -5.8586  -5.7784  -5.7078  -5.5680  -5.4603  -5.3951  -5.2756  -5.1033
    -4.7877  -4.7615  -4.5317  -4.3981  -4.3226  -4.1209  -3.9693  -3.8071
    -3.7819  -3.6966  -3.5381  -3.2829  -3.2793  -3.1940  -3.1739  -3.0235
    -2.9939  -2.9214  -2.6466  -2.5323  -2.5181  -2.3207  -2.0760  -1.8335
     0.7818   0.8897   1.0263   1.1374   1.1766   1.2620   1.3218   1.4159
     1.6055   1.6079   1.8096   1.8537   1.9172   2.3513

          k = 0.1602 0.3462 0.0000 ( 76223 PWs)   bands (ev):

   -58.3443 -58.3386 -58.3235 -58.3203 -57.8887 -57.8884 -34.6559 -34.6525
   -34.6476 -34.6326 -34.6068 -34.6021 -34.5797 -34.5759 -34.5420 -34.5394
   -34.5250 -34.5188 -34.2825 -34.2821 -34.1765 -34.1760 -34.1109 -34.1103
   -18.9319 -18.7963 -18.5531 -18.3199 -18.1499 -18.1433 -18.1143 -18.0983
   -18.0269 -17.9906 -17.5255 -17.5247  -6.3244  -6.2251  -6.0068  -5.9640
    -5.7896  -5.7775  -5.6605  -5.6393  -5.6103  -5.5427  -5.1729  -5.0651
    -4.8795  -4.7027  -4.6057  -4.5575  -4.3887  -4.3617  -4.1214  -4.0996
    -4.0769  -3.7985  -3.7696  -3.5133  -3.5050  -3.2530  -3.1929  -3.0543
    -2.9429  -2.8515  -2.7530  -2.6155  -2.5977  -2.3217  -2.1402  -1.9954
     0.8128   1.0005   1.0229   1.1174   1.1921   1.3745   1.4344   1.4952
     1.6877   1.7264   1.8632   1.8669   2.0728   2.1534

          k = 0.1602 0.5193 0.0000 ( 76310 PWs)   bands (ev):

   -58.3294 -58.3253 -58.3096 -58.3063 -57.8740 -57.8737 -34.8003 -34.7972
   -34.7928 -34.7838 -34.5728 -34.5687 -34.5462 -34.5431 -34.5326 -34.5290
   -34.5163 -34.5109 -34.3345 -34.3338 -34.2600 -34.2598 -34.0955 -34.0949
   -18.5622 -18.4979 -18.4426 -18.3580 -18.1849 -18.1587 -18.0592 -18.0086
   -17.9385 -17.9308 -17.5259 -17.5258  -5.9818  -5.9298  -5.8571  -5.8552
    -5.7644  -5.7035  -5.6459  -5.6310  -5.5865  -5.4989  -5.4703  -5.3498
    -5.1139  -4.8660  -4.6772  -4.6285  -4.4790  -4.2838  -4.2004  -4.0696
    -4.0666  -3.8949  -3.6770  -3.5772  -3.5541  -3.2081  -3.1551  -3.0856
    -3.0293  -2.9573  -2.8206  -2.6985  -2.6374  -2.3725  -2.3094  -2.2905
     0.7249   0.9282   0.9633   1.3302   1.4400   1.4605   1.5768   1.6255
     1.7868   1.8097   1.8781   1.9588   2.1273   2.2178

          k = 0.1602 0.6923 0.0000 ( 76348 PWs)   bands (ev):

   -58.3195 -58.3169 -58.3005 -58.2972 -57.8643 -57.8640 -34.8964 -34.8933
   -34.8862 -34.8829 -34.5464 -34.5435 -34.5321 -34.5290 -34.5192 -34.5162
   -34.5119 -34.5086 -34.4271 -34.4262 -34.2571 -34.2569 -34.0767 -34.0760
   -18.4944 -18.4843 -18.3542 -18.3518 -18.1595 -18.1099 -17.9914 -17.9880
   -17.8719 -17.8468 -17.4423 -17.4416  -6.2767  -6.2324  -6.0280  -6.0090
    -5.7363  -5.7095  -5.5529  -5.5286  -5.5113  -5.4376  -5.3480  -5.2981
    -5.0724  -4.8228  -4.5476  -4.5050  -4.3004  -4.2251  -4.1805  -4.0747
    -3.9720  -3.9685  -3.7561  -3.5414  -3.3660  -3.2158  -3.2110  -3.1341
    -2.9952  -2.9864  -2.8988  -2.7718  -2.7394  -2.6750  -2.4649  -2.3709
     0.7440   0.9241   1.1465   1.1769   1.4966   1.5732   1.6983   1.7370
     1.7891   1.8338   2.0373   2.0456   2.2147   2.2176

          k = 0.3203 0.0000 0.0000 ( 76372 PWs)   bands (ev):

   -58.3606 -58.3561 -58.3407 -58.3374 -57.9068 -57.9064 -34.6600 -34.6588
   -34.6296 -34.6281 -34.5641 -34.5610 -34.5380 -34.5332 -34.4515 -34.4484
   -34.4423 -34.4348 -34.2959 -34.2955 -34.1709 -34.1703 -33.9480 -33.9475
   -19.1632 -19.0753 -18.8750 -18.6738 -18.4816 -18.4729 -18.0345 -18.0185
   -17.8825 -17.8439 -17.4372 -17.4362  -6.7932  -6.7625  -6.5346  -6.4171
    -5.8302  -5.8129  -5.3714  -5.2519  -5.2462  -5.1580  -5.1346  -5.0949
    -4.7793  -4.7778  -4.7082  -4.4415  -4.4089  -4.3470  -3.9559  -3.8142
    -3.6799  -3.4087  -3.2947  -3.2787  -3.2310  -3.2272  -3.0172  -3.0032
    -2.9178  -2.8941  -2.7087  -2.6991  -2.6693  -2.6231  -2.3106  -2.0954
     0.7518   0.7629   0.9767   1.0675   1.1931   1.3271   1.4669   1.5313
     1.7149   1.8198   1.9868   2.1202   2.1297   2.1637

          k = 0.3203 0.1731 0.0000 ( 76383 PWs)   bands (ev):

   -58.3557 -58.3513 -58.3358 -58.3326 -57.9017 -57.9013 -34.6477 -34.6468
   -34.6181 -34.6166 -34.5625 -34.5588 -34.5359 -34.5309 -34.5059 -34.5028
   -34.4920 -34.4862 -34.2911 -34.2907 -34.1625 -34.1619 -34.0055 -34.0049
   -19.0551 -18.9708 -18.7783 -18.5851 -18.3945 -18.3859 -18.0724 -18.0564
   -17.9300 -17.8918 -17.4678 -17.4669  -6.6450  -6.6164  -6.3866  -6.2722
    -5.7720  -5.7590  -5.6030  -5.5612  -5.4820  -5.4317  -5.0493  -4.8478
    -4.7683  -4.7301  -4.4346  -4.3856  -4.2826  -4.1504  -3.9847  -3.8764
    -3.7050  -3.6394  -3.5244  -3.3377  -3.2985  -3.2181  -3.1686  -3.1647
    -3.0583  -2.9801  -2.8336  -2.7797  -2.5701  -2.5122  -2.2921  -2.0755
     0.8137   0.8232   1.0110   1.1482   1.3054   1.3275   1.4417   1.4893
     1.7322   1.7647   1.8586   1.9062   2.0399   2.3092

          k = 0.3203 0.3462 0.0000 ( 76318 PWs)   bands (ev):

   -58.3432 -58.3394 -58.3236 -58.3203 -57.8887 -57.8884 -34.6558 -34.6515
   -34.6456 -34.6361 -34.6110 -34.6035 -34.5797 -34.5776 -34.5421 -34.5392
   -34.5215 -34.5184 -34.2825 -34.2820 -34.1765 -34.1760 -34.1107 -34.1100
   -18.7805 -18.7052 -18.5464 -18.3922 -18.2357 -18.2267 -18.1090 -18.0987
   -18.0332 -18.0016 -17.5302 -17.5298  -6.2699  -6.2601  -6.0604  -5.9440
    -5.8592  -5.8121  -5.7268  -5.6512  -5.6361  -5.6157  -4.9863  -4.9505
    -4.7417  -4.6422  -4.5600  -4.5190  -4.4141  -4.3091  -4.0843  -4.0196
    -3.9121  -3.8085  -3.7640  -3.5730  -3.4529  -3.2564  -3.2468  -3.1188
    -2.9599  -2.9496  -2.7763  -2.6233  -2.5561  -2.5056  -2.3051  -2.1774
     0.8985   0.9616   1.0399   1.2183   1.2466   1.3463   1.4513   1.5357
     1.7406   1.7621   1.9663   1.9812   2.0772   2.0985

          k = 0.3203 0.5193 0.0000 ( 76259 PWs)   bands (ev):

   -58.3288 -58.3258 -58.3096 -58.3064 -57.8740 -57.8736 -34.8003 -34.7972
   -34.7907 -34.7858 -34.5746 -34.5714 -34.5466 -34.5445 -34.5315 -34.5288
   -34.5141 -34.5110 -34.3346 -34.3339 -34.2598 -34.2596 -34.0956 -34.0949
   -18.5054 -18.4641 -18.4071 -18.3176 -18.2419 -18.1560 -18.1164 -18.0287
   -17.9515 -17.9482 -17.5258 -17.5256  -6.0426  -6.0121  -5.9710  -5.8727
    -5.8270  -5.8178  -5.6948  -5.6812  -5.6437  -5.5048  -5.4385  -5.4212
    -5.0448  -4.7223  -4.6515  -4.5983  -4.3732  -4.2149  -4.1019  -4.0079
    -3.9913  -3.9020  -3.7000  -3.4995  -3.4307  -3.3204  -3.1788  -3.0625
    -2.9465  -2.8902  -2.7378  -2.6514  -2.5565  -2.4167  -2.3687  -2.3409
     0.8090   1.0119   1.0739   1.3856   1.4070   1.4885   1.5289   1.6228
     1.6830   1.7628   1.9285   1.9793   2.0914   2.1016

          k = 0.3203 0.6923 0.0000 ( 76319 PWs)   bands (ev):

   -58.3194 -58.3169 -58.3005 -58.2972 -57.8643 -57.8640 -34.8965 -34.8933
   -34.8855 -34.8835 -34.5471 -34.5446 -34.5316 -34.5288 -34.5201 -34.5169
   -34.5115 -34.5090 -34.4267 -34.4258 -34.2573 -34.2570 -34.0769 -34.0762
   -18.4997 -18.4953 -18.3703 -18.3440 -18.1174 -18.0717 -18.0278 -17.9841
   -17.8781 -17.8570 -17.4367 -17.4361  -6.2775  -6.2681  -6.1103  -6.0972
    -5.9154  -5.8747  -5.6478  -5.5476  -5.5020  -5.4355  -5.3613  -5.3592
    -5.0672  -4.8759  -4.6220  -4.5053  -4.2423  -4.1927  -4.1605  -4.0439
    -3.9956  -3.9049  -3.5295  -3.4389  -3.2736  -3.1953  -3.0964  -2.9837
    -2.9680  -2.8611  -2.7906  -2.7599  -2.5898  -2.5641  -2.4480  -2.3671
     0.7956   0.9432   1.1464   1.2740   1.5105   1.6172   1.7254   1.7340
     1.7742   1.8084   2.0037   2.0067   2.1061   2.1392

          k =-0.4805 0.0000 0.0000 ( 76438 PWs)   bands (ev):

   -58.3594 -58.3571 -58.3407 -58.3375 -57.9068 -57.9064 -34.6616 -34.6608
   -34.6301 -34.6287 -34.5630 -34.5619 -34.5350 -34.5343 -34.4508 -34.4475
   -34.4403 -34.4383 -34.2957 -34.2952 -34.1708 -34.1702 -33.9480 -33.9475
   -18.9727 -18.9696 -18.8663 -18.8648 -18.5376 -18.5355 -18.0195 -18.0162
   -17.8745 -17.8739 -17.4419 -17.4408  -6.7651  -6.7618  -6.4920  -6.4894
    -5.8216  -5.8195  -5.2583  -5.2539  -5.1536  -5.1493  -4.7810  -4.7800
    -4.7639  -4.7608  -4.6200  -4.6189  -4.3633  -4.3603  -4.1937  -4.1909
    -3.5371  -3.5331  -3.3191  -3.3157  -3.2418  -3.2371  -3.0399  -3.0355
    -2.9318  -2.9305  -2.7447  -2.7424  -2.5979  -2.5960  -2.4322  -2.4300
     0.7609   0.7622   1.0142   1.0149   1.3098   1.3113   1.5133   1.5157
     2.0364   2.0371   2.0439   2.0461   2.1726   2.1755

          k =-0.4805 0.1731 0.0000 ( 76384 PWs)   bands (ev):

   -58.3546 -58.3523 -58.3359 -58.3326 -57.9017 -57.9013 -34.6494 -34.6485
   -34.6185 -34.6172 -34.5608 -34.5602 -34.5333 -34.5322 -34.5054 -34.5022
   -34.4902 -34.4886 -34.2909 -34.2905 -34.1624 -34.1618 -34.0054 -34.0049
   -18.8744 -18.8714 -18.7687 -18.7674 -18.4501 -18.4480 -18.0544 -18.0512
   -17.9211 -17.9206 -17.4720 -17.4710  -6.6199  -6.6167  -6.3443  -6.3418
    -5.7608  -5.7591  -5.5529  -5.5494  -5.4564  -5.4538  -4.7848  -4.7829
    -4.6934  -4.6896  -4.3766  -4.3755  -4.1604  -4.1563  -4.0393  -4.0374
    -3.6501  -3.6463  -3.4839  -3.4828  -3.3529  -3.3510  -3.2003  -3.1977
    -3.0842  -3.0817  -2.8764  -2.8727  -2.4999  -2.4984  -2.3229  -2.3215
     0.8044   0.8060   1.0641   1.0650   1.3808   1.3819   1.4952   1.4958
     1.7976   1.7979   2.1167   2.1188   2.1623   2.1632

          k =-0.4805 0.3462 0.0000 ( 76352 PWs)   bands (ev):

   -58.3424 -58.3401 -58.3236 -58.3204 -57.8887 -57.8884 -34.6553 -34.6525
   -34.6415 -34.6401 -34.6090 -34.6083 -34.5801 -34.5780 -34.5414 -34.5395
   -34.5193 -34.5188 -34.2824 -34.2820 -34.1765 -34.1761 -34.1106 -34.1099
   -18.6281 -18.6254 -18.5366 -18.5352 -18.2905 -18.2887 -18.0898 -18.0867
   -18.0255 -18.0250 -17.5328 -17.5323  -6.2591  -6.2563  -6.0049  -6.0027
    -5.8635  -5.8616  -5.7386  -5.7369  -5.6139  -5.6121  -5.0104  -5.0067
    -4.5873  -4.5869  -4.5131  -4.5111  -4.1819  -4.1802  -4.0912  -4.0884
    -3.8124  -3.8114  -3.6561  -3.6527  -3.4459  -3.4447  -3.2880  -3.2851
    -2.9455  -2.9421  -2.6914  -2.6909  -2.5272  -2.5246  -2.3585  -2.3580
     0.9599   0.9627   1.1516   1.1528   1.2300   1.2319   1.5893   1.5902
     1.8553   1.8578   1.9915   1.9940   2.0394   2.0430

          k =-0.4805 0.5193 0.0000 ( 76318 PWs)   bands (ev):

   -58.3285 -58.3261 -58.3097 -58.3064 -57.8740 -57.8736 -34.8003 -34.7973
   -34.7888 -34.7875 -34.5747 -34.5736 -34.5465 -34.5448 -34.5309 -34.5295
   -34.5125 -34.5114 -34.3346 -34.3339 -34.2598 -34.2595 -34.0956 -34.0949
   -18.4557 -18.4525 -18.3597 -18.3583 -18.2174 -18.2164 -18.0782 -18.0770
   -17.9609 -17.9586 -17.5257 -17.5255  -6.0482  -6.0476  -5.9756  -5.9753
    -5.8516  -5.8498  -5.7339  -5.7325  -5.5917  -5.5907  -5.4147  -5.4121
    -4.8362  -4.8342  -4.6693  -4.6676  -4.2052  -4.2025  -4.0661  -4.0654
    -3.8449  -3.8429  -3.6298  -3.6286  -3.3900  -3.3885  -3.1003  -3.0998
    -2.8264  -2.8243  -2.6011  -2.5990  -2.5542  -2.5535  -2.4258  -2.4249
     1.0204   1.0215   1.2161   1.2177   1.3132   1.3162   1.6320   1.6335
     1.8029   1.8049   1.9240   1.9265   2.0450   2.0480

          k =-0.4805 0.6923 0.0000 ( 76294 PWs)   bands (ev):

   -58.3193 -58.3170 -58.3005 -58.2972 -57.8643 -57.8640 -34.8965 -34.8934
   -34.8850 -34.8837 -34.5473 -34.5455 -34.5306 -34.5278 -34.5216 -34.5185
   -34.5108 -34.5090 -34.4265 -34.4256 -34.2573 -34.2571 -34.0770 -34.0763
   -18.5024 -18.4987 -18.3612 -18.3600 -18.0818 -18.0795 -18.0056 -18.0044
   -17.8741 -17.8739 -17.4341 -17.4334  -6.2725  -6.2719  -6.1661  -6.1657
    -5.9727  -5.9719  -5.6464  -5.6459  -5.4570  -5.4564  -5.3619  -5.3608
    -4.8815  -4.8807  -4.6774  -4.6766  -4.1995  -4.1979  -4.0567  -4.0553
    -3.9695  -3.9679  -3.4802  -3.4793  -3.2206  -3.2180  -2.9948  -2.9939
    -2.8377  -2.8371  -2.6673  -2.6668  -2.5025  -2.5021  -2.4194  -2.4183
     0.8515   0.8534   1.1969   1.1984   1.6545   1.6558   1.7203   1.7230
     1.8106   1.8114   1.9791   1.9809   2.0828   2.0836

     the Fermi energy is    -0.5483 ev

!    total energy              =   -1077.91142796 Ry
     estimated scf accuracy    <          6.3E-09 Ry
     smearing contrib. (-TS)   =      -0.00000000 Ry
     internal energy E=F+TS    =   -1077.91142796 Ry

     The total energy is F=E-TS. E is the sum of the following terms:
     one-electron contribution =  -24639.49716405 Ry
     hartree contribution      =   12331.77298175 Ry
     xc contribution           =    -170.01985255 Ry
     ewald contribution        =   11399.83260689 Ry

     convergence has been achieved in   7 iterations

     Forces acting on atoms (cartesian axes, Ry/au):

     atom    1 type  1   force =     0.00075811    0.00000000   -0.00025044
     atom    2 type  1   force =     0.00007784    0.00000000    0.00073068
     atom    3 type  1   force =     0.00140381    0.00000000    0.00096431
     atom    4 type  1   force =     0.00139038    0.00000000   -0.00077223
     atom    5 type  1   force =     0.00037339    0.00000000   -0.00062158
     atom    6 type  1   force =     0.00092754    0.00000000   -0.00017260
     atom    7 type  2   force =    -0.00004716    0.00000000   -0.00133528
     atom    8 type  2   force =    -0.00028517    0.00000000   -0.00120902
     atom    9 type  2   force =     0.00005317    0.00000000    0.00079712
     atom   10 type  2   force =    -0.00133908    0.00000000   -0.00086231
     atom   11 type  2   force =    -0.00011924    0.00000000    0.00188096
     atom   12 type  2   force =    -0.00079886    0.00000000   -0.00006311
     atom   13 type  2   force =    -0.00144720    0.00000000    0.00090297
     atom   14 type  2   force =     0.00006394    0.00000000   -0.00053016
     atom   15 type  2   force =    -0.00040358    0.00000000    0.00059990
     atom   16 type  2   force =    -0.00038809    0.00000000   -0.00193945
     atom   17 type  2   force =    -0.00004530    0.00000000    0.00080782
     atom   18 type  2   force =    -0.00017449    0.00000000    0.00107244

     Total force =     0.005309     Total SCF correction =     0.000390


     Computing stress (Cartesian axis) and pressure

          total   stress  (Ry/bohr**3)                   (kbar)     P=       -0.89
  -0.00000923   0.00000000   0.00000027           -1.36        0.00        0.04
   0.00000000  -0.00001007   0.00000000            0.00       -1.48        0.00
   0.00000027   0.00000000   0.00000123            0.04        0.00        0.18

     Energy error            =      1.0E-04 Ry
     Gradient error          =      1.9E-03 Ry/Bohr
     Cell gradient error     =      1.5E+00 kbar

     number of scf cycles    =  16
     number of bfgs steps    =  15

     enthalpy           old  =   -1077.9113246787 Ry
     enthalpy           new  =   -1077.9114279619 Ry

     CASE: enthalpy          _new < enthalpy          _old

     new trust radius        =       0.0130691192 bohr
     new conv_thr            =       0.0000000103 Ry

     new unit-cell volume =   3566.22955 a.u.^3 (   528.46070 Ang^3 )
     density =      1.50572 g/cm^3

CELL_PARAMETERS (angstrom)
   4.778822826   0.000000000   0.000000000
   0.000000000   2.950632543   0.000000000
   0.000000000   0.000000000  37.478019714

ATOMIC_POSITIONS (angstrom)
Ti               0.1780206871        0.0000000000       14.6296260903
Ti               2.5315164181        1.4753161843       16.8420595862
Ti               0.1251745241        0.0000000000       19.2157511784
Ti               2.5137240702        1.4753161843       21.4574710352
Ti               0.1403463875        0.0000000000       23.8286519077
Ti               2.5670348434        1.4753161843       26.0427695118
O                0.6294526897        1.4753162720       13.6215303629
O                1.4557082181        0.0000000000       15.9564256830
O                3.3009082378        0.0000000000       17.7700366676
O                0.8960655621        1.4753162720       18.2817351542
O                3.7439008626        1.4753162720       15.4351125432
O                1.4793576235        0.0000000000       20.5640968392
O                3.2846782636        0.0000000000       22.3911316625
O                0.9067866497        1.4753162720       22.8983738002
O                3.8678267937        1.4753162720       20.1093413914
O                1.3581063148        0.0000000000       25.2316843509
O                3.0161960386        0.0000000000       27.0519060329
O                3.8463644510        1.4753162720       24.7171444465



     Writing config-only to output data dir ./Out/pwscf.save/
     NEW-OLD atomic charge density approx. for the potential

     negative rho (up, down):  2.813E-05 0.000E+00

     total cpu time spent up to now is      652.9 secs

     Self-consistent Calculation

     iteration #  1     ecut=   120.00 Ry     beta= 0.40
     Davidson diagonalization with overlap
     ethr =  1.00E-06,  avg # of iterations =  4.1

     Threshold (ethr) on eigenvalues was too large:
     Diagonalizing with lowered threshold

     Davidson diagonalization with overlap
     ethr =  4.27E-08,  avg # of iterations =  4.6

     negative rho (up, down):  1.635E-05 0.000E+00

     total cpu time spent up to now is      661.6 secs

     total energy              =   -1077.91150182 Ry
     estimated scf accuracy    <       0.00007365 Ry

     iteration #  2     ecut=   120.00 Ry     beta= 0.40
     Davidson diagonalization with overlap
     ethr =  5.11E-08,  avg # of iterations =  2.0

     negative rho (up, down):  9.350E-06 0.000E+00

     total cpu time spent up to now is      664.9 secs

     total energy              =   -1077.91150456 Ry
     estimated scf accuracy    <       0.00001781 Ry

     iteration #  3     ecut=   120.00 Ry     beta= 0.40
     Davidson diagonalization with overlap
     ethr =  1.24E-08,  avg # of iterations =  2.0

     negative rho (up, down):  3.880E-06 0.000E+00

     total cpu time spent up to now is      668.3 secs

     total energy              =   -1077.91150661 Ry
     estimated scf accuracy    <       0.00000605 Ry

     iteration #  4     ecut=   120.00 Ry     beta= 0.40
     Davidson diagonalization with overlap
     ethr =  4.20E-09,  avg # of iterations =  2.0

     negative rho (up, down):  2.271E-06 0.000E+00

     total cpu time spent up to now is      671.6 secs

     total energy              =   -1077.91150750 Ry
     estimated scf accuracy    <       0.00000061 Ry

     iteration #  5     ecut=   120.00 Ry     beta= 0.40
     Davidson diagonalization with overlap
     ethr =  4.22E-10,  avg # of iterations =  5.0

     negative rho (up, down):  8.269E-07 0.000E+00

     total cpu time spent up to now is      675.5 secs

     total energy              =   -1077.91150765 Ry
     estimated scf accuracy    <       0.00000032 Ry

     iteration #  6     ecut=   120.00 Ry     beta= 0.40
     Davidson diagonalization with overlap
     ethr =  2.19E-10,  avg # of iterations =  2.4

     negative rho (up, down):  1.605E-07 0.000E+00

     total cpu time spent up to now is      679.0 secs

     total energy              =   -1077.91150769 Ry
     estimated scf accuracy    <       0.00000006 Ry

     iteration #  7     ecut=   120.00 Ry     beta= 0.40
     Davidson diagonalization with overlap
     ethr =  4.27E-11,  avg # of iterations =  4.4

     total cpu time spent up to now is      682.7 secs

     End of self-consistent calculation

          k = 0.0000 0.0000 0.0000 ( 76179 PWs)   bands (ev):

   -58.3570 -58.3490 -58.3410 -58.3375 -57.9025 -57.9021 -34.6529 -34.6494
   -34.6265 -34.6252 -34.5646 -34.5591 -34.5409 -34.5300 -34.4537 -34.4503
   -34.4397 -34.4253 -34.2930 -34.2925 -34.1673 -34.1666 -33.9436 -33.9430
   -19.4351 -19.2298 -18.8671 -18.5296 -18.3834 -18.3805 -18.0180 -17.9828
   -17.8418 -17.8349 -17.4230 -17.4181  -6.9688  -6.6620  -6.5486  -6.4123
    -6.0231  -5.8260  -5.7964  -5.5456  -5.2315  -5.2261  -5.1417  -5.1245
    -4.9144  -4.7670  -4.7666  -4.5818  -4.3714  -4.2569  -4.1627  -3.7326
    -3.6022  -3.5020  -3.3581  -3.3221  -3.1029  -3.0968  -2.9186  -2.9140
    -2.8552  -2.6777  -2.5529  -2.3902  -2.3676  -2.1779  -1.9074  -1.6819
     0.6357   0.8244   0.9677   1.0429   1.1629   1.2098   1.2768   1.2835
     1.4430   1.5832   1.6028   2.1812   2.3033   2.3357

          k = 0.0000 0.1731 0.0000 ( 76281 PWs)   bands (ev):

   -58.3519 -58.3443 -58.3362 -58.3327 -57.8974 -57.8970 -34.6414 -34.6373
   -34.6152 -34.6137 -34.5633 -34.5563 -34.5381 -34.5278 -34.5082 -34.5041
   -34.4880 -34.4791 -34.2880 -34.2875 -34.1587 -34.1581 -34.0013 -34.0007
   -19.3134 -19.1185 -18.7728 -18.4441 -18.3076 -18.2994 -18.0586 -18.0185
   -17.8889 -17.8870 -17.4545 -17.4505  -6.8000  -6.5118  -6.4083  -6.2675
    -5.9375  -5.7761  -5.7443  -5.5728  -5.4259  -5.4176  -5.3442  -5.1641
    -4.8093  -4.7700  -4.5638  -4.4350  -4.2737  -4.0750  -4.0246  -3.8783
    -3.8467  -3.6412  -3.4777  -3.3455  -3.3396  -3.1857  -3.1742  -2.9615
    -2.9598  -2.8987  -2.6371  -2.4039  -2.3895  -2.1599  -1.9480  -1.7200
     0.7633   0.9349   1.0119   1.0558   1.1741   1.2287   1.3025   1.3509
     1.5250   1.6175   1.7369   1.8507   1.9001   2.3585

          k = 0.0000 0.3462 0.0000 ( 76251 PWs)   bands (ev):

   -58.3389 -58.3325 -58.3241 -58.3206 -57.8845 -57.8841 -34.6557 -34.6529
   -34.6448 -34.6268 -34.6006 -34.5995 -34.5801 -34.5737 -34.5407 -34.5384
   -34.5233 -34.5155 -34.2788 -34.2783 -34.1725 -34.1719 -34.1071 -34.1064
   -18.9916 -18.8328 -18.5627 -18.2972 -18.1581 -18.1330 -18.0823 -18.0790
   -18.0001 -17.9982 -17.5200 -17.5185  -6.3578  -6.1554  -6.0512  -5.9507
    -5.7750  -5.6826  -5.6581  -5.6116  -5.5770  -5.5647  -5.3634  -5.2257
    -4.8007  -4.6785  -4.5751  -4.5542  -4.4921  -4.2760  -4.1855  -4.1765
    -4.1200  -3.8165  -3.7928  -3.4815  -3.4575  -3.3068  -3.2464  -3.0096
    -2.8802  -2.8392  -2.7127  -2.6281  -2.6056  -2.2320  -2.0646  -1.9153
     0.8329   0.9879   1.0433   1.0625   1.1203   1.3745   1.3949   1.5118
     1.6899   1.7546   1.8673   1.8786   1.9688   2.1685

          k = 0.0000 0.5193 0.0000 ( 76270 PWs)   bands (ev):

   -58.3239 -58.3192 -58.3103 -58.3068 -57.8697 -57.8693 -34.8010 -34.7978
   -34.7897 -34.7789 -34.5683 -34.5642 -34.5446 -34.5429 -34.5309 -34.5284
   -34.5146 -34.5069 -34.3307 -34.3301 -34.2563 -34.2560 -34.0915 -34.0907
   -18.5886 -18.5147 -18.4600 -18.3798 -18.2035 -18.1077 -18.0267 -18.0210
   -17.9352 -17.9204 -17.5223 -17.5221  -5.9398  -5.8816  -5.8645  -5.8038
    -5.6961  -5.6734  -5.6671  -5.6265  -5.5197  -5.4653  -5.4603  -5.2774
    -5.0842  -5.0694  -4.7699  -4.7188  -4.5562  -4.2532  -4.1663  -4.1292
    -4.0495  -3.8585  -3.7481  -3.6009  -3.5546  -3.2715  -3.1675  -3.0894
    -3.0023  -2.9103  -2.8973  -2.7114  -2.6691  -2.3661  -2.3073  -2.2891
     0.7062   0.9076   0.9658   1.2644   1.4003   1.4303   1.6054   1.6080
     1.7623   1.8618   1.9456   2.0446   2.2122   2.2176

          k = 0.0000 0.6925 0.0000 ( 76376 PWs)   bands (ev):

   -58.3136 -58.3109 -58.3012 -58.2977 -57.8600 -57.8596 -34.8972 -34.8940
   -34.8825 -34.8788 -34.5424 -34.5387 -34.5318 -34.5281 -34.5192 -34.5159
   -34.5077 -34.5039 -34.4240 -34.4232 -34.2533 -34.2529 -34.0725 -34.0717
   -18.4973 -18.4756 -18.3748 -18.3209 -18.2287 -18.0674 -18.0267 -17.9646
   -17.8715 -17.8422 -17.4414 -17.4410  -6.2847  -6.1979  -6.0320  -5.9553
    -5.6638  -5.6568  -5.5669  -5.5086  -5.4049  -5.4028  -5.3168  -5.3109
    -4.9013  -4.8565  -4.5944  -4.4734  -4.3133  -4.2031  -4.1717  -4.1387
    -4.0940  -4.0350  -3.8808  -3.6251  -3.4995  -3.3014  -3.2253  -3.1104
    -3.0100  -2.9672  -2.9480  -2.8215  -2.7723  -2.6931  -2.4667  -2.3729
     0.6931   0.9159   1.0719   1.2281   1.3963   1.6583   1.6829   1.7396
     1.7954   1.8477   2.0674   2.0699   2.2875   2.3353

          k = 0.1603 0.0000 0.0000 ( 76264 PWs)   bands (ev):

   -58.3564 -58.3493 -58.3411 -58.3376 -57.9025 -57.9021 -34.6544 -34.6519
   -34.6270 -34.6258 -34.5636 -34.5596 -34.5393 -34.5297 -34.4531 -34.4498
   -34.4393 -34.4265 -34.2927 -34.2922 -34.1672 -34.1665 -33.9436 -33.9430
   -19.3627 -19.1870 -18.8685 -18.5687 -18.4035 -18.3954 -18.0228 -18.0081
   -17.8691 -17.8288 -17.4255 -17.4231  -6.8948  -6.7510  -6.4552  -6.4495
    -5.9125  -5.8173  -5.7557  -5.4391  -5.2365  -5.2336  -5.1481  -5.1282
    -4.8901  -4.7710  -4.7697  -4.5416  -4.3948  -4.2289  -4.0685  -3.7011
    -3.6423  -3.4547  -3.3380  -3.2767  -3.1346  -3.1237  -2.9873  -2.9379
    -2.7681  -2.7564  -2.6342  -2.5881  -2.5032  -2.3508  -2.0404  -1.7975
     0.6964   0.7736   0.9913   1.0599   1.2044   1.2165   1.2895   1.3933
     1.5381   1.6230   1.7509   2.1737   2.2497   2.2632

          k = 0.1603 0.1731 0.0000 ( 76282 PWs)   bands (ev):

   -58.3514 -58.3446 -58.3363 -58.3328 -57.8974 -57.8970 -34.6425 -34.6400
   -34.6154 -34.6143 -34.5621 -34.5569 -34.5370 -34.5274 -34.5074 -34.5040
   -34.4880 -34.4797 -34.2878 -34.2873 -34.1587 -34.1580 -34.0013 -34.0007
   -19.2446 -19.0775 -18.7734 -18.4830 -18.3184 -18.3141 -18.0628 -18.0474
   -17.9172 -17.8792 -17.4569 -17.4549  -6.7347  -6.6024  -6.3120  -6.3055
    -5.8637  -5.7801  -5.7115  -5.5705  -5.4609  -5.3958  -5.2801  -5.1050
    -4.7878  -4.7602  -4.5340  -4.4013  -4.3243  -4.1182  -3.9717  -3.8072
    -3.7806  -3.6957  -3.5399  -3.2845  -3.2793  -3.1913  -3.1700  -3.0242
    -2.9944  -2.9192  -2.6442  -2.5283  -2.5137  -2.3163  -2.0718  -1.8319
     0.7830   0.8874   1.0262   1.1387   1.1767   1.2639   1.3254   1.4166
     1.6080   1.6112   1.8126   1.8549   1.9212   2.3587

          k = 0.1603 0.3462 0.0000 ( 76223 PWs)   bands (ev):

   -58.3385 -58.3328 -58.3242 -58.3207 -57.8845 -57.8841 -34.6555 -34.6523
   -34.6446 -34.6283 -34.6036 -34.5996 -34.5791 -34.5751 -34.5411 -34.5383
   -34.5213 -34.5151 -34.2788 -34.2783 -34.1725 -34.1720 -34.1070 -34.1063
   -18.9355 -18.7972 -18.5565 -18.3218 -18.1521 -18.1431 -18.1139 -18.0973
   -18.0284 -17.9920 -17.5219 -17.5211  -6.3289  -6.2286  -6.0085  -5.9664
    -5.7942  -5.7834  -5.6626  -5.6414  -5.6113  -5.5441  -5.1785  -5.0655
    -4.8807  -4.7044  -4.6062  -4.5583  -4.3914  -4.3605  -4.1219  -4.0999
    -4.0755  -3.7988  -3.7702  -3.5157  -3.5036  -3.2536  -3.1904  -3.0546
    -2.9436  -2.8491  -2.7495  -2.6121  -2.5929  -2.3180  -2.1363  -1.9947
     0.8164   1.0017   1.0248   1.1166   1.1914   1.3772   1.4369   1.4989
     1.6903   1.7297   1.8637   1.8668   2.0779   2.1623

          k = 0.1603 0.5193 0.0000 ( 76310 PWs)   bands (ev):

   -58.3236 -58.3194 -58.3103 -58.3068 -57.8697 -57.8693 -34.8009 -34.7978
   -34.7890 -34.7798 -34.5692 -34.5658 -34.5456 -34.5422 -34.5315 -34.5283
   -34.5126 -34.5072 -34.3308 -34.3302 -34.2562 -34.2559 -34.0915 -34.0907
   -18.5661 -18.4991 -18.4450 -18.3605 -18.1878 -18.1601 -18.0588 -18.0106
   -17.9373 -17.9298 -17.5223 -17.5220  -5.9855  -5.9346  -5.8596  -5.8578
    -5.7690  -5.7050  -5.6502  -5.6351  -5.5895  -5.5008  -5.4757  -5.3512
    -5.1155  -4.8658  -4.6754  -4.6299  -4.4821  -4.2849  -4.2013  -4.0705
    -4.0646  -3.8949  -3.6767  -3.5790  -3.5559  -3.2077  -3.1570  -3.0835
    -3.0284  -2.9576  -2.8171  -2.6957  -2.6336  -2.3705  -2.3052  -2.2899
     0.7301   0.9294   0.9649   1.3335   1.4417   1.4618   1.5803   1.6280
     1.7903   1.8133   1.8825   1.9596   2.1328   2.2250

          k = 0.1603 0.6925 0.0000 ( 76348 PWs)   bands (ev):

   -58.3136 -58.3109 -58.3012 -58.2977 -57.8600 -57.8596 -34.8971 -34.8940
   -34.8823 -34.8791 -34.5423 -34.5398 -34.5317 -34.5284 -34.5193 -34.5160
   -34.5073 -34.5042 -34.4238 -34.4230 -34.2533 -34.2530 -34.0726 -34.0718
   -18.4972 -18.4870 -18.3573 -18.3542 -18.1612 -18.1110 -17.9917 -17.9882
   -17.8714 -17.8470 -17.4385 -17.4381  -6.2804  -6.2366  -6.0284  -6.0101
    -5.7403  -5.7133  -5.5606  -5.5311  -5.5136  -5.4414  -5.3509  -5.3043
    -5.0740  -4.8241  -4.5477  -4.5060  -4.2998  -4.2255  -4.1812  -4.0750
    -3.9708  -3.9681  -3.7592  -3.5419  -3.3681  -3.2158  -3.2109  -3.1332
    -2.9952  -2.9865  -2.9006  -2.7705  -2.7376  -2.6742  -2.4587  -2.3662
     0.7484   0.9269   1.1487   1.1788   1.5001   1.5778   1.7022   1.7393
     1.7929   1.8390   2.0430   2.0504   2.2213   2.2242

          k = 0.3207 0.0000 0.0000 ( 76372 PWs)   bands (ev):

   -58.3549 -58.3503 -58.3414 -58.3379 -57.9025 -57.9021 -34.6576 -34.6564
   -34.6282 -34.6268 -34.5628 -34.5600 -34.5349 -34.5298 -34.4521 -34.4487
   -34.4378 -34.4299 -34.2922 -34.2917 -34.1670 -34.1664 -33.9437 -33.9431
   -19.1659 -19.0761 -18.8777 -18.6759 -18.4807 -18.4721 -18.0363 -18.0193
   -17.8849 -17.8464 -17.4333 -17.4321  -6.7977  -6.7665  -6.5362  -6.4186
    -5.8319  -5.8142  -5.3762  -5.2503  -5.2460  -5.1597  -5.1368  -5.0956
    -4.7766  -4.7753  -4.7102  -4.4447  -4.4127  -4.3470  -3.9544  -3.8107
    -3.6788  -3.4060  -3.2953  -3.2803  -3.2298  -3.2282  -3.0195  -3.0019
    -2.9178  -2.8911  -2.7070  -2.6991  -2.6704  -2.6217  -2.3091  -2.0957
     0.7509   0.7593   0.9748   1.0679   1.1966   1.3277   1.4692   1.5358
     1.7152   1.8209   1.9919   2.1241   2.1340   2.1666

          k = 0.3207 0.1731 0.0000 ( 76383 PWs)   bands (ev):

   -58.3499 -58.3455 -58.3366 -58.3330 -57.8974 -57.8970 -34.6454 -34.6442
   -34.6166 -34.6152 -34.5608 -34.5577 -34.5334 -34.5279 -34.5064 -34.5032
   -34.4872 -34.4815 -34.2874 -34.2869 -34.1586 -34.1579 -34.0013 -34.0007
   -19.0577 -18.9715 -18.7810 -18.5871 -18.3936 -18.3850 -18.0741 -18.0571
   -17.9325 -17.8943 -17.4639 -17.4629  -6.6495  -6.6207  -6.3880  -6.2738
    -5.7740  -5.7607  -5.6060  -5.5628  -5.4839  -5.4328  -5.0520  -4.8475
    -4.7669  -4.7285  -4.4364  -4.3859  -4.2837  -4.1511  -3.9856  -3.8750
    -3.7059  -3.6410  -3.5256  -3.3370  -3.2965  -3.2170  -3.1667  -3.1623
    -3.0596  -2.9801  -2.8335  -2.7767  -2.5709  -2.5099  -2.2899  -2.0755
     0.8145   0.8223   1.0112   1.1499   1.3064   1.3270   1.4449   1.4931
     1.7336   1.7665   1.8602   1.9067   2.0454   2.3160

          k = 0.3207 0.3462 0.0000 ( 76318 PWs)   bands (ev):

   -58.3374 -58.3335 -58.3243 -58.3208 -57.8845 -57.8841 -34.6558 -34.6517
   -34.6418 -34.6320 -34.6079 -34.6010 -34.5789 -34.5769 -34.5413 -34.5382
   -34.5177 -34.5145 -34.2787 -34.2782 -34.1725 -34.1720 -34.1068 -34.1061
   -18.7830 -18.7058 -18.5493 -18.3944 -18.2354 -18.2262 -18.1112 -18.0990
   -18.0349 -18.0036 -17.5264 -17.5261  -6.2741  -6.2652  -6.0616  -5.9459
    -5.8629  -5.8166  -5.7299  -5.6539  -5.6385  -5.6171  -4.9873  -4.9524
    -4.7436  -4.6443  -4.5597  -4.5166  -4.4135  -4.3124  -4.0846  -4.0181
    -3.9125  -3.8102  -3.7643  -3.5729  -3.4538  -3.2532  -3.2452  -3.1177
    -2.9596  -2.9486  -2.7754  -2.6219  -2.5539  -2.5020  -2.3022  -2.1767
     0.9021   0.9637   1.0413   1.2177   1.2466   1.3509   1.4543   1.5384
     1.7438   1.7642   1.9654   1.9806   2.0845   2.1039

          k = 0.3207 0.5193 0.0000 ( 76259 PWs)   bands (ev):

   -58.3230 -58.3199 -58.3104 -58.3068 -57.8697 -57.8693 -34.8009 -34.7977
   -34.7869 -34.7818 -34.5711 -34.5683 -34.5458 -34.5437 -34.5307 -34.5282
   -34.5103 -34.5071 -34.3308 -34.3302 -34.2561 -34.2557 -34.0915 -34.0908
   -18.5083 -18.4652 -18.4092 -18.3186 -18.2450 -18.1573 -18.1180 -18.0305
   -17.9509 -17.9475 -17.5221 -17.5219  -6.0472  -6.0166  -5.9769  -5.8766
    -5.8306  -5.8221  -5.6986  -5.6849  -5.6481  -5.5085  -5.4392  -5.4234
    -5.0478  -4.7220  -4.6491  -4.5970  -4.3763  -4.2140  -4.1003  -4.0084
    -3.9938  -3.9014  -3.6990  -3.4991  -3.4323  -3.3188  -3.1774  -3.0619
    -2.9468  -2.8892  -2.7348  -2.6484  -2.5529  -2.4139  -2.3650  -2.3401
     0.8125   1.0133   1.0756   1.3874   1.4084   1.4921   1.5329   1.6264
     1.6865   1.7659   1.9315   1.9797   2.0979   2.1055

          k = 0.3207 0.6925 0.0000 ( 76319 PWs)   bands (ev):

   -58.3135 -58.3110 -58.3012 -58.2977 -57.8600 -57.8596 -34.8971 -34.8940
   -34.8817 -34.8797 -34.5430 -34.5407 -34.5313 -34.5282 -34.5201 -34.5169
   -34.5068 -34.5044 -34.4235 -34.4227 -34.2534 -34.2531 -34.0727 -34.0720
   -18.5014 -18.4978 -18.3733 -18.3465 -18.1187 -18.0727 -18.0284 -17.9840
   -17.8781 -17.8577 -17.4330 -17.4327  -6.2839  -6.2746  -6.1136  -6.0992
    -5.9207  -5.8792  -5.6517  -5.5521  -5.5081  -5.4395  -5.3635  -5.3610
    -5.0705  -4.8774  -4.6226  -4.5070  -4.2427  -4.1922  -4.1597  -4.0449
    -3.9944  -3.9037  -3.5271  -3.4349  -3.2710  -3.1920  -3.0984  -2.9828
    -2.9705  -2.8606  -2.7914  -2.7578  -2.5880  -2.5608  -2.4429  -2.3631
     0.7993   0.9455   1.1467   1.2753   1.5133   1.6201   1.7281   1.7357
     1.7791   1.8131   2.0085   2.0111   2.1130   2.1456

          k =-0.4810 0.0000 0.0000 ( 76438 PWs)   bands (ev):

   -58.3536 -58.3513 -58.3415 -58.3380 -57.9026 -57.9021 -34.6593 -34.6582
   -34.6287 -34.6275 -34.5621 -34.5605 -34.5316 -34.5311 -34.4516 -34.4482
   -34.4353 -34.4334 -34.2920 -34.2915 -34.1670 -34.1663 -33.9437 -33.9431
   -18.9718 -18.9707 -18.8706 -18.8678 -18.5371 -18.5349 -18.0208 -18.0181
   -17.8769 -17.8764 -17.4378 -17.4365  -6.7694  -6.7669  -6.4933  -6.4907
    -5.8230  -5.8209  -5.2562  -5.2542  -5.1559  -5.1503  -4.7782  -4.7778
    -4.7650  -4.7626  -4.6198  -4.6190  -4.3633  -4.3606  -4.1944  -4.1908
    -3.5358  -3.5317  -3.3177  -3.3151  -3.2431  -3.2393  -3.0389  -3.0352
    -2.9347  -2.9322  -2.7426  -2.7403  -2.5981  -2.5964  -2.4341  -2.4319
     0.7584   0.7599   1.0134   1.0139   1.3129   1.3143   1.5142   1.5167
     2.0394   2.0406   2.0495   2.0515   2.1749   2.1780

          k =-0.4810 0.1731 0.0000 ( 76384 PWs)   bands (ev):

   -58.3488 -58.3464 -58.3367 -58.3332 -57.8974 -57.8970 -34.6471 -34.6459
   -34.6170 -34.6159 -34.5596 -34.5585 -34.5304 -34.5294 -34.5060 -34.5028
   -34.4854 -34.4838 -34.2873 -34.2867 -34.1585 -34.1578 -34.0012 -34.0007
   -18.8734 -18.8724 -18.7729 -18.7704 -18.4496 -18.4473 -18.0557 -18.0531
   -17.9237 -17.9230 -17.4680 -17.4669  -6.6242  -6.6218  -6.3455  -6.3430
    -5.7623  -5.7606  -5.5537  -5.5516  -5.4587  -5.4554  -4.7830  -4.7816
    -4.6932  -4.6899  -4.3760  -4.3742  -4.1619  -4.1574  -4.0382  -4.0366
    -3.6508  -3.6477  -3.4861  -3.4847  -3.3525  -3.3504  -3.1983  -3.1950
    -3.0850  -3.0831  -2.8754  -2.8723  -2.4996  -2.4984  -2.3231  -2.3217
     0.8037   0.8058   1.0659   1.0667   1.3810   1.3823   1.4981   1.4989
     1.7988   1.7992   2.1187   2.1210   2.1675   2.1679

          k =-0.4810 0.3462 0.0000 ( 76352 PWs)   bands (ev):

   -58.3365 -58.3342 -58.3244 -58.3209 -57.8845 -57.8841 -34.6554 -34.6525
   -34.6376 -34.6361 -34.6063 -34.6055 -34.5793 -34.5773 -34.5408 -34.5384
   -34.5154 -34.5149 -34.2787 -34.2782 -34.1725 -34.1720 -34.1066 -34.1059
   -18.6271 -18.6262 -18.5405 -18.5386 -18.2904 -18.2887 -18.0912 -18.0883
   -18.0275 -18.0269 -17.5289 -17.5285  -6.2635  -6.2613  -6.0061  -6.0041
    -5.8670  -5.8656  -5.7417  -5.7400  -5.6164  -5.6148  -5.0118  -5.0090
    -4.5885  -4.5879  -4.5109  -4.5094  -4.1807  -4.1788  -4.0920  -4.0900
    -3.8144  -3.8131  -3.6559  -3.6530  -3.4444  -3.4433  -3.2874  -3.2841
    -2.9441  -2.9413  -2.6900  -2.6895  -2.5256  -2.5234  -2.3573  -2.3568
     0.9621   0.9652   1.1558   1.1570   1.2302   1.2326   1.5919   1.5931
     1.8552   1.8577   1.9929   1.9949   2.0460   2.0494

          k =-0.4810 0.5193 0.0000 ( 76318 PWs)   bands (ev):

   -58.3226 -58.3202 -58.3104 -58.3069 -57.8697 -57.8693 -34.8009 -34.7978
   -34.7849 -34.7836 -34.5714 -34.5702 -34.5457 -34.5442 -34.5304 -34.5287
   -34.5085 -34.5076 -34.3309 -34.3303 -34.2560 -34.2556 -34.0915 -34.0908
   -18.4566 -18.4547 -18.3615 -18.3604 -18.2189 -18.2179 -18.0805 -18.0791
   -17.9607 -17.9579 -17.5220 -17.5218  -6.0534  -6.0531  -5.9812  -5.9804
    -5.8563  -5.8543  -5.7375  -5.7367  -5.5955  -5.5947  -5.4153  -5.4129
    -4.8391  -4.8367  -4.6672  -4.6655  -4.2040  -4.2016  -4.0670  -4.0662
    -3.8465  -3.8450  -3.6271  -3.6262  -3.3887  -3.3875  -3.0994  -3.0988
    -2.8239  -2.8223  -2.5992  -2.5974  -2.5521  -2.5510  -2.4233  -2.4221
     1.0228   1.0242   1.2181   1.2199   1.3160   1.3194   1.6350   1.6367
     1.8059   1.8078   1.9252   1.9276   2.0512   2.0542

          k =-0.4810 0.6925 0.0000 ( 76294 PWs)   bands (ev):

   -58.3134 -58.3110 -58.3012 -58.2977 -57.8600 -57.8596 -34.8972 -34.8941
   -34.8812 -34.8800 -34.5433 -34.5415 -34.5304 -34.5273 -34.5214 -34.5183
   -34.5061 -34.5045 -34.4233 -34.4225 -34.2535 -34.2532 -34.0728 -34.0721
   -18.5035 -18.5013 -18.3645 -18.3623 -18.0824 -18.0808 -18.0059 -18.0044
   -17.8749 -17.8747 -17.4304 -17.4301  -6.2810  -6.2806  -6.1700  -6.1695
    -5.9764  -5.9762  -5.6505  -5.6497  -5.4613  -5.4607  -5.3643  -5.3631
    -4.8833  -4.8824  -4.6797  -4.6792  -4.1996  -4.1985  -4.0570  -4.0563
    -3.9668  -3.9657  -3.4757  -3.4749  -3.2173  -3.2147  -2.9954  -2.9944
    -2.8374  -2.8367  -2.6667  -2.6659  -2.4981  -2.4980  -2.4155  -2.4144
     0.8532   0.8553   1.1971   1.1982   1.6578   1.6591   1.7222   1.7249
     1.8151   1.8157   1.9836   1.9853   2.0890   2.0901

     the Fermi energy is    -0.5410 ev

!    total energy              =   -1077.91150770 Ry
     estimated scf accuracy    <          8.2E-09 Ry
     smearing contrib. (-TS)   =      -0.00000000 Ry
     internal energy E=F+TS    =   -1077.91150770 Ry

     The total energy is F=E-TS. E is the sum of the following terms:
     one-electron contribution =  -24666.67411402 Ry
     hartree contribution      =   12345.37133260 Ry
     xc contribution           =    -170.02877095 Ry
     ewald contribution        =   11413.42004467 Ry

     convergence has been achieved in   7 iterations

     Forces acting on atoms (cartesian axes, Ry/au):

     atom    1 type  1   force =     0.00055202    0.00000000   -0.00055732
     atom    2 type  1   force =     0.00027455    0.00000000    0.00079293
     atom    3 type  1   force =     0.00115061    0.00000000   -0.00010592
     atom    4 type  1   force =     0.00123197    0.00000000    0.00015609
     atom    5 type  1   force =     0.00069748    0.00000000   -0.00065205
     atom    6 type  1   force =     0.00058908    0.00000000    0.00005335
     atom    7 type  2   force =     0.00049956    0.00000000   -0.00123267
     atom    8 type  2   force =    -0.00028255    0.00000000   -0.00072539
     atom    9 type  2   force =    -0.00083436    0.00000000    0.00026117
     atom   10 type  2   force =    -0.00076290    0.00000000   -0.00120117
     atom   11 type  2   force =    -0.00031199    0.00000000    0.00198727
     atom   12 type  2   force =    -0.00064280    0.00000000    0.00078522
     atom   13 type  2   force =    -0.00100743    0.00000000    0.00110577
     atom   14 type  2   force =    -0.00066701    0.00000000    0.00025648
     atom   15 type  2   force =    -0.00005863    0.00000000   -0.00027936
     atom   16 type  2   force =    -0.00075703    0.00000000   -0.00204410
     atom   17 type  2   force =     0.00067315    0.00000000    0.00072245
     atom   18 type  2   force =    -0.00034373    0.00000000    0.00067725

     Total force =     0.004983     Total SCF correction =     0.000400


     Computing stress (Cartesian axis) and pressure

          total   stress  (Ry/bohr**3)                   (kbar)     P=       -0.31
  -0.00000240   0.00000000   0.00000019           -0.35        0.00        0.03
   0.00000000  -0.00000647   0.00000000            0.00       -0.95        0.00
   0.00000019   0.00000000   0.00000263            0.03        0.00        0.39

     Energy error            =      8.0E-05 Ry
     Gradient error          =      2.0E-03 Ry/Bohr
     Cell gradient error     =      9.5E-01 kbar

     number of scf cycles    =  17
     number of bfgs steps    =  16

     enthalpy           old  =   -1077.9114279619 Ry
     enthalpy           new  =   -1077.9115076994 Ry

     CASE: enthalpy          _new < enthalpy          _old

     new trust radius        =       0.0090509527 bohr
     new conv_thr            =       0.0000000100 Ry

     new unit-cell volume =   3563.10219 a.u.^3 (   527.99727 Ang^3 )
     density =      1.50704 g/cm^3

CELL_PARAMETERS (angstrom)
   4.776428299   0.000000000   0.000000000
   0.000000000   2.949522942   0.000000000
   0.000000000   0.000000000  37.478019714

ATOMIC_POSITIONS (angstrom)
Ti               0.1776522714        0.0000000000       14.6282971979
Ti               2.5301301036        1.4747613838       16.8430921696
Ti               0.1263593333        0.0000000000       19.2165340553
Ti               2.5136272626        1.4747613838       21.4571941293
Ti               0.1403118639        0.0000000000       23.8275590775
Ti               2.5656410738        1.4747613838       26.0434397414
O                0.6259314544        1.4747614715       13.6179733727
O                1.4562459274        0.0000000000       15.9535791510
O                3.2990458463        0.0000000000       17.7720017612
O                0.8940692495        1.4747614715       18.2802975027
O                3.7436454572        1.4747614715       15.4382610714
O                1.4796245590        0.0000000000       20.5627142442
O                3.2812433830        0.0000000000       22.3929191432
O                0.9059834646        1.4747614715       22.8965572072
O                3.8673131775        1.4747614715       20.1116275348
O                1.3587978710        0.0000000000       25.2285452045
O                3.0116768208        0.0000000000       27.0546477440
O                3.8459105634        1.4747614715       24.7196079361



     Writing config-only to output data dir ./Out/pwscf.save/
     NEW-OLD atomic charge density approx. for the potential

     negative rho (up, down):  1.804E-05 0.000E+00

     total cpu time spent up to now is      688.6 secs

     Self-consistent Calculation

     iteration #  1     ecut=   120.00 Ry     beta= 0.40
     Davidson diagonalization with overlap
     ethr =  1.00E-06,  avg # of iterations =  4.0

     Threshold (ethr) on eigenvalues was too large:
     Diagonalizing with lowered threshold

     Davidson diagonalization with overlap
     ethr =  2.48E-08,  avg # of iterations =  4.9

     negative rho (up, down):  1.048E-05 0.000E+00

     total cpu time spent up to now is      697.1 secs

     total energy              =   -1077.91155026 Ry
     estimated scf accuracy    <       0.00003482 Ry

     iteration #  2     ecut=   120.00 Ry     beta= 0.40
     Davidson diagonalization with overlap
     ethr =  2.42E-08,  avg # of iterations =  2.0

     negative rho (up, down):  4.736E-06 0.000E+00

     total cpu time spent up to now is      700.4 secs

     total energy              =   -1077.91155053 Ry
     estimated scf accuracy    <       0.00000728 Ry

     iteration #  3     ecut=   120.00 Ry     beta= 0.40
     Davidson diagonalization with overlap
     ethr =  5.06E-09,  avg # of iterations =  2.0

     negative rho (up, down):  2.616E-06 0.000E+00

     total cpu time spent up to now is      703.8 secs

     total energy              =   -1077.91155118 Ry
     estimated scf accuracy    <       0.00000360 Ry

     iteration #  4     ecut=   120.00 Ry     beta= 0.40
     Davidson diagonalization with overlap
     ethr =  2.50E-09,  avg # of iterations =  2.0

     negative rho (up, down):  1.385E-06 0.000E+00

     total cpu time spent up to now is      707.1 secs

     total energy              =   -1077.91155183 Ry
     estimated scf accuracy    <       0.00000036 Ry

     iteration #  5     ecut=   120.00 Ry     beta= 0.40
     Davidson diagonalization with overlap
     ethr =  2.47E-10,  avg # of iterations =  5.0

     negative rho (up, down):  3.950E-07 0.000E+00

     total cpu time spent up to now is      711.0 secs

     total energy              =   -1077.91155190 Ry
     estimated scf accuracy    <       0.00000013 Ry

     iteration #  6     ecut=   120.00 Ry     beta= 0.40
     Davidson diagonalization with overlap
     ethr =  8.78E-11,  avg # of iterations =  2.8

     negative rho (up, down):  6.642E-08 0.000E+00

     total cpu time spent up to now is      714.6 secs

     total energy              =   -1077.91155192 Ry
     estimated scf accuracy    <       0.00000001 Ry

     iteration #  7     ecut=   120.00 Ry     beta= 0.40
     Davidson diagonalization with overlap
     ethr =  9.44E-12,  avg # of iterations =  5.0

     negative rho (up, down):  2.879E-08 0.000E+00

     total cpu time spent up to now is      718.8 secs

     total energy              =   -1077.91155193 Ry
     estimated scf accuracy    <       0.00000001 Ry

     iteration #  8     ecut=   120.00 Ry     beta= 0.40
     Davidson diagonalization with overlap
     ethr =  6.97E-12,  avg # of iterations =  2.0

     total cpu time spent up to now is      722.0 secs

     End of self-consistent calculation

          k = 0.0000 0.0000 0.0000 ( 76179 PWs)   bands (ev):

   -58.3577 -58.3496 -58.3378 -58.3342 -57.8986 -57.8980 -34.6535 -34.6496
   -34.6253 -34.6239 -34.5642 -34.5579 -34.5403 -34.5306 -34.4513 -34.4476
   -34.4396 -34.4263 -34.2894 -34.2889 -34.1635 -34.1628 -33.9394 -33.9388
   -19.4409 -19.2311 -18.8704 -18.5348 -18.3834 -18.3792 -18.0191 -17.9827
   -17.8482 -17.8434 -17.4217 -17.4169  -6.9738  -6.6628  -6.5577  -6.4165
    -6.0312  -5.8261  -5.7972  -5.5500  -5.2291  -5.2238  -5.1486  -5.1333
    -4.9197  -4.7626  -4.7619  -4.5909  -4.3766  -4.2670  -4.1634  -3.7339
    -3.5984  -3.5024  -3.3590  -3.3218  -3.1044  -3.0989  -2.9160  -2.9126
    -2.8566  -2.6828  -2.5600  -2.3895  -2.3718  -2.1747  -1.9048  -1.6837
     0.6353   0.8252   0.9653   1.0418   1.1632   1.2138   1.2773   1.2866
     1.4448   1.5881   1.6030   2.1832   2.3072   2.3399

          k = 0.0000 0.1732 0.0000 ( 76281 PWs)   bands (ev):

   -58.3526 -58.3449 -58.3330 -58.3294 -57.8934 -57.8929 -34.6419 -34.6374
   -34.6145 -34.6119 -34.5632 -34.5552 -34.5373 -34.5281 -34.5057 -34.5014
   -34.4886 -34.4804 -34.2844 -34.2839 -34.1549 -34.1542 -33.9973 -33.9967
   -19.3190 -19.1197 -18.7760 -18.4494 -18.3080 -18.2980 -18.0597 -18.0183
   -17.8964 -17.8943 -17.4531 -17.4492  -6.8049  -6.5121  -6.4174  -6.2715
    -5.9439  -5.7763  -5.7467  -5.5782  -5.4275  -5.4190  -5.3518  -5.1686
    -4.8101  -4.7684  -4.5656  -4.4392  -4.2756  -4.0807  -4.0253  -3.8789
    -3.8499  -3.6417  -3.4780  -3.3461  -3.3415  -3.1849  -3.1731  -2.9643
    -2.9633  -2.9006  -2.6411  -2.4039  -2.3923  -2.1584  -1.9451  -1.7223
     0.7625   0.9356   1.0109   1.0547   1.1750   1.2299   1.3049   1.3518
     1.5275   1.6196   1.7411   1.8527   1.9024   2.3631

          k = 0.0000 0.3464 0.0000 ( 76251 PWs)   bands (ev):

   -58.3395 -58.3331 -58.3208 -58.3172 -57.8804 -57.8799 -34.6541 -34.6516
   -34.6450 -34.6287 -34.6012 -34.6003 -34.5776 -34.5716 -34.5393 -34.5372
   -34.5236 -34.5162 -34.2752 -34.2747 -34.1688 -34.1682 -34.1032 -34.1025
   -18.9969 -18.8339 -18.5654 -18.2999 -18.1632 -18.1339 -18.0825 -18.0795
   -18.0064 -18.0031 -17.5181 -17.5167  -6.3627  -6.1561  -6.0594  -5.9531
    -5.7787  -5.6861  -5.6644  -5.6175  -5.5796  -5.5692  -5.3702  -5.2269
    -4.7995  -4.6802  -4.5757  -4.5569  -4.4948  -4.2804  -4.1882  -4.1748
    -4.1213  -3.8192  -3.7951  -3.4830  -3.4635  -3.3073  -3.2481  -3.0112
    -2.8815  -2.8414  -2.7154  -2.6292  -2.6054  -2.2309  -2.0619  -1.9191
     0.8315   0.9894   1.0432   1.0647   1.1216   1.3736   1.3946   1.5127
     1.6933   1.7577   1.8683   1.8807   1.9740   2.1738

          k = 0.0000 0.5195 0.0000 ( 76270 PWs)   bands (ev):

   -58.3244 -58.3198 -58.3069 -58.3032 -57.8656 -57.8650 -34.7986 -34.7959
   -34.7922 -34.7814 -34.5691 -34.5652 -34.5423 -34.5405 -34.5292 -34.5269
   -34.5149 -34.5076 -34.3274 -34.3269 -34.2527 -34.2523 -34.0874 -34.0866
   -18.5939 -18.5166 -18.4609 -18.3815 -18.2104 -18.1125 -18.0295 -18.0259
   -17.9348 -17.9219 -17.5198 -17.5192  -5.9456  -5.8885  -5.8687  -5.8056
    -5.6984  -5.6780  -5.6714  -5.6297  -5.5218  -5.4679  -5.4650  -5.2809
    -5.0868  -5.0760  -4.7733  -4.7226  -4.5590  -4.2546  -4.1665  -4.1294
    -4.0512  -3.8593  -3.7509  -3.6069  -3.5625  -3.2728  -3.1706  -3.0889
    -3.0028  -2.9139  -2.8988  -2.7111  -2.6686  -2.3685  -2.3100  -2.2871
     0.7062   0.9095   0.9681   1.2673   1.4010   1.4332   1.6054   1.6090
     1.7659   1.8657   1.9484   2.0455   2.2153   2.2219

          k = 0.0000 0.6927 0.0000 ( 76376 PWs)   bands (ev):

   -58.3141 -58.3115 -58.2977 -58.2941 -57.8559 -57.8553 -34.8950 -34.8923
   -34.8854 -34.8818 -34.5435 -34.5403 -34.5294 -34.5259 -34.5161 -34.5131
   -34.5088 -34.5050 -34.4210 -34.4202 -34.2496 -34.2492 -34.0683 -34.0675
   -18.4994 -18.4770 -18.3810 -18.3279 -18.2312 -18.0671 -18.0303 -17.9650
   -17.8747 -17.8463 -17.4383 -17.4381  -6.2894  -6.2028  -6.0336  -5.9588
    -5.6669  -5.6611  -5.5716  -5.5115  -5.4093  -5.4082  -5.3192  -5.3171
    -4.9065  -4.8589  -4.5974  -4.4759  -4.3154  -4.2086  -4.1738  -4.1405
    -4.0958  -4.0398  -3.8861  -3.6278  -3.5045  -3.3028  -3.2262  -3.1149
    -3.0113  -2.9702  -2.9507  -2.8249  -2.7706  -2.6943  -2.4646  -2.3727
     0.6942   0.9175   1.0749   1.2315   1.3997   1.6596   1.6881   1.7451
     1.7987   1.8485   2.0751   2.0771   2.2891   2.3371

          k = 0.1604 0.0000 0.0000 ( 76264 PWs)   bands (ev):

   -58.3571 -58.3499 -58.3379 -58.3343 -57.8986 -57.8980 -34.6550 -34.6522
   -34.6257 -34.6244 -34.5632 -34.5584 -34.5389 -34.5302 -34.4505 -34.4470
   -34.4396 -34.4276 -34.2891 -34.2887 -34.1634 -34.1627 -33.9394 -33.9388
   -19.3683 -19.1882 -18.8719 -18.5739 -18.4017 -18.3959 -18.0232 -18.0087
   -17.8764 -17.8369 -17.4240 -17.4219  -6.8996  -6.7552  -6.4596  -6.4546
    -5.9182  -5.8173  -5.7587  -5.4432  -5.2343  -5.2314  -5.1548  -5.1366
    -4.8951  -4.7664  -4.7650  -4.5492  -4.4014  -4.2306  -4.0762  -3.7011
    -3.6389  -3.4568  -3.3387  -3.2760  -3.1366  -3.1256  -2.9879  -2.9375
    -2.7677  -2.7591  -2.6382  -2.5939  -2.5054  -2.3494  -2.0398  -1.8004
     0.6958   0.7738   0.9909   1.0578   1.2038   1.2199   1.2937   1.3935
     1.5404   1.6280   1.7514   2.1758   2.2539   2.2673

          k = 0.1604 0.1732 0.0000 ( 76282 PWs)   bands (ev):

   -58.3520 -58.3452 -58.3331 -58.3295 -57.8934 -57.8929 -34.6430 -34.6404
   -34.6144 -34.6128 -34.5619 -34.5559 -34.5362 -34.5277 -34.5047 -34.5012
   -34.4889 -34.4810 -34.2842 -34.2837 -34.1548 -34.1541 -33.9972 -33.9967
   -19.2500 -19.0786 -18.7767 -18.4881 -18.3168 -18.3148 -18.0631 -18.0481
   -17.9246 -17.8872 -17.4553 -17.4535  -6.7395  -6.6065  -6.3160  -6.3105
    -5.8690  -5.7806  -5.7146  -5.5749  -5.4635  -5.3973  -5.2865  -5.1091
    -4.7873  -4.7581  -4.5370  -4.4052  -4.3266  -4.1184  -3.9761  -3.8093
    -3.7835  -3.6962  -3.5427  -3.2864  -3.2792  -3.1907  -3.1694  -3.0272
    -2.9961  -2.9215  -2.6471  -2.5316  -2.5158  -2.3154  -2.0698  -1.8347
     0.7819   0.8881   1.0257   1.1381   1.1781   1.2641   1.3269   1.4182
     1.6107   1.6143   1.8155   1.8570   1.9237   2.3631

          k = 0.1604 0.3464 0.0000 ( 76223 PWs)   bands (ev):

   -58.3391 -58.3334 -58.3208 -58.3172 -57.8804 -57.8799 -34.6538 -34.6504
   -34.6455 -34.6302 -34.6043 -34.6002 -34.5767 -34.5729 -34.5398 -34.5371
   -34.5215 -34.5159 -34.2752 -34.2747 -34.1688 -34.1682 -34.1031 -34.1023
   -18.9405 -18.7982 -18.5593 -18.3248 -18.1571 -18.1438 -18.1146 -18.0965
   -18.0348 -17.9982 -17.5199 -17.5192  -6.3340  -6.2323  -6.0108  -5.9712
    -5.7995  -5.7911  -5.6651  -5.6439  -5.6141  -5.5470  -5.1856  -5.0679
    -4.8808  -4.7072  -4.6063  -4.5591  -4.3952  -4.3621  -4.1256  -4.1003
    -4.0770  -3.7999  -3.7720  -3.5213  -3.5069  -3.2550  -3.1901  -3.0558
    -2.9460  -2.8516  -2.7532  -2.6133  -2.5928  -2.3172  -2.1338  -1.9982
     0.8147   1.0039   1.0259   1.1172   1.1929   1.3764   1.4370   1.4992
     1.6930   1.7341   1.8653   1.8690   2.0820   2.1668

          k = 0.1604 0.5195 0.0000 ( 76310 PWs)   bands (ev):

   -58.3241 -58.3200 -58.3069 -58.3032 -57.8656 -57.8650 -34.7986 -34.7958
   -34.7914 -34.7823 -34.5701 -34.5666 -34.5431 -34.5400 -34.5300 -34.5265
   -34.5128 -34.5081 -34.3275 -34.3269 -34.2526 -34.2522 -34.0874 -34.0866
   -18.5711 -18.5007 -18.4458 -18.3621 -18.1945 -18.1656 -18.0616 -18.0153
   -17.9372 -17.9314 -17.5197 -17.5191  -5.9915  -5.9412  -5.8640  -5.8617
    -5.7735  -5.7086  -5.6534  -5.6381  -5.5931  -5.5029  -5.4797  -5.3550
    -5.1195  -4.8696  -4.6772  -4.6331  -4.4863  -4.2861  -4.2024  -4.0717
    -4.0644  -3.8952  -3.6801  -3.5856  -3.5622  -3.2087  -3.1593  -3.0834
    -3.0292  -2.9608  -2.8187  -2.6954  -2.6339  -2.3718  -2.3033  -2.2940
     0.7295   0.9314   0.9673   1.3359   1.4439   1.4650   1.5801   1.6284
     1.7937   1.8154   1.8853   1.9625   2.1375   2.2287

          k = 0.1604 0.6927 0.0000 ( 76348 PWs)   bands (ev):

   -58.3141 -58.3115 -58.2977 -58.2941 -57.8559 -57.8553 -34.8949 -34.8922
   -34.8852 -34.8821 -34.5436 -34.5411 -34.5294 -34.5262 -34.5161 -34.5131
   -34.5083 -34.5055 -34.4208 -34.4201 -34.2496 -34.2493 -34.0684 -34.0676
   -18.4988 -18.4883 -18.3640 -18.3607 -18.1642 -18.1121 -17.9929 -17.9890
   -17.8745 -17.8517 -17.4354 -17.4354  -6.2859  -6.2421  -6.0304  -6.0131
    -5.7453  -5.7179  -5.5686  -5.5337  -5.5172  -5.4469  -5.3547  -5.3101
    -5.0764  -4.8263  -4.5496  -4.5085  -4.3023  -4.2273  -4.1850  -4.0789
    -3.9726  -3.9709  -3.7638  -3.5431  -3.3709  -3.2183  -3.2111  -3.1366
    -2.9974  -2.9884  -2.9043  -2.7694  -2.7408  -2.6761  -2.4572  -2.3665
     0.7494   0.9287   1.1518   1.1820   1.5039   1.5803   1.7056   1.7448
     1.7960   1.8395   2.0502   2.0571   2.2235   2.2264

          k = 0.3208 0.0000 0.0000 ( 76372 PWs)   bands (ev):

   -58.3556 -58.3510 -58.3381 -58.3345 -57.8986 -57.8980 -34.6581 -34.6570
   -34.6268 -34.6253 -34.5620 -34.5589 -34.5349 -34.5303 -34.4489 -34.4457
   -34.4388 -34.4311 -34.2887 -34.2882 -34.1632 -34.1625 -33.9395 -33.9389
   -19.1706 -19.0771 -18.8817 -18.6824 -18.4791 -18.4713 -18.0372 -18.0197
   -17.8926 -17.8548 -17.4314 -17.4306  -6.8029  -6.7710  -6.5409  -6.4230
    -5.8322  -5.8143  -5.3830  -5.2484  -5.2439  -5.1662  -5.1440  -5.0980
    -4.7720  -4.7707  -4.7142  -4.4494  -4.4178  -4.3503  -3.9564  -3.8122
    -3.6807  -3.4060  -3.2999  -3.2803  -3.2309  -3.2270  -3.0226  -3.0046
    -2.9207  -2.8936  -2.7061  -2.7018  -2.6742  -2.6249  -2.3130  -2.1003
     0.7502   0.7590   0.9744   1.0663   1.1976   1.3303   1.4720   1.5396
     1.7159   1.8236   1.9933   2.1288   2.1389   2.1690

          k = 0.3208 0.1732 0.0000 ( 76383 PWs)   bands (ev):

   -58.3506 -58.3463 -58.3332 -58.3296 -57.8934 -57.8929 -34.6458 -34.6449
   -34.6152 -34.6138 -34.5603 -34.5567 -34.5330 -34.5280 -34.5034 -34.5002
   -34.4886 -34.4829 -34.2838 -34.2834 -34.1547 -34.1540 -33.9972 -33.9966
   -19.0622 -18.9724 -18.7849 -18.5933 -18.3921 -18.3842 -18.0752 -18.0577
   -17.9402 -17.9026 -17.4619 -17.4613  -6.6545  -6.6252  -6.3923  -6.2778
    -5.7748  -5.7612  -5.6101  -5.5658  -5.4887  -5.4363  -5.0564  -4.8481
    -4.7645  -4.7267  -4.4396  -4.3873  -4.2862  -4.1540  -3.9879  -3.8798
    -3.7076  -3.6432  -3.5305  -3.3396  -3.2975  -3.2160  -3.1664  -3.1629
    -3.0608  -2.9853  -2.8365  -2.7794  -2.5746  -2.5114  -2.2906  -2.0791
     0.8134   0.8232   1.0110   1.1480   1.3079   1.3289   1.4465   1.4952
     1.7361   1.7695   1.8625   1.9093   2.0478   2.3194

          k = 0.3208 0.3464 0.0000 ( 76318 PWs)   bands (ev):

   -58.3380 -58.3342 -58.3209 -58.3173 -57.8804 -57.8799 -34.6538 -34.6495
   -34.6434 -34.6338 -34.6088 -34.6014 -34.5767 -34.5746 -34.5399 -34.5368
   -34.5181 -34.5153 -34.2751 -34.2746 -34.1688 -34.1683 -34.1028 -34.1021
   -18.7871 -18.7064 -18.5525 -18.3989 -18.2355 -18.2272 -18.1143 -18.1000
   -18.0407 -18.0107 -17.5241 -17.5240  -6.2788  -6.2704  -6.0649  -5.9484
    -5.8692  -5.8220  -5.7354  -5.6583  -5.6398  -5.6181  -4.9877  -4.9533
    -4.7476  -4.6489  -4.5592  -4.5166  -4.4151  -4.3168  -4.0889  -4.0191
    -3.9147  -3.8119  -3.7657  -3.5769  -3.4591  -3.2527  -3.2474  -3.1195
    -2.9612  -2.9482  -2.7814  -2.6236  -2.5552  -2.5026  -2.3005  -2.1796
     0.9001   0.9662   1.0425   1.2189   1.2483   1.3491   1.4545   1.5395
     1.7473   1.7669   1.9677   1.9828   2.0881   2.1071

          k = 0.3208 0.5195 0.0000 ( 76259 PWs)   bands (ev):

   -58.3235 -58.3205 -58.3069 -58.3033 -57.8656 -57.8650 -34.7986 -34.7958
   -34.7893 -34.7844 -34.5720 -34.5692 -34.5434 -34.5415 -34.5290 -34.5264
   -34.5107 -34.5079 -34.3275 -34.3270 -34.2524 -34.2521 -34.0874 -34.0867
   -18.5121 -18.4658 -18.4103 -18.3196 -18.2518 -18.1628 -18.1222 -18.0354
   -17.9514 -17.9492 -17.5195 -17.5190  -6.0539  -6.0234  -5.9839  -5.8811
    -5.8360  -5.8267  -5.7010  -5.6868  -5.6515  -5.5127  -5.4410  -5.4264
    -5.0536  -4.7242  -4.6499  -4.5997  -4.3795  -4.2132  -4.1002  -4.0094
    -3.9977  -3.9033  -3.7031  -3.5017  -3.4356  -3.3198  -3.1788  -3.0667
    -2.9485  -2.8883  -2.7360  -2.6485  -2.5545  -2.4150  -2.3636  -2.3446
     0.8119   1.0156   1.0778   1.3900   1.4116   1.4921   1.5361   1.6257
     1.6871   1.7702   1.9353   1.9827   2.1022   2.1086

          k = 0.3208 0.6927 0.0000 ( 76319 PWs)   bands (ev):

   -58.3140 -58.3116 -58.2977 -58.2941 -57.8559 -57.8553 -34.8950 -34.8922
   -34.8845 -34.8827 -34.5443 -34.5421 -34.5291 -34.5260 -34.5168 -34.5138
   -34.5080 -34.5058 -34.4204 -34.4197 -34.2498 -34.2494 -34.0686 -34.0678
   -18.5020 -18.4986 -18.3805 -18.3542 -18.1193 -18.0744 -18.0297 -17.9843
   -17.8820 -17.8632 -17.4300 -17.4299  -6.2914  -6.2823  -6.1175  -6.1023
    -5.9264  -5.8843  -5.6555  -5.5562  -5.5143  -5.4452  -5.3669  -5.3644
    -5.0746  -4.8794  -4.6245  -4.5107  -4.2451  -4.1933  -4.1622  -4.0488
    -3.9955  -3.9048  -3.5281  -3.4334  -3.2698  -3.1904  -3.1017  -2.9855
    -2.9766  -2.8606  -2.7968  -2.7568  -2.5910  -2.5636  -2.4426  -2.3644
     0.8003   0.9473   1.1496   1.2785   1.5157   1.6240   1.7332   1.7405
     1.7797   1.8130   2.0142   2.0166   2.1166   2.1484

          k =-0.4812 0.0000 0.0000 ( 76438 PWs)   bands (ev):

   -58.3543 -58.3521 -58.3382 -58.3345 -57.8986 -57.8980 -34.6598 -34.6589
   -34.6274 -34.6259 -34.5610 -34.5597 -34.5320 -34.5313 -34.4482 -34.4449
   -34.4365 -34.4348 -34.2884 -34.2880 -34.1631 -34.1624 -33.9395 -33.9389
   -18.9710 -18.9701 -18.8800 -18.8764 -18.5352 -18.5339 -18.0208 -18.0191
   -17.8856 -17.8846 -17.4357 -17.4349  -6.7739  -6.7722  -6.4976  -6.4953
    -5.8226  -5.8213  -5.2538  -5.2530  -5.1628  -5.1563  -4.7735  -4.7732
    -4.7689  -4.7674  -4.6217  -4.6208  -4.3671  -4.3651  -4.1973  -4.1935
    -3.5374  -3.5340  -3.3190  -3.3169  -3.2415  -3.2394  -3.0415  -3.0379
    -2.9407  -2.9376  -2.7408  -2.7395  -2.6024  -2.6011  -2.4407  -2.4382
     0.7578   0.7595   1.0124   1.0129   1.3149   1.3160   1.5167   1.5191
     2.0418   2.0434   2.0552   2.0566   2.1755   2.1784

          k =-0.4812 0.1732 0.0000 ( 76384 PWs)   bands (ev):

   -58.3494 -58.3472 -58.3333 -58.3297 -57.8934 -57.8929 -34.6475 -34.6466
   -34.6157 -34.6144 -34.5587 -34.5579 -34.5304 -34.5292 -34.5029 -34.4997
   -34.4867 -34.4853 -34.2837 -34.2832 -34.1547 -34.1540 -33.9972 -33.9966
   -18.8725 -18.8717 -18.7821 -18.7787 -18.4478 -18.4464 -18.0557 -18.0541
   -17.9324 -17.9313 -17.4658 -17.4652  -6.6287  -6.6270  -6.3495  -6.3473
    -5.7621  -5.7612  -5.5553  -5.5542  -5.4644  -5.4606  -4.7806  -4.7800
    -4.6933  -4.6912  -4.3768  -4.3749  -4.1673  -4.1625  -4.0397  -4.0384
    -3.6513  -3.6494  -3.4926  -3.4912  -3.3552  -3.3537  -3.1976  -3.1951
    -3.0865  -3.0851  -2.8771  -2.8740  -2.5029  -2.5019  -2.3264  -2.3251
     0.8040   0.8062   1.0645   1.0652   1.3825   1.3839   1.5004   1.5010
     1.8015   1.8022   2.1201   2.1224   2.1700   2.1703

          k =-0.4812 0.3464 0.0000 ( 76352 PWs)   bands (ev):

   -58.3371 -58.3349 -58.3210 -58.3174 -57.8804 -57.8799 -34.6532 -34.6506
   -34.6391 -34.6380 -34.6069 -34.6062 -34.5770 -34.5750 -34.5393 -34.5371
   -34.5161 -34.5155 -34.2751 -34.2746 -34.1688 -34.1683 -34.1027 -34.1020
   -18.6262 -18.6254 -18.5482 -18.5458 -18.2898 -18.2892 -18.0923 -18.0903
   -18.0349 -18.0339 -17.5264 -17.5264  -6.2681  -6.2665  -6.0093  -6.0075
    -5.8718  -5.8706  -5.7467  -5.7449  -5.6180  -5.6172  -5.0119  -5.0105
    -4.5909  -4.5901  -4.5094  -4.5084  -4.1839  -4.1826  -4.0947  -4.0933
    -3.8181  -3.8166  -3.6582  -3.6562  -3.4467  -3.4456  -3.2909  -3.2876
    -2.9432  -2.9410  -2.6926  -2.6921  -2.5270  -2.5247  -2.3591  -2.3588
     0.9640   0.9669   1.1539   1.1550   1.2319   1.2345   1.5929   1.5938
     1.8576   1.8603   1.9960   1.9975   2.0493   2.0526

          k =-0.4812 0.5195 0.0000 ( 76318 PWs)   bands (ev):

   -58.3231 -58.3209 -58.3069 -58.3033 -57.8656 -57.8650 -34.7986 -34.7959
   -34.7872 -34.7863 -34.5723 -34.5712 -34.5433 -34.5418 -34.5285 -34.5270
   -34.5092 -34.5082 -34.3276 -34.3270 -34.2523 -34.2520 -34.0875 -34.0867
   -18.4569 -18.4562 -18.3647 -18.3633 -18.2232 -18.2221 -18.0860 -18.0849
   -17.9615 -17.9596 -17.5194 -17.5188  -6.0604  -6.0601  -5.9883  -5.9868
    -5.8615  -5.8598  -5.7388  -5.7385  -5.5991  -5.5984  -5.4167  -5.4154
    -4.8442  -4.8419  -4.6681  -4.6671  -4.2034  -4.2018  -4.0680  -4.0675
    -3.8504  -3.8492  -3.6283  -3.6267  -3.3899  -3.3894  -3.1037  -3.1029
    -2.8216  -2.8207  -2.6019  -2.6004  -2.5556  -2.5544  -2.4228  -2.4224
     1.0234   1.0248   1.2191   1.2209   1.3197   1.3229   1.6360   1.6378
     1.8085   1.8103   1.9279   1.9301   2.0554   2.0584

          k =-0.4812 0.6927 0.0000 ( 76294 PWs)   bands (ev):

   -58.3139 -58.3117 -58.2977 -58.2941 -57.8559 -57.8553 -34.8950 -34.8924
   -34.8839 -34.8831 -34.5446 -34.5428 -34.5283 -34.5252 -34.5181 -34.5151
   -34.5073 -34.5059 -34.4202 -34.4195 -34.2498 -34.2495 -34.0687 -34.0679
   -18.5031 -18.5023 -18.3726 -18.3698 -18.0825 -18.0817 -18.0066 -18.0056
   -17.8804 -17.8796 -17.4274 -17.4273  -6.2904  -6.2903  -6.1746  -6.1738
    -5.9804  -5.9800  -5.6543  -5.6534  -5.4663  -5.4659  -5.3674  -5.3672
    -4.8875  -4.8863  -4.6824  -4.6820  -4.2015  -4.2008  -4.0606  -4.0603
    -3.9658  -3.9654  -3.4747  -3.4742  -3.2148  -3.2127  -2.9977  -2.9965
    -2.8392  -2.8387  -2.6714  -2.6702  -2.5001  -2.4999  -2.4165  -2.4157
     0.8544   0.8566   1.1996   1.2006   1.6616   1.6626   1.7273   1.7296
     1.8152   1.8157   1.9878   1.9892   2.0931   2.0945

     the Fermi energy is    -0.5370 ev

!    total energy              =   -1077.91155193 Ry
     estimated scf accuracy    <          1.7E-09 Ry
     smearing contrib. (-TS)   =      -0.00000000 Ry
     internal energy E=F+TS    =   -1077.91155193 Ry

     The total energy is F=E-TS. E is the sum of the following terms:
     one-electron contribution =  -24685.10971911 Ry
     hartree contribution      =   12354.58901754 Ry
     xc contribution           =    -170.03725835 Ry
     ewald contribution        =   11422.64640800 Ry

     convergence has been achieved in   8 iterations

     Forces acting on atoms (cartesian axes, Ry/au):

     atom    1 type  1   force =     0.00031488    0.00000000   -0.00066831
     atom    2 type  1   force =     0.00029301    0.00000000    0.00053644
     atom    3 type  1   force =     0.00056539    0.00000000   -0.00076707
     atom    4 type  1   force =     0.00065388    0.00000000    0.00066467
     atom    5 type  1   force =     0.00060529    0.00000000   -0.00040557
     atom    6 type  1   force =     0.00025669    0.00000000    0.00027261
     atom    7 type  2   force =     0.00052835    0.00000000   -0.00091157
     atom    8 type  2   force =    -0.00010113    0.00000000   -0.00027173
     atom    9 type  2   force =    -0.00127797    0.00000000    0.00031144
     atom   10 type  2   force =    -0.00038319    0.00000000   -0.00129276
     atom   11 type  2   force =     0.00012765    0.00000000    0.00139044
     atom   12 type  2   force =    -0.00039006    0.00000000    0.00105269
     atom   13 type  2   force =    -0.00063105    0.00000000    0.00110093
     atom   14 type  2   force =    -0.00096703    0.00000000    0.00024534
     atom   15 type  2   force =     0.00016929    0.00000000   -0.00065649
     atom   16 type  2   force =    -0.00035261    0.00000000   -0.00123485
     atom   17 type  2   force =     0.00085197    0.00000000    0.00044773
     atom   18 type  2   force =    -0.00026336    0.00000000    0.00018606

     Total force =     0.004131     Total SCF correction =     0.000161


     Computing stress (Cartesian axis) and pressure

          total   stress  (Ry/bohr**3)                   (kbar)     P=        0.25
   0.00000200   0.00000000   0.00000018            0.29        0.00        0.03
   0.00000000  -0.00000095   0.00000000            0.00       -0.14        0.00
   0.00000018   0.00000000   0.00000403            0.03        0.00        0.59

     Energy error            =      4.4E-05 Ry
     Gradient error          =      1.4E-03 Ry/Bohr
     Cell gradient error     =      2.9E-01 kbar

     number of scf cycles    =  18
     number of bfgs steps    =  17

     enthalpy           old  =   -1077.9115076994 Ry
     enthalpy           new  =   -1077.9115519261 Ry

     CASE: enthalpy          _new < enthalpy          _old

     new trust radius        =       0.0071920862 bohr
     new conv_thr            =       0.0000000100 Ry

     new unit-cell volume =   3561.50890 a.u.^3 (   527.76117 Ang^3 )
     density =      1.50772 g/cm^3

CELL_PARAMETERS (angstrom)
   4.775804403   0.000000000   0.000000000
   0.000000000   2.948589167   0.000000000
   0.000000000   0.000000000  37.478019714

ATOMIC_POSITIONS (angstrom)
Ti               0.1774525716        0.0000000000       14.6270205617
Ti               2.5297380302        1.4742944959       16.8438604769
Ti               0.1279513328        0.0000000000       19.2165943463
Ti               2.5149175157        1.4742944959       21.4573708245
Ti               0.1405390935        0.0000000000       23.8268344698
Ti               2.5651987791        1.4742944959       26.0440675509
O                0.6235907390        1.4742945836       13.6149106015
O                1.4567689236        0.0000000000       15.9510871625
O                3.2975137082        0.0000000000       17.7734102807
O                0.8927537786        1.4742945836       18.2783877588
O                3.7445400026        1.4742945836       15.4413754076
O                1.4801578169        0.0000000000       20.5625083216
O                3.2792798257        0.0000000000       22.3949073219
O                0.9049127031        1.4742945836       22.8956084137
O                3.8682044176        1.4742945836       20.1126860181
O                1.3595255334        0.0000000000       25.2255683189
O                3.0093673267        0.0000000000       27.0568610180
O                3.8461183644        1.4742945836       24.7217893904



     Writing config-only to output data dir ./Out/pwscf.save/
     NEW-OLD atomic charge density approx. for the potential

     negative rho (up, down):  1.301E-05 0.000E+00

     total cpu time spent up to now is      727.9 secs

     Self-consistent Calculation

     iteration #  1     ecut=   120.00 Ry     beta= 0.40
     Davidson diagonalization with overlap
     ethr =  1.00E-06,  avg # of iterations =  4.0

     Threshold (ethr) on eigenvalues was too large:
     Diagonalizing with lowered threshold

     Davidson diagonalization with overlap
     ethr =  1.96E-08,  avg # of iterations =  4.5

     negative rho (up, down):  7.549E-06 0.000E+00

     total cpu time spent up to now is      736.3 secs

     total energy              =   -1077.91157716 Ry
     estimated scf accuracy    <       0.00002697 Ry

     iteration #  2     ecut=   120.00 Ry     beta= 0.40
     Davidson diagonalization with overlap
     ethr =  1.87E-08,  avg # of iterations =  2.1

     negative rho (up, down):  4.207E-06 0.000E+00

     total cpu time spent up to now is      739.7 secs

     total energy              =   -1077.91157860 Ry
     estimated scf accuracy    <       0.00000626 Ry

     iteration #  3     ecut=   120.00 Ry     beta= 0.40
     Davidson diagonalization with overlap
     ethr =  4.35E-09,  avg # of iterations =  3.1

     negative rho (up, down):  2.011E-06 0.000E+00

     total cpu time spent up to now is      743.3 secs

     total energy              =   -1077.91157935 Ry
     estimated scf accuracy    <       0.00000279 Ry

     iteration #  4     ecut=   120.00 Ry     beta= 0.40
     Davidson diagonalization with overlap
     ethr =  1.94E-09,  avg # of iterations =  2.9

     negative rho (up, down):  1.089E-06 0.000E+00

     total cpu time spent up to now is      746.7 secs

     total energy              =   -1077.91157984 Ry
     estimated scf accuracy    <       0.00000039 Ry

     iteration #  5     ecut=   120.00 Ry     beta= 0.40
     Davidson diagonalization with overlap
     ethr =  2.71E-10,  avg # of iterations =  4.7

     negative rho (up, down):  5.188E-07 0.000E+00

     total cpu time spent up to now is      750.7 secs

     total energy              =   -1077.91157996 Ry
     estimated scf accuracy    <       0.00000014 Ry

     iteration #  6     ecut=   120.00 Ry     beta= 0.40
     Davidson diagonalization with overlap
     ethr =  9.69E-11,  avg # of iterations =  3.5

     negative rho (up, down):  9.616E-08 0.000E+00

     total cpu time spent up to now is      754.2 secs

     total energy              =   -1077.91157998 Ry
     estimated scf accuracy    <       0.00000002 Ry

     iteration #  7     ecut=   120.00 Ry     beta= 0.40
     Davidson diagonalization with overlap
     ethr =  1.53E-11,  avg # of iterations =  5.0

     total cpu time spent up to now is      758.1 secs

     End of self-consistent calculation

          k = 0.0000 0.0000 0.0000 ( 76179 PWs)   bands (ev):

   -58.3627 -58.3543 -58.3348 -58.3300 -57.8967 -57.8953 -34.6573 -34.6526
   -34.6251 -34.6225 -34.5660 -34.5579 -34.5409 -34.5333 -34.4524 -34.4454
   -34.4397 -34.4305 -34.2876 -34.2864 -34.1616 -34.1601 -33.9373 -33.9359
   -19.4462 -19.2322 -18.8722 -18.5407 -18.3835 -18.3777 -18.0195 -17.9835
   -17.8556 -17.8527 -17.4220 -17.4173  -6.9786  -6.6635  -6.5659  -6.4209
    -6.0370  -5.8255  -5.7968  -5.5536  -5.2272  -5.2218  -5.1562  -5.1428
    -4.9230  -4.7583  -4.7576  -4.5987  -4.3813  -4.2766  -4.1664  -3.7354
    -3.5958  -3.5035  -3.3596  -3.3213  -3.1080  -3.1029  -2.9135  -2.9110
    -2.8576  -2.6893  -2.5680  -2.3924  -2.3780  -2.1735  -1.9036  -1.6874
     0.6343   0.8281   0.9606   1.0401   1.1602   1.2171   1.2776   1.2880
     1.4451   1.5895   1.6001   2.1833   2.3100   2.3428

          k = 0.0000 0.1732 0.0000 ( 76281 PWs)   bands (ev):

   -58.3576 -58.3496 -58.3299 -58.3251 -57.8916 -57.8901 -34.6456 -34.6403
   -34.6148 -34.6105 -34.5651 -34.5555 -34.5375 -34.5302 -34.5051 -34.4990
   -34.4910 -34.4849 -34.2826 -34.2814 -34.1530 -34.1515 -33.9953 -33.9939
   -19.3242 -19.1208 -18.7777 -18.4552 -18.3083 -18.2968 -18.0600 -18.0187
   -17.9055 -17.9019 -17.4532 -17.4494  -6.8095  -6.5123  -6.4258  -6.2756
    -5.9486  -5.7757  -5.7479  -5.5831  -5.4296  -5.4200  -5.3591  -5.1739
    -4.8101  -4.7668  -4.5664  -4.4423  -4.2774  -4.0861  -4.0277  -3.8802
    -3.8536  -3.6430  -3.4781  -3.3466  -3.3428  -3.1853  -3.1733  -2.9695
    -2.9664  -2.9033  -2.6463  -2.4074  -2.3976  -2.1580  -1.9432  -1.7262
     0.7605   0.9375   1.0075   1.0519   1.1763   1.2294   1.3069   1.3497
     1.5284   1.6193   1.7427   1.8536   1.9030   2.3639

          k = 0.0000 0.3465 0.0000 ( 76251 PWs)   bands (ev):

   -58.3445 -58.3378 -58.3176 -58.3128 -57.8786 -57.8771 -34.6569 -34.6506
   -34.6444 -34.6340 -34.6048 -34.6038 -34.5755 -34.5695 -34.5393 -34.5374
   -34.5257 -34.5192 -34.2734 -34.2722 -34.1670 -34.1657 -34.1012 -34.0997
   -19.0017 -18.8350 -18.5665 -18.3026 -18.1685 -18.1361 -18.0825 -18.0798
   -18.0132 -18.0088 -17.5177 -17.5164  -6.3672  -6.1561  -6.0676  -5.9551
    -5.7816  -5.6891  -5.6699  -5.6225  -5.5813  -5.5737  -5.3759  -5.2289
    -4.7974  -4.6811  -4.5759  -4.5588  -4.4973  -4.2853  -4.1904  -4.1738
    -4.1224  -3.8222  -3.7982  -3.4863  -3.4696  -3.3088  -3.2505  -3.0125
    -2.8834  -2.8456  -2.7206  -2.6325  -2.6079  -2.2305  -2.0603  -1.9241
     0.8268   0.9901   1.0419   1.0659   1.1224   1.3703   1.3934   1.5114
     1.6957   1.7602   1.8675   1.8816   1.9761   2.1746

          k = 0.0000 0.5197 0.0000 ( 76270 PWs)   bands (ev):

   -58.3294 -58.3245 -58.3036 -58.2988 -57.8637 -57.8622 -34.7994 -34.7965
   -34.7926 -34.7869 -34.5733 -34.5694 -34.5411 -34.5389 -34.5281 -34.5263
   -34.5170 -34.5105 -34.3259 -34.3246 -34.2509 -34.2498 -34.0853 -34.0837
   -18.5988 -18.5186 -18.4605 -18.3822 -18.2173 -18.1182 -18.0337 -18.0310
   -17.9345 -17.9235 -17.5183 -17.5182  -5.9511  -5.8944  -5.8727  -5.8076
    -5.6996  -5.6813  -5.6754  -5.6319  -5.5239  -5.4694  -5.4677  -5.2837
    -5.0896  -5.0827  -4.7775  -4.7257  -4.5614  -4.2559  -4.1673  -4.1309
    -4.0527  -3.8607  -3.7535  -3.6140  -3.5711  -3.2739  -3.1742  -3.0900
    -3.0034  -2.9179  -2.9026  -2.7123  -2.6700  -2.3727  -2.3127  -2.2865
     0.7028   0.9107   0.9690   1.2680   1.4000   1.4344   1.6043   1.6084
     1.7677   1.8686   1.9504   2.0434   2.2129   2.2234

          k = 0.0000 0.6929 0.0000 ( 76376 PWs)   bands (ev):

   -58.3193 -58.3161 -58.2944 -58.2896 -57.8539 -57.8525 -34.8938 -34.8927
   -34.8892 -34.8871 -34.5483 -34.5451 -34.5276 -34.5236 -34.5154 -34.5133
   -34.5105 -34.5069 -34.4195 -34.4180 -34.2477 -34.2467 -34.0662 -34.0646
   -18.5007 -18.4778 -18.3870 -18.3347 -18.2337 -18.0674 -18.0336 -17.9657
   -17.8787 -17.8511 -17.4369 -17.4363  -6.2933  -6.2067  -6.0350  -5.9621
    -5.6687  -5.6636  -5.5754  -5.5142  -5.4137  -5.4125  -5.3214  -5.3207
    -4.9122  -4.8616  -4.6008  -4.4785  -4.3184  -4.2151  -4.1766  -4.1438
    -4.0987  -4.0448  -3.8911  -3.6299  -3.5082  -3.3036  -3.2276  -3.1196
    -3.0142  -2.9742  -2.9537  -2.8293  -2.7697  -2.6961  -2.4649  -2.3746
     0.6929   0.9171   1.0775   1.2328   1.4023   1.6582   1.6901   1.7496
     1.8002   1.8457   2.0808   2.0832   2.2855   2.3344

          k = 0.1604 0.0000 0.0000 ( 76264 PWs)   bands (ev):

   -58.3622 -58.3547 -58.3348 -58.3300 -57.8967 -57.8953 -34.6587 -34.6554
   -34.6254 -34.6231 -34.5647 -34.5584 -34.5398 -34.5329 -34.4510 -34.4450
   -34.4399 -34.4318 -34.2874 -34.2862 -34.1615 -34.1600 -33.9374 -33.9360
   -19.3735 -19.1894 -18.8740 -18.5796 -18.4000 -18.3962 -18.0232 -18.0100
   -17.8844 -17.8457 -17.4242 -17.4221  -6.9042  -6.7589  -6.4641  -6.4596
    -5.9223  -5.8164  -5.7601  -5.4468  -5.2329  -5.2293  -5.1620  -5.1458
    -4.8985  -4.7621  -4.7607  -4.5556  -4.4072  -4.2334  -4.0837  -3.7021
    -3.6366  -3.4595  -3.3391  -3.2751  -3.1402  -3.1297  -2.9881  -2.9371
    -2.7674  -2.7635  -2.6440  -2.6005  -2.5100  -2.3494  -2.0405  -1.8049
     0.6944   0.7752   0.9901   1.0542   1.1988   1.2228   1.2975   1.3933
     1.5415   1.6293   1.7489   2.1762   2.2568   2.2699

          k = 0.1604 0.1732 0.0000 ( 76282 PWs)   bands (ev):

   -58.3571 -58.3500 -58.3300 -58.3252 -57.8916 -57.8901 -34.6466 -34.6435
   -34.6144 -34.6115 -34.5638 -34.5561 -34.5366 -34.5298 -34.5036 -34.4988
   -34.4917 -34.4854 -34.2824 -34.2812 -34.1529 -34.1515 -33.9953 -33.9939
   -19.2551 -19.0797 -18.7787 -18.4936 -18.3157 -18.3148 -18.0630 -18.0495
   -17.9326 -17.8959 -17.4553 -17.4536  -6.7439  -6.6101  -6.3201  -6.3153
    -5.8730  -5.7801  -5.7163  -5.5792  -5.4662  -5.3988  -5.2926  -5.1136
    -4.7865  -4.7563  -4.5390  -4.4081  -4.3282  -4.1194  -3.9805  -3.8121
    -3.7876  -3.6976  -3.5451  -3.2882  -3.2791  -3.1913  -3.1702  -3.0305
    -2.9985  -2.9253  -2.6519  -2.5373  -2.5204  -2.3157  -2.0688  -1.8389
     0.7791   0.8892   1.0244   1.1358   1.1788   1.2625   1.3263   1.4192
     1.6119   1.6153   1.8164   1.8582   1.9236   2.3637

          k = 0.1604 0.3465 0.0000 ( 76223 PWs)   bands (ev):

   -58.3441 -58.3381 -58.3177 -58.3129 -57.8786 -57.8771 -34.6558 -34.6496
   -34.6457 -34.6355 -34.6080 -34.6034 -34.5747 -34.5709 -34.5399 -34.5368
   -34.5238 -34.5191 -34.2734 -34.2722 -34.1671 -34.1658 -34.1011 -34.0996
   -18.9452 -18.7992 -18.5605 -18.3276 -18.1625 -18.1454 -18.1158 -18.0956
   -18.0414 -18.0049 -17.5195 -17.5188  -6.3386  -6.2356  -6.0129  -5.9761
    -5.8037  -5.7979  -5.6674  -5.6457  -5.6165  -5.5496  -5.1920  -5.0708
    -4.8795  -4.7093  -4.6057  -4.5594  -4.3985  -4.3643  -4.1294  -4.1002
    -4.0793  -3.8015  -3.7745  -3.5272  -3.5118  -3.2566  -3.1909  -3.0572
    -2.9488  -2.8559  -2.7595  -2.6166  -2.5949  -2.3175  -2.1323  -2.0030
     0.8099   1.0050   1.0255   1.1175   1.1943   1.3735   1.4351   1.4964
     1.6943   1.7370   1.8659   1.8710   2.0830   2.1670

          k = 0.1604 0.5197 0.0000 ( 76310 PWs)   bands (ev):

   -58.3292 -58.3247 -58.3036 -58.2988 -57.8637 -57.8622 -34.7989 -34.7961
   -34.7924 -34.7879 -34.5743 -34.5707 -34.5414 -34.5390 -34.5292 -34.5253
   -34.5150 -34.5112 -34.3259 -34.3246 -34.2508 -34.2498 -34.0853 -34.0838
   -18.5758 -18.5021 -18.4453 -18.3630 -18.2015 -18.1715 -18.0657 -18.0204
   -17.9374 -17.9332 -17.5182 -17.5181  -5.9972  -5.9475  -5.8681  -5.8656
    -5.7765  -5.7122  -5.6553  -5.6395  -5.5953  -5.5045  -5.4818  -5.3580
    -5.1236  -4.8743  -4.6803  -4.6363  -4.4901  -4.2869  -4.2033  -4.0731
    -4.0655  -3.8961  -3.6843  -3.5921  -3.5694  -3.2101  -3.1616  -3.0845
    -3.0305  -2.9645  -2.8224  -2.6968  -2.6363  -2.3749  -2.3028  -2.2981
     0.7255   0.9326   0.9688   1.3364   1.4445   1.4675   1.5776   1.6266
     1.7956   1.8151   1.8858   1.9648   2.1393   2.2287

          k = 0.1604 0.6929 0.0000 ( 76348 PWs)   bands (ev):

   -58.3192 -58.3161 -58.2944 -58.2896 -57.8539 -57.8525 -34.8936 -34.8924
   -34.8892 -34.8876 -34.5486 -34.5457 -34.5278 -34.5239 -34.5152 -34.5125
   -34.5107 -34.5078 -34.4194 -34.4179 -34.2478 -34.2468 -34.0663 -34.0647
   -18.4996 -18.4888 -18.3704 -18.3674 -18.1673 -18.1132 -17.9943 -17.9900
   -17.8785 -17.8571 -17.4340 -17.4336  -6.2904  -6.2465  -6.0321  -6.0157
    -5.7490  -5.7212  -5.5744  -5.5357  -5.5202  -5.4518  -5.3582  -5.3137
    -5.0790  -4.8283  -4.5521  -4.5116  -4.3060  -4.2297  -4.1893  -4.0840
    -3.9757  -3.9745  -3.7681  -3.5443  -3.3731  -3.2212  -3.2111  -3.1418
    -3.0001  -2.9912  -2.9078  -2.7692  -2.7457  -2.6789  -2.4581  -2.3688
     0.7475   0.9287   1.1538   1.1844   1.5065   1.5802   1.7062   1.7492
     1.7971   1.8364   2.0556   2.0625   2.2210   2.2247

          k = 0.3209 0.0000 0.0000 ( 76372 PWs)   bands (ev):

   -58.3607 -58.3558 -58.3349 -58.3301 -57.8967 -57.8953 -34.6615 -34.6604
   -34.6263 -34.6242 -34.5629 -34.5590 -34.5366 -34.5328 -34.4475 -34.4439
   -34.4406 -34.4356 -34.2869 -34.2857 -34.1613 -34.1599 -33.9374 -33.9360
   -19.1753 -19.0781 -18.8848 -18.6891 -18.4774 -18.4702 -18.0380 -18.0204
   -17.9007 -17.8640 -17.4314 -17.4305  -6.8071  -6.7747  -6.5458  -6.4275
    -5.8316  -5.8133  -5.3886  -5.2474  -5.2422  -5.1732  -5.1520  -5.1007
    -4.7676  -4.7662  -4.7175  -4.4530  -4.4224  -4.3539  -3.9592  -3.8153
    -3.6830  -3.4073  -3.3054  -3.2796  -3.2331  -3.2252  -3.0254  -3.0084
    -2.9245  -2.8983  -2.7058  -2.7047  -2.6788  -2.6290  -2.3183  -2.1063
     0.7487   0.7596   0.9742   1.0634   1.1958   1.3320   1.4734   1.5405
     1.7155   1.8252   1.9918   2.1317   2.1417   2.1698

          k = 0.3209 0.1732 0.0000 ( 76383 PWs)   bands (ev):

   -58.3558 -58.3510 -58.3301 -58.3253 -57.8916 -57.8901 -34.6491 -34.6484
   -34.6148 -34.6128 -34.5617 -34.5570 -34.5341 -34.5299 -34.5010 -34.4972
   -34.4931 -34.4874 -34.2821 -34.2809 -34.1528 -34.1513 -33.9952 -33.9939
   -19.0667 -18.9733 -18.7879 -18.5997 -18.3905 -18.3833 -18.0761 -18.0584
   -17.9482 -17.9117 -17.4618 -17.4611  -6.6586  -6.6290  -6.3968  -6.2820
    -5.7747  -5.7606  -5.6137  -5.5689  -5.4935  -5.4398  -5.0604  -4.8491
    -4.7622  -4.7253  -4.4422  -4.3880  -4.2881  -4.1568  -3.9904  -3.8863
    -3.7095  -3.6457  -3.5358  -3.3427  -3.2996  -3.2155  -3.1668  -3.1642
    -3.0618  -2.9920  -2.8403  -2.7846  -2.5792  -2.5141  -2.2923  -2.0838
     0.8107   0.8240   1.0102   1.1439   1.3080   1.3305   1.4458   1.4947
     1.7373   1.7712   1.8636   1.9114   2.0469   2.3193

          k = 0.3209 0.3465 0.0000 ( 76318 PWs)   bands (ev):

   -58.3431 -58.3389 -58.3177 -58.3129 -57.8786 -57.8771 -34.6538 -34.6488
   -34.6459 -34.6387 -34.6126 -34.6044 -34.5751 -34.5723 -34.5397 -34.5364
   -34.5209 -34.5185 -34.2733 -34.2721 -34.1671 -34.1658 -34.1008 -34.0993
   -18.7912 -18.7070 -18.5546 -18.4034 -18.2358 -18.2284 -18.1175 -18.1016
   -18.0464 -18.0181 -17.5236 -17.5233  -6.2828  -6.2745  -6.0684  -5.9507
    -5.8751  -5.8266  -5.7405  -5.6623  -5.6401  -5.6183  -4.9871  -4.9529
    -4.7516  -4.6535  -4.5583  -4.5172  -4.4170  -4.3205  -4.0935  -4.0207
    -3.9167  -3.8139  -3.7676  -3.5818  -3.4653  -3.2534  -3.2507  -3.1219
    -2.9634  -2.9484  -2.7896  -2.6266  -2.5583  -2.5049  -2.2997  -2.1836
     0.8949   0.9675   1.0425   1.2198   1.2498   1.3440   1.4524   1.5384
     1.7494   1.7681   1.9698   1.9850   2.0878   2.1067

          k = 0.3209 0.5197 0.0000 ( 76259 PWs)   bands (ev):

   -58.3286 -58.3251 -58.3036 -58.2988 -57.8637 -57.8622 -34.7981 -34.7955
   -34.7918 -34.7899 -34.5762 -34.5732 -34.5419 -34.5401 -34.5279 -34.5251
   -34.5135 -34.5111 -34.3260 -34.3247 -34.2507 -34.2496 -34.0854 -34.0838
   -18.5158 -18.4658 -18.4102 -18.3212 -18.2581 -18.1691 -18.1269 -18.0407
   -17.9523 -17.9510 -17.5179 -17.5179  -6.0601  -6.0300  -5.9898  -5.8848
    -5.8409  -5.8302  -5.7014  -5.6869  -5.6534  -5.5160  -5.4424  -5.4284
    -5.0591  -4.7270  -4.6519  -4.6033  -4.3821  -4.2124  -4.1009  -4.0107
    -4.0015  -3.9063  -3.7084  -3.5051  -3.4385  -3.3214  -3.1806  -3.0725
    -2.9507  -2.8877  -2.7393  -2.6506  -2.5585  -2.4181  -2.3637  -2.3499
     0.8082   1.0168   1.0790   1.3913   1.4140   1.4894   1.5374   1.6221
     1.6849   1.7735   1.9377   1.9854   2.1031   2.1094

          k = 0.3209 0.6929 0.0000 ( 76319 PWs)   bands (ev):

   -58.3191 -58.3162 -58.2944 -58.2896 -57.8539 -57.8525 -34.8937 -34.8922
   -34.8889 -34.8879 -34.5493 -34.5467 -34.5276 -34.5238 -34.5140 -34.5131
   -34.5108 -34.5094 -34.4190 -34.4175 -34.2479 -34.2469 -34.0665 -34.0649
   -18.5020 -18.4984 -18.3875 -18.3622 -18.1199 -18.0767 -18.0310 -17.9847
   -17.8865 -17.8696 -17.4287 -17.4282  -6.2976  -6.2886  -6.1210  -6.1051
    -5.9302  -5.8876  -5.6581  -5.5591  -5.5187  -5.4496  -5.3703  -5.3677
    -5.0779  -4.8809  -4.6263  -4.5146  -4.2483  -4.1954  -4.1657  -4.0537
    -3.9976  -3.9068  -3.5303  -3.4330  -3.2688  -3.1895  -3.1047  -2.9893
    -2.9826  -2.8613  -2.8030  -2.7568  -2.5957  -2.5691  -2.4447  -2.3678
     0.7983   0.9470   1.1522   1.2808   1.5164   1.6268   1.7366   1.7443
     1.7771   1.8095   2.0176   2.0205   2.1167   2.1477

          k =-0.4813 0.0000 0.0000 ( 76438 PWs)   bands (ev):

   -58.3596 -58.3568 -58.3350 -58.3302 -57.8968 -57.8953 -34.6631 -34.6625
   -34.6268 -34.6247 -34.5611 -34.5603 -34.5345 -34.5332 -34.4451 -34.4420
   -34.4407 -34.4397 -34.2867 -34.2855 -34.1613 -34.1598 -33.9374 -33.9361
   -18.9704 -18.9689 -18.8892 -18.8856 -18.5331 -18.5323 -18.0209 -18.0193
   -17.8948 -17.8939 -17.4356 -17.4347  -6.7777  -6.7764  -6.5022  -6.5002
    -5.8215  -5.8205  -5.2531  -5.2514  -5.1699  -5.1633  -4.7725  -4.7715
    -4.7690  -4.7687  -4.6237  -4.6228  -4.3713  -4.3699  -4.2005  -4.1969
    -3.5393  -3.5369  -3.3211  -3.3195  -3.2394  -3.2383  -3.0454  -3.0422
    -2.9467  -2.9438  -2.7396  -2.7390  -2.6078  -2.6068  -2.4482  -2.4457
     0.7572   0.7592   1.0106   1.0115   1.3142   1.3153   1.5181   1.5209
     2.0421   2.0448   2.0589   2.0589   2.1742   2.1774

          k =-0.4813 0.1732 0.0000 ( 76384 PWs)   bands (ev):

   -58.3547 -58.3519 -58.3301 -58.3253 -57.8916 -57.8901 -34.6508 -34.6501
   -34.6153 -34.6134 -34.5593 -34.5589 -34.5324 -34.5304 -34.5001 -34.4961
   -34.4919 -34.4903 -34.2819 -34.2807 -34.1528 -34.1513 -33.9952 -33.9938
   -18.8718 -18.8704 -18.7910 -18.7876 -18.4458 -18.4449 -18.0559 -18.0544
   -17.9415 -17.9405 -17.4655 -17.4648  -6.6325  -6.6311  -6.3537  -6.3518
    -5.7611  -5.7605  -5.5575  -5.5565  -5.4699  -5.4662  -4.7785  -4.7781
    -4.6931  -4.6919  -4.3774  -4.3759  -4.1733  -4.1686  -4.0416  -4.0406
    -3.6520  -3.6508  -3.4996  -3.4980  -3.3588  -3.3582  -3.1978  -3.1961
    -3.0882  -3.0869  -2.8800  -2.8772  -2.5074  -2.5065  -2.3308  -2.3294
     0.8036   0.8061   1.0613   1.0620   1.3828   1.3849   1.5006   1.5007
     1.8030   1.8049   2.1193   2.1222   2.1696   2.1699

          k =-0.4813 0.3465 0.0000 ( 76352 PWs)   bands (ev):

   -58.3424 -58.3395 -58.3178 -58.3129 -57.8786 -57.8771 -34.6524 -34.6501
   -34.6430 -34.6423 -34.6102 -34.6095 -34.5754 -34.5727 -34.5388 -34.5368
   -34.5194 -34.5183 -34.2733 -34.2721 -34.1671 -34.1658 -34.1007 -34.0992
   -18.6253 -18.6241 -18.5557 -18.5533 -18.2894 -18.2891 -18.0938 -18.0921
   -18.0424 -18.0416 -17.5258 -17.5255  -6.2719  -6.2705  -6.0126  -6.0111
    -5.8763  -5.8749  -5.7511  -5.7493  -5.6187  -5.6182  -5.0108  -5.0104
    -4.5932  -4.5922  -4.5084  -4.5075  -4.1880  -4.1872  -4.0978  -4.0967
    -3.8216  -3.8203  -3.6615  -3.6599  -3.4499  -3.4486  -3.2951  -3.2923
    -2.9430  -2.9409  -2.6969  -2.6962  -2.5297  -2.5278  -2.3621  -2.3618
     0.9640   0.9672   1.1489   1.1502   1.2326   1.2363   1.5915   1.5918
     1.8593   1.8632   1.9980   1.9991   2.0488   2.0524

          k =-0.4813 0.5197 0.0000 ( 76318 PWs)   bands (ev):

   -58.3283 -58.3254 -58.3036 -58.2988 -57.8637 -57.8622 -34.7972 -34.7960
   -34.7915 -34.7905 -34.5764 -34.5753 -34.5420 -34.5403 -34.5271 -34.5259
   -34.5125 -34.5110 -34.3260 -34.3247 -34.2506 -34.2495 -34.0854 -34.0838
   -18.4571 -18.4565 -18.3678 -18.3663 -18.2277 -18.2266 -18.0920 -18.0909
   -17.9626 -17.9614 -17.5178 -17.5177  -6.0670  -6.0662  -5.9945  -5.9928
    -5.8658  -5.8644  -5.7384  -5.7381  -5.6015  -5.6006  -5.4179  -5.4173
    -4.8491  -4.8470  -4.6701  -4.6694  -4.2033  -4.2022  -4.0696  -4.0690
    -3.8548  -3.8535  -3.6303  -3.6288  -3.3917  -3.3914  -3.1088  -3.1079
    -2.8202  -2.8192  -2.6065  -2.6057  -2.5611  -2.5597  -2.4242  -2.4238
     1.0215   1.0229   1.2186   1.2205   1.3217   1.3253   1.6348   1.6365
     1.8090   1.8113   1.9296   1.9317   2.0566   2.0598

          k =-0.4813 0.6929 0.0000 ( 76294 PWs)   bands (ev):

   -58.3191 -58.3162 -58.2944 -58.2896 -57.8539 -57.8524 -34.8938 -34.8925
   -34.8886 -34.8877 -34.5496 -34.5473 -34.5269 -34.5232 -34.5154 -34.5127
   -34.5116 -34.5092 -34.4188 -34.4173 -34.2480 -34.2470 -34.0665 -34.0650
   -18.5024 -18.5019 -18.3805 -18.3779 -18.0831 -18.0825 -18.0074 -18.0068
   -17.8863 -17.8856 -17.4261 -17.4257  -6.2983  -6.2979  -6.1788  -6.1777
    -5.9826  -5.9822  -5.6569  -5.6560  -5.4702  -5.4697  -5.3707  -5.3706
    -4.8914  -4.8900  -4.6847  -4.6840  -4.2047  -4.2037  -4.0654  -4.0649
    -3.9661  -3.9657  -3.4755  -3.4750  -3.2123  -3.2108  -3.0000  -2.9988
    -2.8419  -2.8413  -2.6773  -2.6760  -2.5050  -2.5044  -2.4198  -2.4193
     0.8533   0.8558   1.2014   1.2030   1.6640   1.6642   1.7312   1.7338
     1.8114   1.8125   1.9894   1.9910   2.0942   2.0961

     the Fermi energy is    -0.5368 ev

!    total energy              =   -1077.91157999 Ry
     estimated scf accuracy    <          5.2E-09 Ry
     smearing contrib. (-TS)   =      -0.00000000 Ry
     internal energy E=F+TS    =   -1077.91157999 Ry

     The total energy is F=E-TS. E is the sum of the following terms:
     one-electron contribution =  -24693.09538450 Ry
     hartree contribution      =   12358.57561284 Ry
     xc contribution           =    -170.04184877 Ry
     ewald contribution        =   11426.65004044 Ry

     convergence has been achieved in   7 iterations

     Forces acting on atoms (cartesian axes, Ry/au):

     atom    1 type  1   force =     0.00019677    0.00000000   -0.00054595
     atom    2 type  1   force =     0.00017776    0.00000000    0.00004032
     atom    3 type  1   force =     0.00003459    0.00000000   -0.00083032
     atom    4 type  1   force =     0.00007075    0.00000000    0.00069030
     atom    5 type  1   force =     0.00027719    0.00000000    0.00003394
     atom    6 type  1   force =     0.00009867    0.00000000    0.00033101
     atom    7 type  2   force =     0.00032321    0.00000000   -0.00043968
     atom    8 type  2   force =     0.00010251    0.00000000    0.00000632
     atom    9 type  2   force =    -0.00134573    0.00000000    0.00059458
     atom   10 type  2   force =    -0.00026277    0.00000000   -0.00119648
     atom   11 type  2   force =     0.00074384    0.00000000    0.00061523
     atom   12 type  2   force =    -0.00021319    0.00000000    0.00086064
     atom   13 type  2   force =    -0.00040195    0.00000000    0.00090958
     atom   14 type  2   force =    -0.00092259    0.00000000   -0.00010167
     atom   15 type  2   force =     0.00022309    0.00000000   -0.00066564
     atom   16 type  2   force =     0.00028645    0.00000000   -0.00016022
     atom   17 type  2   force =     0.00072330    0.00000000    0.00005188
     atom   18 type  2   force =    -0.00011191    0.00000000   -0.00019384

     Total force =     0.003234     Total SCF correction =     0.000194


     Computing stress (Cartesian axis) and pressure

          total   stress  (Ry/bohr**3)                   (kbar)     P=        0.55
   0.00000382   0.00000000   0.00000019            0.56        0.00        0.03
   0.00000000   0.00000316   0.00000000            0.00        0.47        0.00
   0.00000019   0.00000000   0.00000418            0.03        0.00        0.62

     Energy error            =      2.8E-05 Ry
     Gradient error          =      1.3E-03 Ry/Bohr
     Cell gradient error     =      5.6E-01 kbar

     number of scf cycles    =  19
     number of bfgs steps    =  18

     enthalpy           old  =   -1077.9115519261 Ry
     enthalpy           new  =   -1077.9115799858 Ry

     CASE: enthalpy          _new < enthalpy          _old

     new trust radius        =       0.0059213996 bohr
     new conv_thr            =       0.0000000100 Ry

     new unit-cell volume =   3561.10994 a.u.^3 (   527.70205 Ang^3 )
     density =      1.50788 g/cm^3

CELL_PARAMETERS (angstrom)
   4.775868122   0.000000000   0.000000000
   0.000000000   2.948219534   0.000000000
   0.000000000   0.000000000  37.478019714

ATOMIC_POSITIONS (angstrom)
Ti               0.1776133044        0.0000000000       14.6257718667
Ti               2.5297976472        1.4741096797       16.8444033904
Ti               0.1291292008        0.0000000000       19.2160854425
Ti               2.5161582985        1.4741096797       21.4579525611
Ti               0.1408614390        0.0000000000       23.8263770265
Ti               2.5653734722        1.4741096797       26.0447056905
O                0.6222796368        1.4741097674       13.6124438657
O                1.4573075995        0.0000000000       15.9492343807
O                3.2957253278        0.0000000000       17.7749034252
O                0.8916627402        1.4741097674       18.2761285969
O                3.7461970238        1.4741097674       15.4440653993
O                1.4804827856        0.0000000000       20.5629846195
O                3.2778812101        0.0000000000       22.3969978925
O                0.9035479547        1.4741097674       22.8948150963
O                3.8693925180        1.4741097674       20.1129593038
O                1.3604335888        0.0000000000       25.2233260662
O                3.0086501871        0.0000000000       27.0584210258
O                3.8465144221        1.4741097674       24.7232725943



     Writing config-only to output data dir ./Out/pwscf.save/
     NEW-OLD atomic charge density approx. for the potential

     negative rho (up, down):  1.015E-05 0.000E+00

     total cpu time spent up to now is      764.0 secs

     Self-consistent Calculation

     iteration #  1     ecut=   120.00 Ry     beta= 0.40
     Davidson diagonalization with overlap
     ethr =  1.00E-06,  avg # of iterations =  4.0

     Threshold (ethr) on eigenvalues was too large:
     Diagonalizing with lowered threshold

     Davidson diagonalization with overlap
     ethr =  1.36E-08,  avg # of iterations =  5.3

     negative rho (up, down):  5.885E-06 0.000E+00

     total cpu time spent up to now is      772.5 secs

     total energy              =   -1077.91159950 Ry
     estimated scf accuracy    <       0.00001946 Ry

     iteration #  2     ecut=   120.00 Ry     beta= 0.40
     Davidson diagonalization with overlap
     ethr =  1.35E-08,  avg # of iterations =  2.0

     negative rho (up, down):  3.337E-06 0.000E+00

     total cpu time spent up to now is      775.9 secs

     total energy              =   -1077.91160081 Ry
     estimated scf accuracy    <       0.00000451 Ry

     iteration #  3     ecut=   120.00 Ry     beta= 0.40
     Davidson diagonalization with overlap
     ethr =  3.13E-09,  avg # of iterations =  4.0

     negative rho (up, down):  1.529E-06 0.000E+00

     total cpu time spent up to now is      779.6 secs

     total energy              =   -1077.91160142 Ry
     estimated scf accuracy    <       0.00000186 Ry

     iteration #  4     ecut=   120.00 Ry     beta= 0.40
     Davidson diagonalization with overlap
     ethr =  1.29E-09,  avg # of iterations =  4.0

     negative rho (up, down):  7.834E-07 0.000E+00

     total cpu time spent up to now is      783.3 secs

     total energy              =   -1077.91160176 Ry
     estimated scf accuracy    <       0.00000021 Ry

     iteration #  5     ecut=   120.00 Ry     beta= 0.40
     Davidson diagonalization with overlap
     ethr =  1.48E-10,  avg # of iterations =  5.4

     negative rho (up, down):  3.881E-07 0.000E+00

     total cpu time spent up to now is      787.6 secs

     total energy              =   -1077.91160185 Ry
     estimated scf accuracy    <       0.00000012 Ry

     iteration #  6     ecut=   120.00 Ry     beta= 0.40
     Davidson diagonalization with overlap
     ethr =  8.47E-11,  avg # of iterations =  2.4

     negative rho (up, down):  7.336E-08 0.000E+00

     total cpu time spent up to now is      791.0 secs

     total energy              =   -1077.91160187 Ry
     estimated scf accuracy    <       0.00000002 Ry

     iteration #  7     ecut=   120.00 Ry     beta= 0.40
     Davidson diagonalization with overlap
     ethr =  1.11E-11,  avg # of iterations =  5.0

     total cpu time spent up to now is      794.9 secs

     End of self-consistent calculation

          k = 0.0000 0.0000 0.0000 ( 76179 PWs)   bands (ev):

   -58.3681 -58.3595 -58.3327 -58.3274 -57.8968 -57.8945 -34.6615 -34.6562
   -34.6253 -34.6218 -34.5685 -34.5589 -34.5415 -34.5355 -34.4563 -34.4452
   -34.4391 -34.4335 -34.2875 -34.2857 -34.1614 -34.1593 -33.9372 -33.9351
   -19.4492 -19.2329 -18.8721 -18.5444 -18.3832 -18.3764 -18.0191 -17.9844
   -17.8604 -17.8589 -17.4228 -17.4182  -6.9814  -6.6640  -6.5702  -6.4236
    -6.0394  -5.8242  -5.7957  -5.5555  -5.2265  -5.2206  -5.1608  -5.1490
    -4.9237  -4.7553  -4.7547  -4.6042  -4.3840  -4.2830  -4.1685  -3.7360
    -3.5934  -3.5037  -3.3600  -3.3213  -3.1114  -3.1066  -2.9113  -2.9097
    -2.8574  -2.6936  -2.5733  -2.3952  -2.3818  -2.1726  -1.9026  -1.6901
     0.6331   0.8309   0.9563   1.0384   1.1563   1.2186   1.2776   1.2878
     1.4440   1.5889   1.5963   2.1822   2.3107   2.3435

          k = 0.0000 0.1733 0.0000 ( 76281 PWs)   bands (ev):

   -58.3630 -58.3548 -58.3278 -58.3225 -57.8917 -57.8894 -34.6497 -34.6440
   -34.6154 -34.6099 -34.5675 -34.5568 -34.5378 -34.5321 -34.5073 -34.4987
   -34.4922 -34.4881 -34.2825 -34.2807 -34.1528 -34.1507 -33.9951 -33.9930
   -19.3271 -19.1215 -18.7774 -18.4590 -18.3081 -18.2958 -18.0595 -18.0193
   -17.9118 -17.9066 -17.4539 -17.4501  -6.8123  -6.5124  -6.4304  -6.2782
    -5.9504  -5.7745  -5.7477  -5.5855  -5.4308  -5.4206  -5.3637  -5.1773
    -4.8094  -4.7656  -4.5660  -4.4442  -4.2785  -4.0893  -4.0294  -3.8814
    -3.8562  -3.6433  -3.4775  -3.3465  -3.3431  -3.1859  -3.1736  -2.9732
    -2.9689  -2.9054  -2.6500  -2.4106  -2.4016  -2.1573  -1.9418  -1.7292
     0.7584   0.9390   1.0040   1.0487   1.1771   1.2283   1.3081   1.3463
     1.5278   1.6174   1.7423   1.8535   1.9025   2.3621

          k = 0.0000 0.3465 0.0000 ( 76251 PWs)   bands (ev):

   -58.3499 -58.3430 -58.3155 -58.3102 -57.8786 -57.8763 -34.6616 -34.6503
   -34.6436 -34.6391 -34.6088 -34.6074 -34.5744 -34.5685 -34.5410 -34.5385
   -34.5271 -34.5216 -34.2733 -34.2715 -34.1670 -34.1650 -34.1010 -34.0988
   -19.0046 -18.8358 -18.5658 -18.3043 -18.1718 -18.1383 -18.0819 -18.0798
   -18.0176 -18.0121 -17.5181 -17.5166  -6.3698  -6.1558  -6.0727  -5.9561
    -5.7832  -5.6907  -5.6732  -5.6251  -5.5813  -5.5760  -5.3790  -5.2303
    -4.7950  -4.6806  -4.5755  -4.5591  -4.4982  -4.2883  -4.1905  -4.1731
    -4.1227  -3.8245  -3.8006  -3.4891  -3.4740  -3.3098  -3.2520  -3.0133
    -2.8848  -2.8489  -2.7250  -2.6355  -2.6103  -2.2297  -2.0593  -1.9277
     0.8224   0.9899   1.0402   1.0658   1.1225   1.3668   1.3924   1.5091
     1.6963   1.7614   1.8658   1.8812   1.9761   2.1725

          k = 0.0000 0.5198 0.0000 ( 76270 PWs)   bands (ev):

   -58.3348 -58.3297 -58.3014 -58.2961 -57.8637 -57.8614 -34.8049 -34.7967
   -34.7925 -34.7892 -34.5778 -34.5738 -34.5416 -34.5391 -34.5283 -34.5263
   -34.5182 -34.5125 -34.3257 -34.3238 -34.2509 -34.2492 -34.0851 -34.0828
   -18.6018 -18.5202 -18.4593 -18.3821 -18.2214 -18.1218 -18.0371 -18.0342
   -17.9340 -17.9243 -17.5183 -17.5175  -5.9543  -5.8979  -5.8751  -5.8082
    -5.6995  -5.6824  -5.6777  -5.6326  -5.5245  -5.4714  -5.4662  -5.2848
    -5.0911  -5.0870  -4.7805  -4.7267  -4.5624  -4.2561  -4.1675  -4.1326
    -4.0536  -3.8617  -3.7549  -3.6192  -3.5764  -3.2750  -3.1771  -3.0906
    -3.0038  -2.9203  -2.9058  -2.7140  -2.6717  -2.3760  -2.3139  -2.2865
     0.6994   0.9110   0.9688   1.2670   1.3983   1.4342   1.6030   1.6071
     1.7682   1.8698   1.9511   2.0399   2.2085   2.2224

          k = 0.0000 0.6930 0.0000 ( 76376 PWs)   bands (ev):

   -58.3247 -58.3212 -58.2922 -58.2868 -57.8540 -57.8517 -34.8985 -34.8954
   -34.8903 -34.8868 -34.5532 -34.5499 -34.5269 -34.5230 -34.5192 -34.5166
   -34.5097 -34.5054 -34.4193 -34.4171 -34.2477 -34.2460 -34.0659 -34.0637
   -18.5009 -18.4779 -18.3905 -18.3387 -18.2353 -18.0680 -18.0354 -17.9661
   -17.8814 -17.8542 -17.4366 -17.4355  -6.2946  -6.2078  -6.0354  -5.9637
    -5.6685  -5.6635  -5.5772  -5.5156  -5.4158  -5.4146  -5.3226  -5.3212
    -4.9163  -4.8641  -4.6030  -4.4806  -4.3207  -4.2200  -4.1785  -4.1466
    -4.1010  -4.0480  -3.8937  -3.6305  -3.5098  -3.3034  -3.2283  -3.1226
    -3.0171  -2.9776  -2.9553  -2.8322  -2.7695  -2.6974  -2.4659  -2.3765
     0.6912   0.9159   1.0789   1.2325   1.4035   1.6554   1.6900   1.7515
     1.7999   1.8419   2.0836   2.0862   2.2803   2.3300

          k = 0.1604 0.0000 0.0000 ( 76264 PWs)   bands (ev):

   -58.3676 -58.3599 -58.3327 -58.3274 -57.8968 -57.8945 -34.6628 -34.6591
   -34.6254 -34.6225 -34.5670 -34.5594 -34.5406 -34.5351 -34.4549 -34.4449
   -34.4395 -34.4346 -34.2873 -34.2855 -34.1613 -34.1592 -33.9372 -33.9351
   -19.3765 -19.1900 -18.8741 -18.5832 -18.3985 -18.3959 -18.0229 -18.0112
   -17.8894 -17.8517 -17.4249 -17.4228  -6.9068  -6.7609  -6.4668  -6.4623
    -5.9238  -5.8149  -5.7599  -5.4488  -5.2324  -5.2281  -5.1662  -5.1518
    -4.8996  -4.7591  -4.7577  -4.5597  -4.4111  -4.2351  -4.0881  -3.7024
    -3.6344  -3.4615  -3.3393  -3.2747  -3.1434  -3.1333  -2.9876  -2.9367
    -2.7669  -2.7668  -2.6476  -2.6049  -2.5138  -2.3491  -2.0410  -1.8083
     0.6930   0.7764   0.9894   1.0509   1.1930   1.2240   1.2997   1.3928
     1.5411   1.6286   1.7453   2.1753   2.2573   2.2704

          k = 0.1604 0.1733 0.0000 ( 76282 PWs)   bands (ev):

   -58.3625 -58.3552 -58.3278 -58.3225 -57.8917 -57.8894 -34.6507 -34.6472
   -34.6148 -34.6110 -34.5662 -34.5573 -34.5371 -34.5316 -34.5055 -34.4988
   -34.4929 -34.4886 -34.2823 -34.2805 -34.1528 -34.1506 -33.9951 -33.9930
   -19.2580 -19.0804 -18.7787 -18.4972 -18.3154 -18.3138 -18.0625 -18.0507
   -17.9375 -17.9018 -17.4559 -17.4541  -6.7464  -6.6120  -6.3226  -6.3179
    -5.8747  -5.7790  -5.7165  -5.5815  -5.4679  -5.3994  -5.2963  -5.1166
    -4.7855  -4.7549  -4.5394  -4.4097  -4.3289  -4.1197  -3.9833  -3.8139
    -3.7903  -3.6986  -3.5461  -3.2891  -3.2785  -3.1920  -3.1711  -3.0326
    -3.0002  -2.9284  -2.6558  -2.5414  -2.5242  -2.3155  -2.0681  -1.8420
     0.7762   0.8900   1.0229   1.1330   1.1789   1.2603   1.3247   1.4196
     1.6110   1.6148   1.8158   1.8584   1.9222   2.3619

          k = 0.1604 0.3465 0.0000 ( 76223 PWs)   bands (ev):

   -58.3495 -58.3433 -58.3155 -58.3102 -57.8786 -57.8763 -34.6602 -34.6494
   -34.6453 -34.6404 -34.6117 -34.6069 -34.5737 -34.5699 -34.5414 -34.5377
   -34.5256 -34.5215 -34.2732 -34.2714 -34.1670 -34.1650 -34.1008 -34.0986
   -18.9480 -18.7999 -18.5601 -18.3294 -18.1659 -18.1468 -18.1166 -18.0947
   -18.0451 -18.0090 -17.5198 -17.5188  -6.3412  -6.2374  -6.0140  -5.9790
    -5.8057  -5.8016  -5.6687  -5.6461  -5.6170  -5.5505  -5.1959  -5.0728
    -4.8775  -4.7097  -4.6044  -4.5589  -4.3998  -4.3659  -4.1312  -4.0993
    -4.0809  -3.8027  -3.7766  -3.5310  -3.5156  -3.2574  -3.1917  -3.0582
    -2.9505  -2.8591  -2.7649  -2.6195  -2.5972  -2.3173  -2.1313  -2.0066
     0.8053   1.0048   1.0243   1.1172   1.1951   1.3708   1.4328   1.4927
     1.6939   1.7378   1.8658   1.8721   2.0820   2.1646

          k = 0.1604 0.5198 0.0000 ( 76310 PWs)   bands (ev):

   -58.3346 -58.3299 -58.3014 -58.2961 -57.8637 -57.8614 -34.8042 -34.7964
   -34.7929 -34.7896 -34.5788 -34.5750 -34.5412 -34.5400 -34.5291 -34.5249
   -34.5166 -34.5134 -34.3258 -34.3238 -34.2508 -34.2491 -34.0851 -34.0828
   -18.5787 -18.5031 -18.4441 -18.3633 -18.2057 -18.1750 -18.0688 -18.0238
   -17.9371 -17.9342 -17.5182 -17.5174  -6.0004  -5.9516  -5.8705  -5.8678
    -5.7770  -5.7144  -5.6557  -5.6393  -5.5956  -5.5050  -5.4817  -5.3589
    -5.1258  -4.8775  -4.6827  -4.6378  -4.4922  -4.2868  -4.2033  -4.0738
    -4.0667  -3.8970  -3.6871  -3.5957  -3.5744  -3.2109  -3.1629  -3.0855
    -3.0314  -2.9666  -2.8259  -2.6985  -2.6389  -2.3778  -2.3029  -2.3004
     0.7216   0.9328   0.9691   1.3356   1.4440   1.4685   1.5747   1.6243
     1.7961   1.8133   1.8849   1.9657   2.1385   2.2264

          k = 0.1604 0.6930 0.0000 ( 76348 PWs)   bands (ev):

   -58.3247 -58.3213 -58.2922 -58.2868 -57.8540 -57.8517 -34.8983 -34.8953
   -34.8905 -34.8869 -34.5535 -34.5504 -34.5270 -34.5234 -34.5190 -34.5156
   -34.5103 -34.5060 -34.4192 -34.4170 -34.2478 -34.2461 -34.0660 -34.0638
   -18.4996 -18.4887 -18.3741 -18.3713 -18.1694 -18.1140 -17.9951 -17.9905
   -17.8811 -17.8607 -17.4338 -17.4327  -6.2922  -6.2481  -6.0327  -6.0168
    -5.7501  -5.7221  -5.5769  -5.5368  -5.5214  -5.4549  -5.3600  -5.3145
    -5.0807  -4.8293  -4.5535  -4.5142  -4.3089  -4.2314  -4.1918  -4.0880
    -3.9782  -3.9770  -3.7703  -3.5445  -3.3739  -3.2229  -3.2105  -3.1458
    -3.0020  -2.9936  -2.9097  -2.7694  -2.7494  -2.6809  -2.4595  -2.3710
     0.7453   0.9279   1.1546   1.1856   1.5076   1.5787   1.7047   1.7510
     1.7965   1.8324   2.0580   2.0650   2.2166   2.2213

          k = 0.3209 0.0000 0.0000 ( 76372 PWs)   bands (ev):

   -58.3662 -58.3611 -58.3328 -58.3275 -57.8968 -57.8945 -34.6654 -34.6643
   -34.6262 -34.6237 -34.5647 -34.5600 -34.5381 -34.5349 -34.4512 -34.4443
   -34.4412 -34.4371 -34.2868 -34.2850 -34.1612 -34.1590 -33.9373 -33.9352
   -19.1781 -19.0787 -18.8859 -18.6931 -18.4758 -18.4691 -18.0383 -18.0209
   -17.9057 -17.8701 -17.4320 -17.4310  -6.8093  -6.7766  -6.5488  -6.4301
    -5.8303  -5.8117  -5.3909  -5.2471  -5.2412  -5.1773  -5.1571  -5.1021
    -4.7645  -4.7631  -4.7189  -4.4543  -4.4254  -4.3558  -3.9603  -3.8174
    -3.6838  -3.4085  -3.3096  -3.2790  -3.2349  -3.2237  -3.0267  -3.0111
    -2.9273  -2.9020  -2.7068  -2.7056  -2.6824  -2.6318  -2.3225  -2.1108
     0.7471   0.7601   0.9740   1.0607   1.1929   1.3326   1.4738   1.5399
     1.7142   1.8253   1.9891   2.1318   2.1419   2.1692

          k = 0.3209 0.1733 0.0000 ( 76383 PWs)   bands (ev):

   -58.3612 -58.3563 -58.3279 -58.3226 -57.8917 -57.8894 -34.6529 -34.6523
   -34.6149 -34.6126 -34.5637 -34.5583 -34.5352 -34.5315 -34.5015 -34.4984
   -34.4948 -34.4905 -34.2819 -34.2802 -34.1527 -34.1505 -33.9951 -33.9930
   -19.0695 -18.9739 -18.7889 -18.6037 -18.3891 -18.3823 -18.0765 -18.0590
   -17.9531 -17.9177 -17.4623 -17.4614  -6.6608  -6.6308  -6.3995  -6.2844
    -5.7738  -5.7593  -5.6156  -5.5709  -5.4965  -5.4415  -5.0622  -4.8494
    -4.7604  -4.7242  -4.4432  -4.3874  -4.2888  -4.1583  -3.9919  -3.8909
    -3.7105  -3.6475  -3.5389  -3.3444  -3.3009  -3.2153  -3.1669  -3.1654
    -3.0624  -2.9970  -2.8429  -2.7890  -2.5828  -2.5161  -2.2937  -2.0873
     0.8078   0.8242   1.0091   1.1400   1.3071   1.3313   1.4442   1.4930
     1.7373   1.7713   1.8635   1.9121   2.0445   2.3171

          k = 0.3209 0.3465 0.0000 ( 76318 PWs)   bands (ev):

   -58.3486 -58.3441 -58.3155 -58.3102 -57.8786 -57.8763 -34.6571 -34.6500
   -34.6469 -34.6419 -34.6166 -34.6074 -34.5742 -34.5712 -34.5407 -34.5371
   -34.5233 -34.5210 -34.2732 -34.2714 -34.1670 -34.1650 -34.1006 -34.0984
   -18.7937 -18.7074 -18.5550 -18.4061 -18.2358 -18.2291 -18.1192 -18.1028
   -18.0496 -18.0228 -17.5238 -17.5231  -6.2851  -6.2767  -6.0708  -5.9520
    -5.8782  -5.8290  -5.7435  -5.6644  -5.6394  -5.6176  -4.9858  -4.9513
    -4.7539  -4.6565  -4.5570  -4.5171  -4.4181  -4.3222  -4.0963  -4.0218
    -3.9171  -3.8154  -3.7690  -3.5853  -3.4695  -3.2537  -3.2528  -3.1231
    -2.9650  -2.9486  -2.7960  -2.6292  -2.5613  -2.5069  -2.2995  -2.1868
     0.8896   0.9676   1.0418   1.2199   1.2504   1.3387   1.4500   1.5364
     1.7498   1.7678   1.9710   1.9862   2.0852   2.1045

          k = 0.3209 0.5198 0.0000 ( 76259 PWs)   bands (ev):

   -58.3341 -58.3303 -58.3014 -58.2961 -57.8637 -57.8614 -34.8026 -34.7974
   -34.7933 -34.7898 -34.5806 -34.5776 -34.5420 -34.5405 -34.5277 -34.5245
   -34.5157 -34.5134 -34.3258 -34.3238 -34.2506 -34.2489 -34.0851 -34.0829
   -18.5179 -18.4655 -18.4093 -18.3228 -18.2613 -18.1734 -18.1300 -18.0443
   -17.9528 -17.9518 -17.5179 -17.5171  -6.0640  -6.0346  -5.9932  -5.8868
    -5.8437  -5.8315  -5.7003  -5.6856  -5.6536  -5.5174  -5.4426  -5.4288
    -5.0618  -4.7287  -4.6532  -4.6057  -4.3832  -4.2114  -4.1014  -4.0117
    -4.0034  -3.9090  -3.7121  -3.5076  -3.4396  -3.3217  -3.1814  -3.0764
    -2.9523  -2.8874  -2.7423  -2.6528  -2.5622  -2.4214  -2.3643  -2.3533
     0.8043   1.0168   1.0792   1.3913   1.4150   1.4859   1.5374   1.6181
     1.6818   1.7750   1.9383   1.9867   2.1019   2.1083

          k = 0.3209 0.6930 0.0000 ( 76319 PWs)   bands (ev):

   -58.3246 -58.3213 -58.2922 -58.2868 -57.8540 -57.8517 -34.8979 -34.8958
   -34.8904 -34.8869 -34.5542 -34.5514 -34.5270 -34.5235 -34.5177 -34.5148
   -34.5117 -34.5073 -34.4188 -34.4166 -34.2479 -34.2462 -34.0662 -34.0640
   -18.5014 -18.4977 -18.3915 -18.3670 -18.1203 -18.0785 -18.0316 -17.9849
   -17.8896 -17.8738 -17.4284 -17.4274  -6.3008  -6.2919  -6.1230  -6.1067
    -5.9315  -5.8883  -5.6592  -5.5605  -5.5206  -5.4514  -5.3722  -5.3696
    -5.0791  -4.8812  -4.6271  -4.5167  -4.2507  -4.1971  -4.1682  -4.0572
    -3.9991  -3.9083  -3.5317  -3.4325  -3.2675  -3.1885  -3.1063  -2.9921
    -2.9859  -2.8619  -2.8074  -2.7570  -2.5994  -2.5739  -2.4470  -2.3707
     0.7959   0.9460   1.1538   1.2819   1.5159   1.6279   1.7372   1.7457
     1.7737   1.8053   2.0183   2.0217   2.1147   2.1452

          k =-0.4813 0.0000 0.0000 ( 76438 PWs)   bands (ev):

   -58.3651 -58.3620 -58.3328 -58.3275 -57.8968 -57.8945 -34.6669 -34.6665
   -34.6267 -34.6243 -34.5622 -34.5619 -34.5368 -34.5348 -34.4476 -34.4449
   -34.4430 -34.4382 -34.2866 -34.2848 -34.1611 -34.1589 -33.9373 -33.9352
   -18.9699 -18.9678 -18.8948 -18.8910 -18.5311 -18.5308 -18.0206 -18.0194
   -17.9010 -17.8998 -17.4361 -17.4351  -6.7794  -6.7785  -6.5048  -6.5033
    -5.8197  -5.8192  -5.2530  -5.2505  -5.1744  -5.1675  -4.7737  -4.7723
    -4.7659  -4.7655  -4.6247  -4.6240  -4.3734  -4.3728  -4.2024  -4.1991
    -3.5396  -3.5384  -3.3225  -3.3212  -3.2374  -3.2372  -3.0487  -3.0461
    -2.9508  -2.9479  -2.7392  -2.7388  -2.6119  -2.6111  -2.4540  -2.4515
     0.7568   0.7586   1.0090   1.0103   1.3124   1.3134   1.5187   1.5216
     2.0412   2.0446   2.0582   2.0594   2.1719   2.1752

          k =-0.4813 0.1733 0.0000 ( 76384 PWs)   bands (ev):

   -58.3602 -58.3571 -58.3279 -58.3226 -57.8917 -57.8894 -34.6545 -34.6541
   -34.6154 -34.6131 -34.5609 -34.5605 -34.5340 -34.5316 -34.4986 -34.4982
   -34.4951 -34.4929 -34.2818 -34.2800 -34.1526 -34.1504 -33.9951 -33.9930
   -18.8713 -18.8693 -18.7965 -18.7930 -18.4439 -18.4436 -18.0557 -18.0546
   -17.9475 -17.9464 -17.4659 -17.4650  -6.6341  -6.6332  -6.3562  -6.3546
    -5.7596  -5.7593  -5.5590  -5.5577  -5.4731  -5.4695  -4.7765  -4.7763
    -4.6918  -4.6912  -4.3769  -4.3759  -4.1775  -4.1730  -4.0428  -4.0421
    -3.6521  -3.6515  -3.5042  -3.5024  -3.3617  -3.3605  -3.1978  -3.1970
    -3.0892  -3.0879  -2.8827  -2.8804  -2.5108  -2.5100  -2.3343  -2.3329
     0.8029   0.8052   1.0581   1.0588   1.3822   1.3847   1.4991   1.4999
     1.8032   1.8061   2.1172   2.1203   2.1673   2.1682

          k =-0.4813 0.3465 0.0000 ( 76352 PWs)   bands (ev):

   -58.3479 -58.3447 -58.3155 -58.3102 -57.8786 -57.8763 -34.6537 -34.6531
   -34.6458 -34.6442 -34.6136 -34.6128 -34.5746 -34.5716 -34.5392 -34.5379
   -34.5223 -34.5206 -34.2731 -34.2713 -34.1671 -34.1650 -34.1005 -34.0983
   -18.6247 -18.6231 -18.5603 -18.5578 -18.2888 -18.2886 -18.0946 -18.0934
   -18.0471 -18.0463 -17.5260 -17.5252  -6.2738  -6.2727  -6.0146  -6.0134
    -5.8788  -5.8770  -5.7535  -5.7517  -5.6186  -5.6180  -5.0092  -5.0086
    -4.5942  -4.5931  -4.5073  -4.5065  -4.1907  -4.1901  -4.0996  -4.0989
    -3.8238  -3.8228  -3.6635  -3.6626  -3.4517  -3.4502  -3.2977  -3.2955
    -2.9428  -2.9408  -2.7003  -2.6993  -2.5324  -2.5308  -2.3648  -2.3643
     0.9630   0.9661   1.1438   1.1452   1.2325   1.2370   1.5888   1.5897
     1.8603   1.8648   1.9976   1.9997   2.0467   2.0505

          k =-0.4813 0.5198 0.0000 ( 76318 PWs)   bands (ev):

   -58.3338 -58.3306 -58.3014 -58.2961 -57.8637 -57.8614 -34.8008 -34.7996
   -34.7931 -34.7896 -34.5808 -34.5796 -34.5421 -34.5405 -34.5267 -34.5254
   -34.5152 -34.5132 -34.3259 -34.3239 -34.2505 -34.2488 -34.0852 -34.0829
   -18.4566 -18.4563 -18.3696 -18.3679 -18.2306 -18.2295 -18.0958 -18.0948
   -17.9629 -17.9627 -17.5177 -17.5170  -6.0712  -6.0699  -5.9983  -5.9965
    -5.8679  -5.8668  -5.7369  -5.7366  -5.6019  -5.6008  -5.4183  -5.4174
    -4.8516  -4.8497  -4.6711  -4.6710  -4.2028  -4.2023  -4.0710  -4.0701
    -3.8576  -3.8562  -3.6318  -3.6304  -3.3925  -3.3915  -3.1120  -3.1108
    -2.8193  -2.8180  -2.6107  -2.6100  -2.5656  -2.5639  -2.4259  -2.4252
     1.0189   1.0203   1.2175   1.2193   1.3222   1.3258   1.6328   1.6347
     1.8078   1.8110   1.9296   1.9318   2.0560   2.0592

          k =-0.4813 0.6930 0.0000 ( 76294 PWs)   bands (ev):

   -58.3245 -58.3214 -58.2922 -58.2868 -57.8540 -57.8517 -34.8976 -34.8964
   -34.8902 -34.8867 -34.5545 -34.5520 -34.5265 -34.5230 -34.5177 -34.5150
   -34.5123 -34.5080 -34.4186 -34.4164 -34.2479 -34.2463 -34.0663 -34.0641
   -18.5011 -18.5010 -18.3851 -18.3826 -18.0835 -18.0831 -18.0079 -18.0075
   -17.8905 -17.8895 -17.4259 -17.4249  -6.3028  -6.3019  -6.1815  -6.1803
    -5.9826  -5.9823  -5.6578  -5.6569  -5.4717  -5.4711  -5.3726  -5.3721
    -4.8933  -4.8917  -4.6855  -4.6846  -4.2072  -4.2061  -4.0689  -4.0683
    -3.9661  -3.9659  -3.4762  -3.4757  -3.2096  -3.2087  -3.0011  -2.9997
    -2.8438  -2.8430  -2.6817  -2.6801  -2.5094  -2.5086  -2.4227  -2.4224
     0.8518   0.8543   1.2024   1.2044   1.6641   1.6648   1.7328   1.7354
     1.8068   1.8083   1.9886   1.9906   2.0933   2.0956

     the Fermi energy is    -0.5388 ev

!    total energy              =   -1077.91160187 Ry
     estimated scf accuracy    <          6.4E-09 Ry
     smearing contrib. (-TS)   =      -0.00000000 Ry
     internal energy E=F+TS    =   -1077.91160187 Ry

     The total energy is F=E-TS. E is the sum of the following terms:
     one-electron contribution =  -24693.14562910 Ry
     hartree contribution      =   12358.59525257 Ry
     xc contribution           =    -170.04213147 Ry
     ewald contribution        =   11426.68090613 Ry

     convergence has been achieved in   7 iterations

     Forces acting on atoms (cartesian axes, Ry/au):

     atom    1 type  1   force =     0.00018737    0.00000000   -0.00024894
     atom    2 type  1   force =     0.00003907    0.00000000   -0.00042956
     atom    3 type  1   force =    -0.00028559    0.00000000   -0.00055995
     atom    4 type  1   force =    -0.00031220    0.00000000    0.00033996
     atom    5 type  1   force =    -0.00005506    0.00000000    0.00048344
     atom    6 type  1   force =     0.00008399    0.00000000    0.00025331
     atom    7 type  2   force =     0.00007468    0.00000000    0.00002060
     atom    8 type  2   force =     0.00029983    0.00000000    0.00002039
     atom    9 type  2   force =    -0.00122657    0.00000000    0.00077975
     atom   10 type  2   force =    -0.00034006    0.00000000   -0.00094640
     atom   11 type  2   force =     0.00120379    0.00000000    0.00002153
     atom   12 type  2   force =    -0.00008112    0.00000000    0.00041652
     atom   13 type  2   force =    -0.00029656    0.00000000    0.00061828
     atom   14 type  2   force =    -0.00073756    0.00000000   -0.00035788
     atom   15 type  2   force =     0.00012535    0.00000000   -0.00039831
     atom   16 type  2   force =     0.00076509    0.00000000    0.00065150
     atom   17 type  2   force =     0.00049475    0.00000000   -0.00031626
     atom   18 type  2   force =     0.00006080    0.00000000   -0.00034798

     Total force =     0.002974     Total SCF correction =     0.000298
     SCF correction compared to forces is large: reduce conv_thr to get better values


     Computing stress (Cartesian axis) and pressure

          total   stress  (Ry/bohr**3)                   (kbar)     P=        0.56
   0.00000383   0.00000000   0.00000021            0.56        0.00        0.03
   0.00000000   0.00000453   0.00000000            0.00        0.67        0.00
   0.00000021   0.00000000   0.00000307            0.03        0.00        0.45

     Energy error            =      2.2E-05 Ry
     Gradient error          =      1.2E-03 Ry/Bohr
     Cell gradient error     =      6.7E-01 kbar

     number of scf cycles    =  20
     number of bfgs steps    =  19

     enthalpy           old  =   -1077.9115799858 Ry
     enthalpy           new  =   -1077.9116018661 Ry

     CASE: enthalpy          _new < enthalpy          _old

     new trust radius        =       0.0065135624 bohr
     new conv_thr            =       0.0000000100 Ry

     new unit-cell volume =   3561.37357 a.u.^3 (   527.74111 Ang^3 )
     density =      1.50777 g/cm^3

CELL_PARAMETERS (angstrom)
   4.776113805   0.000000000   0.000000000
   0.000000000   2.948286121   0.000000000
   0.000000000   0.000000000  37.478019714

ATOMIC_POSITIONS (angstrom)
Ti               0.1780967482        0.0000000000       14.6244528335
Ti               2.5300505254        1.4741429731       16.8447456718
Ti               0.1299108369        0.0000000000       19.2152648017
Ti               2.5170666711        1.4741429731       21.4587111180
Ti               0.1412092127        0.0000000000       23.8261560160
Ti               2.5659002230        1.4741429731       26.0454381041
O                0.6211617146        1.4741430607       13.6100911474
O                1.4581225414        0.0000000000       15.9475196747
O                3.2933310772        0.0000000000       17.7769016498
O                0.8903383413        1.4741430607       18.2734134583
O                3.7486847130        1.4741430607       15.4466372193
O                1.4807112385        0.0000000000       20.5636100692
O                3.2764038150        0.0000000000       22.3993636294
O                0.9017898707        1.4741430607       22.8937557095
O                3.8706599912        1.4741430607       20.1130767973
O                1.3617892502        0.0000000000       25.2215865696
O                3.0084902409        0.0000000000       27.0597146355
O                3.8471339647        1.4741430607       24.7244091389



     Writing config-only to output data dir ./Out/pwscf.save/
     NEW-OLD atomic charge density approx. for the potential

     negative rho (up, down):  9.993E-06 0.000E+00

     total cpu time spent up to now is      800.8 secs

     Self-consistent Calculation

     iteration #  1     ecut=   120.00 Ry     beta= 0.40
     Davidson diagonalization with overlap
     ethr =  1.00E-06,  avg # of iterations =  4.0

     Threshold (ethr) on eigenvalues was too large:
     Diagonalizing with lowered threshold

     Davidson diagonalization with overlap
     ethr =  1.40E-08,  avg # of iterations =  5.0

     negative rho (up, down):  5.797E-06 0.000E+00

     total cpu time spent up to now is      809.2 secs

     total energy              =   -1077.91162166 Ry
     estimated scf accuracy    <       0.00001979 Ry

     iteration #  2     ecut=   120.00 Ry     beta= 0.40
     Davidson diagonalization with overlap
     ethr =  1.37E-08,  avg # of iterations =  2.0

     negative rho (up, down):  2.933E-06 0.000E+00

     total cpu time spent up to now is      812.6 secs

     total energy              =   -1077.91162244 Ry
     estimated scf accuracy    <       0.00000429 Ry

     iteration #  3     ecut=   120.00 Ry     beta= 0.40
     Davidson diagonalization with overlap
     ethr =  2.98E-09,  avg # of iterations =  3.4

     negative rho (up, down):  1.416E-06 0.000E+00

     total cpu time spent up to now is      816.2 secs

     total energy              =   -1077.91162299 Ry
     estimated scf accuracy    <       0.00000201 Ry

     iteration #  4     ecut=   120.00 Ry     beta= 0.40
     Davidson diagonalization with overlap
     ethr =  1.40E-09,  avg # of iterations =  2.0

     negative rho (up, down):  7.208E-07 0.000E+00

     total cpu time spent up to now is      819.5 secs

     total energy              =   -1077.91162333 Ry
     estimated scf accuracy    <       0.00000018 Ry

     iteration #  5     ecut=   120.00 Ry     beta= 0.40
     Davidson diagonalization with overlap
     ethr =  1.28E-10,  avg # of iterations =  6.5

     negative rho (up, down):  3.150E-07 0.000E+00

     total cpu time spent up to now is      824.0 secs

     total energy              =   -1077.91162341 Ry
     estimated scf accuracy    <       0.00000013 Ry

     iteration #  6     ecut=   120.00 Ry     beta= 0.40
     Davidson diagonalization with overlap
     ethr =  9.13E-11,  avg # of iterations =  2.2

     negative rho (up, down):  5.716E-08 0.000E+00

     total cpu time spent up to now is      827.3 secs

     total energy              =   -1077.91162343 Ry
     estimated scf accuracy    <       0.00000001 Ry

     iteration #  7     ecut=   120.00 Ry     beta= 0.40
     Davidson diagonalization with overlap
     ethr =  9.22E-12,  avg # of iterations =  5.0

     total cpu time spent up to now is      831.4 secs

     End of self-consistent calculation

          k = 0.0000 0.0000 0.0000 ( 76179 PWs)   bands (ev):

   -58.3729 -58.3640 -58.3321 -58.3259 -57.8983 -57.8949 -34.6650 -34.6595
   -34.6259 -34.6217 -34.5709 -34.5605 -34.5423 -34.5370 -34.4604 -34.4469
   -34.4397 -34.4343 -34.2887 -34.2859 -34.1626 -34.1594 -33.9385 -33.9354
   -19.4502 -19.2332 -18.8707 -18.5461 -18.3827 -18.3755 -18.0184 -17.9850
   -17.8631 -17.8621 -17.4239 -17.4192  -6.9825  -6.6640  -6.5712  -6.4247
    -6.0392  -5.8229  -5.7945  -5.5563  -5.2262  -5.2201  -5.1623  -5.1521
    -4.9228  -4.7538  -4.7533  -4.6085  -4.3851  -4.2871  -4.1686  -3.7356
    -3.5910  -3.5031  -3.3604  -3.3217  -3.1143  -3.1097  -2.9101  -2.9088
    -2.8563  -2.6959  -2.5765  -2.3967  -2.3827  -2.1713  -1.9015  -1.6916
     0.6321   0.8329   0.9527   1.0368   1.1525   1.2184   1.2776   1.2864
     1.4418   1.5877   1.5923   2.1806   2.3098   2.3428

          k = 0.0000 0.1733 0.0000 ( 76281 PWs)   bands (ev):

   -58.3678 -58.3594 -58.3272 -58.3210 -57.8931 -57.8897 -34.6533 -34.6473
   -34.6165 -34.6100 -34.5697 -34.5585 -34.5385 -34.5333 -34.5106 -34.5003
   -34.4937 -34.4889 -34.2837 -34.2809 -34.1540 -34.1508 -33.9964 -33.9933
   -19.3282 -19.1218 -18.7761 -18.4608 -18.3078 -18.2951 -18.0586 -18.0196
   -17.9155 -17.9087 -17.4550 -17.4510  -6.8133  -6.5123  -6.4316  -6.2792
    -5.9503  -5.7734  -5.7471  -5.5860  -5.4308  -5.4208  -5.3663  -5.1788
    -4.8087  -4.7651  -4.5651  -4.4458  -4.2792  -4.0905  -4.0298  -3.8821
    -3.8577  -3.6429  -3.4767  -3.3455  -3.3426  -3.1865  -3.1737  -2.9750
    -2.9709  -2.9072  -2.6523  -2.4126  -2.4037  -2.1560  -1.9406  -1.7309
     0.7565   0.9399   1.0008   1.0456   1.1773   1.2270   1.3085   1.3424
     1.5259   1.6145   1.7412   1.8528   1.9016   2.3593

          k = 0.0000 0.3465 0.0000 ( 76251 PWs)   bands (ev):

   -58.3547 -58.3475 -58.3149 -58.3087 -57.8801 -57.8767 -34.6657 -34.6511
   -34.6437 -34.6425 -34.6121 -34.6103 -34.5744 -34.5683 -34.5434 -34.5400
   -34.5281 -34.5230 -34.2745 -34.2717 -34.1682 -34.1652 -34.1021 -34.0989
   -19.0058 -18.8362 -18.5644 -18.3052 -18.1732 -18.1397 -18.0810 -18.0794
   -18.0199 -18.0133 -17.5191 -17.5171  -6.3710  -6.1552  -6.0750  -5.9562
    -5.7839  -5.6913  -5.6748  -5.6257  -5.5801  -5.5764  -5.3798  -5.2312
    -4.7928  -4.6793  -4.5750  -4.5584  -4.4980  -4.2897  -4.1889  -4.1725
    -4.1225  -3.8262  -3.8020  -3.4905  -3.4771  -3.3105  -3.2527  -3.0138
    -2.8856  -2.8509  -2.7283  -2.6380  -2.6121  -2.2283  -2.0585  -1.9299
     0.8190   0.9889   1.0385   1.0649   1.1222   1.3635   1.3916   1.5065
     1.6953   1.7614   1.8637   1.8798   1.9751   2.1695

          k = 0.0000 0.5198 0.0000 ( 76270 PWs)   bands (ev):

   -58.3397 -58.3342 -58.3008 -58.2946 -57.8652 -57.8618 -34.8092 -34.7994
   -34.7930 -34.7886 -34.5816 -34.5776 -34.5433 -34.5406 -34.5292 -34.5262
   -34.5191 -34.5136 -34.3267 -34.3237 -34.2522 -34.2495 -34.0862 -34.0830
   -18.6032 -18.5211 -18.4581 -18.3815 -18.2233 -18.1232 -18.0388 -18.0357
   -17.9334 -17.9244 -17.5193 -17.5175  -5.9555  -5.8993  -5.8760  -5.8072
    -5.6987  -5.6820  -5.6787  -5.6324  -5.5240  -5.4730  -5.4626  -5.2848
    -5.0914  -5.0890  -4.7825  -4.7259  -4.5623  -4.2557  -4.1675  -4.1344
    -4.0539  -3.8618  -3.7555  -3.6226  -3.5787  -3.2766  -3.1793  -3.0901
    -3.0044  -2.9215  -2.9079  -2.7159  -2.6732  -2.3779  -2.3141  -2.2866
     0.6970   0.9107   0.9680   1.2652   1.3965   1.4332   1.6017   1.6055
     1.7676   1.8699   1.9506   2.0356   2.2036   2.2199

          k = 0.0000 0.6930 0.0000 ( 76376 PWs)   bands (ev):

   -58.3297 -58.3256 -58.2916 -58.2853 -57.8555 -57.8521 -34.9028 -34.8991
   -34.8901 -34.8857 -34.5573 -34.5537 -34.5280 -34.5243 -34.5223 -34.5185
   -34.5094 -34.5043 -34.4201 -34.4170 -34.2490 -34.2463 -34.0671 -34.0639
   -18.5004 -18.4774 -18.3919 -18.3405 -18.2361 -18.0684 -18.0359 -17.9662
   -17.8827 -17.8558 -17.4374 -17.4353  -6.2938  -6.2062  -6.0349  -5.9638
    -5.6670  -5.6616  -5.5776  -5.5158  -5.4160  -5.4153  -5.3233  -5.3195
    -4.9194  -4.8665  -4.6043  -4.4822  -4.3220  -4.2234  -4.1795  -4.1485
    -4.1029  -4.0498  -3.8941  -3.6299  -3.5101  -3.3026  -3.2284  -3.1241
    -3.0196  -2.9804  -2.9559  -2.8335  -2.7699  -2.6983  -2.4669  -2.3779
     0.6901   0.9148   1.0793   1.2315   1.4039   1.6521   1.6887   1.7513
     1.7984   1.8381   2.0840   2.0871   2.2748   2.3251

          k = 0.1604 0.0000 0.0000 ( 76264 PWs)   bands (ev):

   -58.3723 -58.3645 -58.3321 -58.3259 -57.8983 -57.8949 -34.6663 -34.6624
   -34.6261 -34.6224 -34.5693 -34.5609 -34.5415 -34.5366 -34.4591 -34.4469
   -34.4403 -34.4350 -34.2885 -34.2857 -34.1625 -34.1593 -33.9386 -33.9354
   -19.3775 -19.1902 -18.8731 -18.5847 -18.3975 -18.3953 -18.0223 -18.0119
   -17.8915 -17.8552 -17.4261 -17.4237  -6.9076  -6.7612  -6.4678  -6.4630
    -5.9233  -5.8135  -5.7591  -5.4496  -5.2322  -5.2274  -5.1675  -5.1549
    -4.8992  -4.7576  -4.7563  -4.5625  -4.4137  -4.2349  -4.0899  -3.7017
    -3.6321  -3.4630  -3.3395  -3.2749  -3.1461  -3.1360  -2.9867  -2.9364
    -2.7687  -2.7664  -2.6486  -2.6076  -2.5161  -2.3484  -2.0412  -1.8104
     0.6916   0.7773   0.9885   1.0483   1.1877   1.2239   1.3004   1.3921
     1.5394   1.6272   1.7415   2.1738   2.2561   2.2695

          k = 0.1604 0.1733 0.0000 ( 76282 PWs)   bands (ev):

   -58.3673 -58.3597 -58.3273 -58.3211 -57.8931 -57.8897 -34.6542 -34.6505
   -34.6157 -34.6112 -34.5684 -34.5589 -34.5379 -34.5329 -34.5089 -34.5005
   -34.4942 -34.4894 -34.2835 -34.2807 -34.1540 -34.1508 -33.9964 -33.9933
   -19.2591 -19.0806 -18.7776 -18.4988 -18.3151 -18.3129 -18.0618 -18.0514
   -17.9396 -17.9051 -17.4571 -17.4549  -6.7473  -6.6124  -6.3234  -6.3187
    -5.8747  -5.7780  -5.7160  -5.5820  -5.4683  -5.3989  -5.2981  -5.1182
    -4.7847  -4.7542  -4.5390  -4.4108  -4.3292  -4.1190  -3.9845  -3.8148
    -3.7914  -3.6993  -3.5460  -3.2893  -3.2773  -3.1926  -3.1717  -3.0339
    -3.0016  -2.9304  -2.6585  -2.5436  -2.5267  -2.3147  -2.0675  -1.8440
     0.7736   0.8902   1.0211   1.1300   1.1784   1.2581   1.3225   1.4196
     1.6085   1.6135   1.8144   1.8579   1.9204   2.3590

          k = 0.1604 0.3465 0.0000 ( 76223 PWs)   bands (ev):

   -58.3544 -58.3478 -58.3149 -58.3087 -57.8801 -57.8767 -34.6643 -34.6503
   -34.6459 -34.6433 -34.6147 -34.6099 -34.5738 -34.5697 -34.5434 -34.5391
   -34.5270 -34.5229 -34.2744 -34.2717 -34.1682 -34.1652 -34.1020 -34.0988
   -18.9492 -18.8003 -18.5589 -18.3302 -18.1674 -18.1475 -18.1169 -18.0938
   -18.0463 -18.0112 -17.5209 -17.5192  -6.3422  -6.2381  -6.0143  -5.9802
    -5.8062  -5.8031  -5.6694  -5.6457  -5.6163  -5.5497  -5.1976  -5.0744
    -4.8753  -4.7088  -4.6029  -4.5582  -4.3994  -4.3669  -4.1314  -4.0979
    -4.0816  -3.8033  -3.7780  -3.5331  -3.5179  -3.2579  -3.1925  -3.0588
    -2.9514  -2.8607  -2.7689  -2.6219  -2.5991  -2.3164  -2.1307  -2.0090
     0.8016   1.0038   1.0227   1.1165   1.1952   1.3685   1.4307   1.4891
     1.6921   1.7369   1.8650   1.8725   2.0802   2.1612

          k = 0.1604 0.5198 0.0000 ( 76310 PWs)   bands (ev):

   -58.3395 -58.3344 -58.3008 -58.2946 -57.8652 -57.8618 -34.8085 -34.7997
   -34.7932 -34.7887 -34.5826 -34.5787 -34.5425 -34.5420 -34.5295 -34.5250
   -34.5180 -34.5144 -34.3267 -34.3238 -34.2521 -34.2494 -34.0863 -34.0830
   -18.5799 -18.5037 -18.4428 -18.3630 -18.2077 -18.1762 -18.0704 -18.0254
   -17.9368 -17.9344 -17.5192 -17.5174  -6.0017  -5.9539  -5.8714  -5.8687
    -5.7755  -5.7153  -5.6552  -5.6384  -5.5948  -5.5048  -5.4800  -5.3585
    -5.1263  -4.8794  -4.6843  -4.6378  -4.4928  -4.2861  -4.2027  -4.0741
    -4.0679  -3.8975  -3.6883  -3.5971  -3.5773  -3.2111  -3.1637  -3.0864
    -3.0321  -2.9673  -2.8287  -2.7003  -2.6410  -2.3799  -2.3031  -2.3011
     0.7186   0.9323   0.9687   1.3342   1.4428   1.4686   1.5721   1.6221
     1.7955   1.8105   1.8833   1.9653   2.1364   2.2229

          k = 0.1604 0.6930 0.0000 ( 76348 PWs)   bands (ev):

   -58.3297 -58.3257 -58.2916 -58.2853 -57.8555 -57.8521 -34.9026 -34.8991
   -34.8902 -34.8858 -34.5576 -34.5542 -34.5282 -34.5249 -34.5217 -34.5178
   -34.5099 -34.5048 -34.4200 -34.4168 -34.2490 -34.2464 -34.0672 -34.0640
   -18.4989 -18.4880 -18.3755 -18.3730 -18.1705 -18.1143 -17.9954 -17.9907
   -17.8825 -17.8626 -17.4346 -17.4326  -6.2919  -6.2475  -6.0323  -6.0166
    -5.7496  -5.7214  -5.5770  -5.5374  -5.5213  -5.4566  -5.3606  -5.3134
    -5.0817  -4.8295  -4.5541  -4.5162  -4.3107  -4.2325  -4.1927  -4.0906
    -3.9800  -3.9784  -3.7707  -3.5439  -3.3737  -3.2236  -3.2095  -3.1482
    -3.0035  -2.9958  -2.9104  -2.7700  -2.7517  -2.6823  -2.4608  -2.3725
     0.7437   0.9270   1.1545   1.1859   1.5075   1.5765   1.7024   1.7509
     1.7950   1.8285   2.0581   2.0653   2.2118   2.2173

          k = 0.3208 0.0000 0.0000 ( 76372 PWs)   bands (ev):

   -58.3710 -58.3655 -58.3322 -58.3260 -57.8983 -57.8949 -34.6688 -34.6676
   -34.6267 -34.6237 -34.5667 -34.5615 -34.5396 -34.5362 -34.4556 -34.4474
   -34.4417 -34.4363 -34.2880 -34.2852 -34.1623 -34.1591 -33.9386 -33.9355
   -19.1792 -19.0788 -18.8856 -18.6949 -18.4747 -18.4682 -18.0381 -18.0211
   -17.9080 -17.8735 -17.4332 -17.4316  -6.8096  -6.7768  -6.5498  -6.4309
    -5.8290  -5.8103  -5.3906  -5.2468  -5.2407  -5.1785  -5.1597  -5.1024
    -4.7630  -4.7617  -4.7192  -4.4540  -4.4272  -4.3559  -3.9597  -3.8180
    -3.6831  -3.4091  -3.3127  -3.2787  -3.2364  -3.2226  -3.0269  -3.0126
    -2.9293  -2.9045  -2.7083  -2.7059  -2.6850  -2.6335  -2.3256  -2.1139
     0.7456   0.7604   0.9737   1.0585   1.1896   1.3323   1.4734   1.5386
     1.7125   1.8241   1.9861   2.1301   2.1404   2.1678

          k = 0.3208 0.1733 0.0000 ( 76383 PWs)   bands (ev):

   -58.3661 -58.3607 -58.3273 -58.3211 -57.8931 -57.8897 -34.6563 -34.6556
   -34.6156 -34.6129 -34.5658 -34.5599 -34.5363 -34.5326 -34.5051 -34.5006
   -34.4958 -34.4907 -34.2831 -34.2804 -34.1539 -34.1507 -33.9964 -33.9932
   -19.0705 -18.9740 -18.7885 -18.6054 -18.3881 -18.3816 -18.0764 -18.0592
   -17.9553 -17.9209 -17.4634 -17.4619  -6.6611  -6.6310  -6.4006  -6.2852
    -5.7728  -5.7581  -5.6159  -5.5715  -5.4978  -5.4413  -5.0619  -4.8492
    -4.7595  -4.7236  -4.4430  -4.3859  -4.2889  -4.1586  -3.9926  -3.8934
    -3.7106  -3.6488  -3.5401  -3.3449  -3.3012  -3.2158  -3.1668  -3.1659
    -3.0630  -3.0004  -2.8445  -2.7923  -2.5855  -2.5175  -2.2950  -2.0898
     0.8051   0.8239   1.0077   1.1365   1.3055   1.3313   1.4424   1.4913
     1.7362   1.7700   1.8626   1.9119   2.0414   2.3140

          k = 0.3208 0.3465 0.0000 ( 76318 PWs)   bands (ev):

   -58.3535 -58.3486 -58.3149 -58.3087 -57.8801 -57.8767 -34.6610 -34.6521
   -34.6486 -34.6429 -34.6199 -34.6100 -34.5745 -34.5709 -34.5423 -34.5384
   -34.5253 -34.5224 -34.2744 -34.2716 -34.1683 -34.1652 -34.1017 -34.0985
   -18.7948 -18.7076 -18.5545 -18.4072 -18.2356 -18.2293 -18.1197 -18.1034
   -18.0509 -18.0252 -17.5249 -17.5233  -6.2859  -6.2771  -6.0720  -5.9526
    -5.8789  -5.8292  -5.7449  -5.6647  -5.6386  -5.6166  -4.9842  -4.9492
    -4.7547  -4.6581  -4.5556  -4.5167  -4.4185  -4.3223  -4.0976  -4.0225
    -3.9164  -3.8161  -3.7698  -3.5873  -3.4720  -3.2540  -3.2534  -3.1230
    -2.9661  -2.9488  -2.8003  -2.6314  -2.5641  -2.5081  -2.2996  -2.1892
     0.8851   0.9667   1.0404   1.2194   1.2503   1.3339   1.4478   1.5342
     1.7489   1.7666   1.9714   1.9866   2.0817   2.1018

          k = 0.3208 0.5198 0.0000 ( 76259 PWs)   bands (ev):

   -58.3391 -58.3347 -58.3008 -58.2946 -57.8652 -57.8618 -34.8069 -34.8012
   -34.7933 -34.7887 -34.5844 -34.5812 -34.5434 -34.5419 -34.5281 -34.5246
   -34.5175 -34.5146 -34.3268 -34.3238 -34.2519 -34.2492 -34.0863 -34.0831
   -18.5186 -18.4649 -18.4082 -18.3238 -18.2620 -18.1757 -18.1314 -18.0460
   -17.9533 -17.9520 -17.5189 -17.5171  -6.0658  -6.0375  -5.9944  -5.8875
    -5.8446  -5.8311  -5.6986  -5.6837  -5.6528  -5.5176  -5.4420  -5.4283
    -5.0623  -4.7293  -4.6539  -4.6068  -4.3832  -4.2103  -4.1018  -4.0122
    -4.0035  -3.9111  -3.7141  -3.5089  -3.4395  -3.3204  -3.1814  -3.0785
    -2.9534  -2.8874  -2.7449  -2.6549  -2.5651  -2.4241  -2.3650  -2.3549
     0.8010   1.0161   1.0786   1.3902   1.4149   1.4824   1.5369   1.6145
     1.6786   1.7750   1.9375   1.9867   2.0995   2.1060

          k = 0.3208 0.6930 0.0000 ( 76319 PWs)   bands (ev):

   -58.3296 -58.3257 -58.2916 -58.2853 -57.8555 -57.8520 -34.9022 -34.8996
   -34.8902 -34.8857 -34.5583 -34.5551 -34.5284 -34.5249 -34.5208 -34.5169
   -34.5112 -34.5061 -34.4196 -34.4165 -34.2492 -34.2465 -34.0674 -34.0642
   -18.5003 -18.4965 -18.3931 -18.3690 -18.1204 -18.0796 -18.0317 -17.9849
   -17.8913 -17.8763 -17.4293 -17.4274  -6.3018  -6.2928  -6.1239  -6.1073
    -5.9312  -5.8874  -5.6591  -5.5609  -5.5206  -5.4514  -5.3731  -5.3704
    -5.0785  -4.8806  -4.6267  -4.5172  -4.2522  -4.1982  -4.1692  -4.0594
    -4.0003  -3.9094  -3.5319  -3.4316  -3.2657  -3.1875  -3.1071  -2.9940
    -2.9873  -2.8624  -2.8102  -2.7576  -2.6020  -2.5774  -2.4489  -2.3726
     0.7939   0.9449   1.1546   1.2822   1.5146   1.6276   1.7358   1.7452
     1.7705   1.8012   2.0169   2.0212   2.1117   2.1419

          k =-0.4813 0.0000 0.0000 ( 76438 PWs)   bands (ev):

   -58.3701 -58.3664 -58.3322 -58.3260 -57.8983 -57.8949 -34.6701 -34.6699
   -34.6273 -34.6243 -34.5640 -34.5634 -34.5386 -34.5359 -34.4524 -34.4492
   -34.4425 -34.4368 -34.2878 -34.2850 -34.1623 -34.1590 -33.9386 -33.9355
   -18.9692 -18.9671 -18.8971 -18.8933 -18.5299 -18.5296 -18.0204 -18.0189
   -17.9043 -17.9026 -17.4372 -17.4357  -6.7793  -6.7787  -6.5057  -6.5045
    -5.8183  -5.8178  -5.2529  -5.2498  -5.1761  -5.1692  -4.7725  -4.7706
    -4.7643  -4.7642  -4.6248  -4.6244  -4.3743  -4.3736  -4.2032  -4.2000
    -3.5386  -3.5380  -3.3231  -3.3221  -3.2364  -3.2357  -3.0511  -3.0499
    -2.9532  -2.9502  -2.7398  -2.7392  -2.6152  -2.6140  -2.4583  -2.4561
     0.7562   0.7579   1.0074   1.0093   1.3101   1.3114   1.5187   1.5217
     2.0393   2.0438   2.0554   2.0581   2.1689   2.1724

          k =-0.4813 0.1733 0.0000 ( 76384 PWs)   bands (ev):

   -58.3653 -58.3615 -58.3273 -58.3211 -57.8931 -57.8897 -34.6578 -34.6575
   -34.6161 -34.6134 -34.5630 -34.5621 -34.5355 -34.5324 -34.5028 -34.5004
   -34.4969 -34.4918 -34.2830 -34.2802 -34.1538 -34.1506 -33.9963 -33.9932
   -18.8706 -18.8686 -18.7987 -18.7952 -18.4429 -18.4425 -18.0555 -18.0542
   -17.9507 -17.9493 -17.4670 -17.4655  -6.6341  -6.6334  -6.3570  -6.3557
    -5.7583  -5.7581  -5.5593  -5.5578  -5.4741  -5.4707  -4.7749  -4.7748
    -4.6901  -4.6893  -4.3755  -4.3748  -4.1800  -4.1759  -4.0433  -4.0430
    -3.6520  -3.6511  -3.5068  -3.5047  -3.3632  -3.3609  -3.1978  -3.1976
    -3.0897  -3.0884  -2.8848  -2.8837  -2.5134  -2.5126  -2.3371  -2.3357
     0.8018   0.8042   1.0550   1.0559   1.3809   1.3839   1.4973   1.4988
     1.8023   1.8064   2.1141   2.1177   2.1638   2.1659

          k =-0.4813 0.3465 0.0000 ( 76352 PWs)   bands (ev):

   -58.3529 -58.3491 -58.3149 -58.3087 -57.8801 -57.8767 -34.6573 -34.6561
   -34.6476 -34.6447 -34.6165 -34.6155 -34.5748 -34.5713 -34.5404 -34.5395
   -34.5246 -34.5220 -34.2743 -34.2716 -34.1683 -34.1652 -34.1016 -34.0984
   -18.6240 -18.6226 -18.5621 -18.5597 -18.2882 -18.2881 -18.0948 -18.0935
   -18.0494 -18.0488 -17.5270 -17.5254  -6.2742  -6.2733  -6.0154  -6.0144
    -5.8793  -5.8773  -5.7542  -5.7525  -5.6181  -5.6174  -5.0073  -5.0062
    -4.5942  -4.5929  -4.5064  -4.5054  -4.1921  -4.1914  -4.1004  -4.1000
    -3.8251  -3.8242  -3.6644  -3.6639  -3.4522  -3.4504  -3.2985  -3.2973
    -2.9427  -2.9406  -2.7026  -2.7011  -2.5349  -2.5338  -2.3670  -2.3666
     0.9613   0.9647   1.1389   1.1407   1.2315   1.2370   1.5860   1.5878
     1.8604   1.8656   1.9953   1.9991   2.0442   2.0481

          k =-0.4813 0.5198 0.0000 ( 76318 PWs)   bands (ev):

   -58.3388 -58.3350 -58.3008 -58.2946 -57.8652 -57.8618 -34.8052 -34.8032
   -34.7931 -34.7886 -34.5846 -34.5833 -34.5434 -34.5419 -34.5274 -34.5252
   -34.5172 -34.5143 -34.3268 -34.3238 -34.2518 -34.2491 -34.0863 -34.0831
   -18.4558 -18.4555 -18.3701 -18.3685 -18.2319 -18.2309 -18.0978 -18.0967
   -17.9633 -17.9632 -17.5187 -17.5169  -6.0734  -6.0717  -6.0001  -5.9986
    -5.8682  -5.8675  -5.7351  -5.7349  -5.6010  -5.6000  -5.4179  -5.4167
    -4.8520  -4.8503  -4.6716  -4.6715  -4.2022  -4.2019  -4.0722  -4.0706
    -3.8589  -3.8575  -3.6324  -3.6313  -3.3916  -3.3903  -3.1134  -3.1123
    -2.8192  -2.8173  -2.6142  -2.6130  -2.5688  -2.5669  -2.4274  -2.4268
     1.0162   1.0177   1.2159   1.2178   1.3213   1.3254   1.6304   1.6329
     1.8056   1.8101   1.9281   1.9310   2.0544   2.0577

          k =-0.4813 0.6930 0.0000 ( 76294 PWs)   bands (ev):

   -58.3296 -58.3257 -58.2916 -58.2853 -57.8554 -57.8520 -34.9019 -34.9001
   -34.8900 -34.8856 -34.5586 -34.5557 -34.5279 -34.5246 -34.5206 -34.5168
   -34.5120 -34.5068 -34.4194 -34.4163 -34.2492 -34.2466 -34.0675 -34.0643
   -18.4998 -18.4997 -18.3868 -18.3846 -18.0838 -18.0833 -18.0081 -18.0078
   -17.8929 -17.8919 -17.4268 -17.4248  -6.3047  -6.3036  -6.1832  -6.1820
    -5.9813  -5.9812  -5.6576  -5.6567  -5.4715  -5.4709  -5.3731  -5.3728
    -4.8935  -4.8917  -4.6852  -4.6841  -4.2091  -4.2073  -4.0712  -4.0701
    -3.9661  -3.9657  -3.4765  -3.4759  -3.2069  -3.2064  -3.0013  -2.9998
    -2.8453  -2.8440  -2.6846  -2.6829  -2.5128  -2.5120  -2.4248  -2.4247
     0.8503   0.8530   1.2026   1.2050   1.6630   1.6645   1.7322   1.7354
     1.8020   1.8043   1.9860   1.9890   2.0911   2.0938

     the Fermi energy is    -0.5418 ev

!    total energy              =   -1077.91162343 Ry
     estimated scf accuracy    <          8.8E-09 Ry
     smearing contrib. (-TS)   =      -0.00000000 Ry
     internal energy E=F+TS    =   -1077.91162343 Ry

     The total energy is F=E-TS. E is the sum of the following terms:
     one-electron contribution =  -24688.42282448 Ry
     hartree contribution      =   12356.22637814 Ry
     xc contribution           =    -170.03960809 Ry
     ewald contribution        =   11424.32443100 Ry

     convergence has been achieved in   7 iterations

     Forces acting on atoms (cartesian axes, Ry/au):

     atom    1 type  1   force =     0.00022716    0.00000000    0.00010104
     atom    2 type  1   force =    -0.00005230    0.00000000   -0.00075721
     atom    3 type  1   force =    -0.00045385    0.00000000   -0.00013228
     atom    4 type  1   force =    -0.00051384    0.00000000   -0.00009296
     atom    5 type  1   force =    -0.00028628    0.00000000    0.00079905
     atom    6 type  1   force =     0.00014429    0.00000000    0.00005856
     atom    7 type  2   force =    -0.00009993    0.00000000    0.00043056
     atom    8 type  2   force =     0.00051677    0.00000000   -0.00012540
     atom    9 type  2   force =    -0.00104163    0.00000000    0.00075912
     atom   10 type  2   force =    -0.00051116    0.00000000   -0.00055904
     atom   11 type  2   force =     0.00136050    0.00000000   -0.00033593
     atom   12 type  2   force =     0.00000568    0.00000000   -0.00016726
     atom   13 type  2   force =    -0.00026815    0.00000000    0.00024085
     atom   14 type  2   force =    -0.00052161    0.00000000   -0.00038950
     atom   15 type  2   force =    -0.00001229    0.00000000   -0.00005739
     atom   16 type  2   force =     0.00097941    0.00000000    0.00113330
     atom   17 type  2   force =     0.00032407    0.00000000   -0.00059334
     atom   18 type  2   force =     0.00020316    0.00000000   -0.00031215

     Total force =     0.003159     Total SCF correction =     0.000346
     SCF correction compared to forces is large: reduce conv_thr to get better values


     Computing stress (Cartesian axis) and pressure

          total   stress  (Ry/bohr**3)                   (kbar)     P=        0.39
   0.00000304   0.00000000   0.00000023            0.45        0.00        0.03
   0.00000000   0.00000379   0.00000000            0.00        0.56        0.00
   0.00000023   0.00000000   0.00000104            0.03        0.00        0.15

     Energy error            =      2.2E-05 Ry
     Gradient error          =      1.4E-03 Ry/Bohr
     Cell gradient error     =      5.6E-01 kbar

     number of scf cycles    =  21
     number of bfgs steps    =  20

     enthalpy           old  =   -1077.9116018661 Ry
     enthalpy           new  =   -1077.9116234303 Ry

     CASE: enthalpy          _new < enthalpy          _old

     new trust radius        =       0.0097705663 bohr
     new conv_thr            =       0.0000000100 Ry

     new unit-cell volume =   3562.31593 a.u.^3 (   527.88076 Ang^3 )
     density =      1.50737 g/cm^3

CELL_PARAMETERS (angstrom)
   4.776595883   0.000000000   0.000000000
   0.000000000   2.948768626   0.000000000
   0.000000000   0.000000000  37.478019714

ATOMIC_POSITIONS (angstrom)
Ti               0.1791612881        0.0000000000       14.6228828797
Ti               2.5306327462        1.4743842256       16.8447930885
Ti               0.1304115191        0.0000000000       19.2141035105
Ti               2.5177766563        1.4743842256       21.4596404462
Ti               0.1416729651        0.0000000000       23.8263105934
Ti               2.5670423178        1.4743842256       26.0463374187
O                0.6199638599        1.4743843132       13.6074639229
O                1.4596464503        0.0000000000       15.9454552071
O                3.2895256790        0.0000000000       17.7800023928
O                0.8881465764        1.4743843132       18.2696058460
O                3.7528194006        1.4743843132       15.4496237534
O                1.4808121808        0.0000000000       20.5642762050
O                3.2743077897        0.0000000000       22.4025007450
O                0.8991339692        1.4743843132       22.8921661176
O                3.8721703248        1.4743843132       20.1131713276
O                1.3640551977        0.0000000000       25.2202224898
O                3.0089682254        0.0000000000       27.0608800107
O                3.8482194134        1.4743843132       24.7254122890



     Writing config-only to output data dir ./Out/pwscf.save/
     NEW-OLD atomic charge density approx. for the potential

     negative rho (up, down):  1.269E-05 0.000E+00

     total cpu time spent up to now is      837.3 secs

     Self-consistent Calculation

     iteration #  1     ecut=   120.00 Ry     beta= 0.40
     Davidson diagonalization with overlap
     ethr =  1.00E-06,  avg # of iterations =  4.0

     Threshold (ethr) on eigenvalues was too large:
     Diagonalizing with lowered threshold

     Davidson diagonalization with overlap
     ethr =  2.41E-08,  avg # of iterations =  4.8

     negative rho (up, down):  7.366E-06 0.000E+00

     total cpu time spent up to now is      845.7 secs

     total energy              =   -1077.91164567 Ry
     estimated scf accuracy    <       0.00003450 Ry

     iteration #  2     ecut=   120.00 Ry     beta= 0.40
     Davidson diagonalization with overlap
     ethr =  2.40E-08,  avg # of iterations =  2.0

     negative rho (up, down):  3.156E-06 0.000E+00

     total cpu time spent up to now is      849.0 secs

     total energy              =   -1077.91164611 Ry
     estimated scf accuracy    <       0.00000681 Ry

     iteration #  3     ecut=   120.00 Ry     beta= 0.40
     Davidson diagonalization with overlap
     ethr =  4.73E-09,  avg # of iterations =  2.1

     negative rho (up, down):  1.691E-06 0.000E+00

     total cpu time spent up to now is      852.4 secs

     total energy              =   -1077.91164685 Ry
     estimated scf accuracy    <       0.00000216 Ry

     iteration #  4     ecut=   120.00 Ry     beta= 0.40
     Davidson diagonalization with overlap
     ethr =  1.50E-09,  avg # of iterations =  2.7

     negative rho (up, down):  8.412E-07 0.000E+00

     total cpu time spent up to now is      855.9 secs

     total energy              =   -1077.91164723 Ry
     estimated scf accuracy    <       0.00000029 Ry

     iteration #  5     ecut=   120.00 Ry     beta= 0.40
     Davidson diagonalization with overlap
     ethr =  1.99E-10,  avg # of iterations =  5.1

     negative rho (up, down):  2.522E-07 0.000E+00

     total cpu time spent up to now is      859.9 secs

     total energy              =   -1077.91164730 Ry
     estimated scf accuracy    <       0.00000017 Ry

     iteration #  6     ecut=   120.00 Ry     beta= 0.40
     Davidson diagonalization with overlap
     ethr =  1.18E-10,  avg # of iterations =  2.3

     negative rho (up, down):  5.830E-08 0.000E+00

     total cpu time spent up to now is      863.3 secs

     total energy              =   -1077.91164733 Ry
     estimated scf accuracy    <       0.00000002 Ry

     iteration #  7     ecut=   120.00 Ry     beta= 0.40
     Davidson diagonalization with overlap
     ethr =  1.05E-11,  avg # of iterations =  5.0

     negative rho (up, down):  1.909E-08 0.000E+00

     total cpu time spent up to now is      867.5 secs

     total energy              =   -1077.91164733 Ry
     estimated scf accuracy    <       0.00000001 Ry

     iteration #  8     ecut=   120.00 Ry     beta= 0.40
     Davidson diagonalization with overlap
     ethr =  9.31E-12,  avg # of iterations =  3.0

     total cpu time spent up to now is      870.9 secs

     End of self-consistent calculation

          k = 0.0000 0.0000 0.0000 ( 76179 PWs)   bands (ev):

   -58.3774 -58.3685 -58.3328 -58.3260 -57.9012 -57.8962 -34.6683 -34.6626
   -34.6273 -34.6226 -34.5735 -34.5625 -34.5436 -34.5385 -34.4644 -34.4499
   -34.4411 -34.4352 -34.2913 -34.2872 -34.1652 -34.1606 -33.9414 -33.9368
   -19.4495 -19.2332 -18.8685 -18.5461 -18.3822 -18.3750 -18.0176 -17.9852
   -17.8648 -17.8619 -17.4257 -17.4205  -6.9819  -6.6636  -6.5690  -6.4245
    -6.0363  -5.8220  -5.7936  -5.5563  -5.2266  -5.2203  -5.1609  -5.1522
    -4.9212  -4.7541  -4.7536  -4.6132  -4.3850  -4.2897  -4.1665  -3.7341
    -3.5881  -3.5020  -3.3610  -3.3235  -3.1173  -3.1124  -2.9097  -2.9084
    -2.8543  -2.6969  -2.5784  -2.3966  -2.3812  -2.1697  -1.9007  -1.6927
     0.6311   0.8344   0.9494   1.0349   1.1484   1.2163   1.2778   1.2830
     1.4383   1.5866   1.5870   2.1783   2.3076   2.3409

          k = 0.0000 0.1732 0.0000 ( 76281 PWs)   bands (ev):

   -58.3724 -58.3638 -58.3279 -58.3211 -57.8961 -57.8911 -34.6565 -34.6504
   -34.6181 -34.6110 -34.5720 -34.5606 -34.5397 -34.5347 -34.5141 -34.5032
   -34.4953 -34.4898 -34.2863 -34.2821 -34.1567 -34.1520 -33.9992 -33.9946
   -19.3276 -19.1219 -18.7740 -18.4610 -18.3075 -18.2948 -18.0575 -18.0196
   -17.9172 -17.9083 -17.4567 -17.4522  -6.8129  -6.5120  -6.4297  -6.2791
    -5.9483  -5.7728  -5.7466  -5.5845  -5.4295  -5.4208  -5.3672  -5.1783
    -4.8083  -4.7655  -4.5642  -4.4479  -4.2799  -4.0903  -4.0290  -3.8825
    -3.8585  -3.6418  -3.4756  -3.3432  -3.3413  -3.1874  -3.1738  -2.9755
    -2.9728  -2.9092  -2.6538  -2.4136  -2.4043  -2.1542  -1.9396  -1.7321
     0.7546   0.9404   0.9974   1.0420   1.1767   1.2253   1.3081   1.3370
     1.5223   1.6101   1.7398   1.8517   1.9007   2.3556

          k = 0.0000 0.3465 0.0000 ( 76251 PWs)   bands (ev):

   -58.3594 -58.3520 -58.3156 -58.3088 -57.8831 -57.8781 -34.6693 -34.6527
   -34.6464 -34.6437 -34.6153 -34.6129 -34.5756 -34.5693 -34.5461 -34.5419
   -34.5295 -34.5244 -34.2771 -34.2729 -34.1708 -34.1663 -34.1047 -34.1000
   -19.0055 -18.8366 -18.5628 -18.3057 -18.1729 -18.1402 -18.0800 -18.0788
   -18.0208 -18.0127 -17.5211 -17.5179  -6.3708  -6.1547  -6.0747  -5.9560
    -5.7841  -5.6913  -5.6753  -5.6240  -5.5782  -5.5751  -5.3780  -5.2320
    -4.7914  -4.6771  -4.5744  -4.5568  -4.4965  -4.2905  -4.1856  -4.1720
    -4.1221  -3.8274  -3.8023  -3.4908  -3.4797  -3.3113  -3.2529  -3.0144
    -2.8861  -2.8517  -2.7309  -2.6402  -2.6135  -2.2265  -2.0580  -1.9314
     0.8162   0.9869   1.0365   1.0626   1.1217   1.3599   1.3909   1.5032
     1.6921   1.7600   1.8610   1.8773   1.9737   2.1652

          k = 0.0000 0.5197 0.0000 ( 76270 PWs)   bands (ev):

   -58.3445 -58.3386 -58.3015 -58.2947 -57.8682 -57.8632 -34.8127 -34.8025
   -34.7935 -34.7885 -34.5850 -34.5811 -34.5459 -34.5430 -34.5308 -34.5270
   -34.5204 -34.5149 -34.3289 -34.3245 -34.2550 -34.2508 -34.0890 -34.0842
   -18.6032 -18.5216 -18.4572 -18.3807 -18.2234 -18.1227 -18.0390 -18.0356
   -17.9333 -17.9245 -17.5214 -17.5181  -5.9550  -5.8990  -5.8757  -5.8044
    -5.6977  -5.6802  -5.6783  -5.6319  -5.5225  -5.4750  -5.4567  -5.2844
    -5.0908  -5.0894  -4.7839  -4.7228  -4.5611  -4.2550  -4.1674  -4.1363
    -4.0535  -3.8610  -3.7557  -3.6247  -3.5784  -3.2794  -3.1815  -3.0887
    -3.0057  -2.9218  -2.9094  -2.7182  -2.6748  -2.3785  -2.3136  -2.2869
     0.6954   0.9098   0.9662   1.2627   1.3946   1.4314   1.6001   1.6035
     1.7660   1.8686   1.9486   2.0296   2.1976   2.2156

          k = 0.0000 0.6929 0.0000 ( 76376 PWs)   bands (ev):

   -58.3346 -58.3300 -58.2923 -58.2855 -57.8585 -57.8535 -34.9062 -34.9022
   -34.8904 -34.8855 -34.5610 -34.5571 -34.5309 -34.5271 -34.5244 -34.5195
   -34.5103 -34.5046 -34.4221 -34.4176 -34.2518 -34.2477 -34.0699 -34.0652
   -18.4994 -18.4765 -18.3916 -18.3402 -18.2364 -18.0688 -18.0356 -17.9662
   -17.8831 -17.8564 -17.4393 -17.4359  -6.2908  -6.2018  -6.0337  -5.9626
    -5.6642  -5.6582  -5.5769  -5.5153  -5.4149  -5.4147  -5.3239  -5.3160
    -4.9224  -4.8696  -4.6046  -4.4836  -4.3223  -4.2257  -4.1795  -4.1498
    -4.1048  -4.0506  -3.8924  -3.6280  -3.5098  -3.3012  -3.2281  -3.1247
    -3.0223  -2.9833  -2.9556  -2.8333  -2.7712  -2.6989  -2.4679  -2.3789
     0.6897   0.9141   1.0786   1.2292   1.4032   1.6477   1.6862   1.7492
     1.7954   1.8339   2.0820   2.0859   2.2685   2.3193

          k = 0.1604 0.0000 0.0000 ( 76264 PWs)   bands (ev):

   -58.3769 -58.3689 -58.3328 -58.3260 -57.9012 -57.8962 -34.6695 -34.6654
   -34.6274 -34.6233 -34.5718 -34.5629 -34.5429 -34.5381 -34.4632 -34.4501
   -34.4416 -34.4357 -34.2911 -34.2869 -34.1652 -34.1605 -33.9415 -33.9368
   -19.3768 -19.1902 -18.8710 -18.5847 -18.3971 -18.3949 -18.0217 -18.0122
   -17.8911 -17.8567 -17.4280 -17.4247  -6.9068  -6.7600  -6.4671  -6.4619
    -5.9209  -5.8126  -5.7578  -5.4494  -5.2327  -5.2273  -5.1657  -5.1553
    -4.8981  -4.7580  -4.7566  -4.5651  -4.4160  -4.2326  -4.0893  -3.6997
    -3.6293  -3.4646  -3.3401  -3.2761  -3.1487  -3.1380  -2.9853  -2.9366
    -2.7694  -2.7660  -2.6474  -2.6097  -2.5172  -2.3472  -2.0414  -1.8119
     0.6904   0.7780   0.9872   1.0459   1.1819   1.2225   1.2995   1.3914
     1.5361   1.6256   1.7365   2.1716   2.2535   2.2672

          k = 0.1604 0.1732 0.0000 ( 76282 PWs)   bands (ev):

   -58.3719 -58.3642 -58.3279 -58.3212 -57.8961 -57.8911 -34.6574 -34.6535
   -34.6173 -34.6123 -34.5708 -34.5610 -34.5392 -34.5343 -34.5126 -34.5035
   -34.4958 -34.4902 -34.2862 -34.2820 -34.1566 -34.1519 -33.9992 -33.9946
   -19.2585 -19.0807 -18.7757 -18.4989 -18.3148 -18.3127 -18.0611 -18.0515
   -17.9391 -17.9064 -17.4590 -17.4559  -6.7466  -6.6114  -6.3229  -6.3178
    -5.8733  -5.7775  -5.7152  -5.5807  -5.4675  -5.3974  -5.2981  -5.1185
    -4.7845  -4.7545  -4.5383  -4.4121  -4.3297  -4.1173  -3.9843  -3.8150
    -3.7909  -3.6999  -3.5449  -3.2892  -3.2752  -3.1934  -3.1723  -3.0353
    -3.0029  -2.9316  -2.6606  -2.5443  -2.5283  -2.3134  -2.0673  -1.8455
     0.7710   0.8901   1.0188   1.1262   1.1772   1.2560   1.3192   1.4192
     1.6041   1.6112   1.8123   1.8569   1.9182   2.3552

          k = 0.1604 0.3465 0.0000 ( 76223 PWs)   bands (ev):

   -58.3590 -58.3523 -58.3156 -58.3088 -57.8831 -57.8781 -34.6679 -34.6523
   -34.6480 -34.6449 -34.6176 -34.6127 -34.5750 -34.5707 -34.5459 -34.5410
   -34.5287 -34.5243 -34.2771 -34.2729 -34.1708 -34.1663 -34.1046 -34.0999
   -18.9489 -18.8006 -18.5573 -18.3304 -18.1671 -18.1475 -18.1170 -18.0930
   -18.0457 -18.0118 -17.5229 -17.5200  -6.3418  -6.2377  -6.0143  -5.9800
    -5.8054  -5.8027  -5.6697  -5.6447  -5.6144  -5.5469  -5.1975  -5.0761
    -4.8732  -4.7065  -4.6015  -4.5574  -4.3974  -4.3678  -4.1305  -4.0958
    -4.0819  -3.8036  -3.7787  -3.5341  -3.5189  -3.2584  -3.1934  -3.0593
    -2.9518  -2.8609  -2.7721  -2.6240  -2.6009  -2.3150  -2.1306  -2.0108
     0.7981   1.0017   1.0204   1.1154   1.1946   1.3664   1.4282   1.4850
     1.6885   1.7339   1.8638   1.8727   2.0777   2.1565

          k = 0.1604 0.5197 0.0000 ( 76310 PWs)   bands (ev):

   -58.3443 -58.3388 -58.3015 -58.2947 -57.8682 -57.8632 -34.8120 -34.8029
   -34.7937 -34.7886 -34.5861 -34.5821 -34.5452 -34.5442 -34.5308 -34.5260
   -34.5198 -34.5155 -34.3289 -34.3245 -34.2549 -34.2507 -34.0890 -34.0843
   -18.5797 -18.5038 -18.4418 -18.3626 -18.2079 -18.1754 -18.0704 -18.0256
   -17.9369 -17.9347 -17.5213 -17.5180  -6.0013  -5.9548  -5.8710  -5.8681
    -5.7720  -5.7149  -5.6542  -5.6371  -5.5936  -5.5043  -5.4766  -5.3573
    -5.1254  -4.8806  -4.6854  -4.6359  -4.4920  -4.2852  -4.2016  -4.0740
    -4.0690  -3.8977  -3.6882  -3.5971  -3.5785  -3.2110  -3.1643  -3.0876
    -3.0330  -2.9670  -2.8314  -2.7025  -2.6429  -2.3815  -2.3034  -2.3010
     0.7164   0.9311   0.9674   1.3322   1.4409   1.4676   1.5695   1.6197
     1.7933   1.8062   1.8806   1.9637   2.1326   2.2179

          k = 0.1604 0.6929 0.0000 ( 76348 PWs)   bands (ev):

   -58.3345 -58.3300 -58.2923 -58.2855 -57.8585 -57.8535 -34.9059 -34.9022
   -34.8904 -34.8855 -34.5614 -34.5576 -34.5310 -34.5276 -34.5238 -34.5191
   -34.5107 -34.5050 -34.4219 -34.4174 -34.2519 -34.2478 -34.0700 -34.0653
   -18.4977 -18.4869 -18.3750 -18.3727 -18.1710 -18.1143 -17.9955 -17.9906
   -17.8830 -17.8634 -17.4366 -17.4332  -6.2893  -6.2444  -6.0310  -6.0153
    -5.7478  -5.7195  -5.5750  -5.5380  -5.5204  -5.4573  -5.3603  -5.3108
    -5.0824  -4.8294  -4.5538  -4.5181  -4.3114  -4.2331  -4.1919  -4.0924
    -3.9816  -3.9792  -3.7694  -3.5424  -3.3730  -3.2240  -3.2084  -3.1496
    -3.0050  -2.9983  -2.9102  -2.7710  -2.7531  -2.6832  -2.4619  -2.3734
     0.7427   0.9264   1.1534   1.1853   1.5061   1.5729   1.6990   1.7488
     1.7921   1.8242   2.0560   2.0636   2.2060   2.2123

          k = 0.3208 0.0000 0.0000 ( 76372 PWs)   bands (ev):

   -58.3757 -58.3699 -58.3328 -58.3261 -57.9012 -57.8962 -34.6719 -34.6706
   -34.6280 -34.6247 -34.5690 -34.5635 -34.5413 -34.5376 -34.4598 -34.4513
   -34.4427 -34.4365 -34.2907 -34.2865 -34.1650 -34.1603 -33.9415 -33.9369
   -19.1786 -19.0785 -18.8840 -18.6945 -18.4745 -18.4681 -18.0374 -18.0210
   -17.9080 -17.8746 -17.4352 -17.4325  -6.8081  -6.7752  -6.5492  -6.4301
    -5.8280  -5.8094  -5.3877  -5.2468  -5.2404  -5.1768  -5.1597  -5.1016
    -4.7635  -4.7620  -4.7191  -4.4521  -4.4287  -4.3545  -3.9573  -3.8171
    -3.6807  -3.4093  -3.3153  -3.2789  -3.2378  -3.2223  -3.0262  -3.0132
    -2.9312  -2.9060  -2.7101  -2.7071  -2.6876  -2.6346  -2.3285  -2.1166
     0.7444   0.7606   0.9731   1.0563   1.1859   1.3313   1.4723   1.5371
     1.7102   1.8214   1.9824   2.1263   2.1371   2.1657

          k = 0.3208 0.1732 0.0000 ( 76383 PWs)   bands (ev):

   -58.3708 -58.3651 -58.3280 -58.3212 -57.8961 -57.8911 -34.6594 -34.6587
   -34.6171 -34.6141 -34.5682 -34.5620 -34.5379 -34.5339 -34.5091 -34.5039
   -34.4970 -34.4912 -34.2858 -34.2816 -34.1565 -34.1518 -33.9991 -33.9945
   -19.0701 -18.9738 -18.7871 -18.6052 -18.3880 -18.3815 -18.0756 -18.0591
   -17.9552 -17.9219 -17.4654 -17.4627  -6.6598  -6.6294  -6.4001  -6.2845
    -5.7721  -5.7574  -5.6148  -5.5708  -5.4979  -5.4393  -5.0595  -4.8485
    -4.7596  -4.7236  -4.4423  -4.3838  -4.2891  -4.1581  -3.9926  -3.8939
    -3.7096  -3.6498  -3.5396  -3.3442  -3.3004  -3.2172  -3.1667  -3.1661
    -3.0638  -3.0028  -2.8454  -2.7948  -2.5882  -2.5186  -2.2967  -2.0920
     0.8025   0.8231   1.0055   1.1328   1.3034   1.3306   1.4401   1.4895
     1.7341   1.7672   1.8611   1.9107   2.0374   2.3099

          k = 0.3208 0.3465 0.0000 ( 76318 PWs)   bands (ev):

   -58.3582 -58.3530 -58.3156 -58.3088 -57.8831 -57.8781 -34.6645 -34.6550
   -34.6504 -34.6439 -34.6229 -34.6125 -34.5757 -34.5719 -34.5444 -34.5404
   -34.5273 -34.5238 -34.2770 -34.2728 -34.1709 -34.1664 -34.1043 -34.0997
   -18.7945 -18.7077 -18.5533 -18.4069 -18.2353 -18.2291 -18.1189 -18.1036
   -18.0510 -18.0258 -17.5268 -17.5240  -6.2854  -6.2759  -6.0723  -5.9528
    -5.8773  -5.8272  -5.7451  -5.6631  -5.6379  -5.6156  -4.9827  -4.9468
    -4.7541  -4.6588  -4.5543  -4.5160  -4.4186  -4.3209  -4.0979  -4.0230
    -3.9145  -3.8161  -3.7703  -3.5883  -3.4729  -3.2542  -3.2529  -3.1218
    -2.9670  -2.9491  -2.8031  -2.6335  -2.5672  -2.5087  -2.3007  -2.1915
     0.8806   0.9648   1.0379   1.2182   1.2493   1.3285   1.4457   1.5317
     1.7465   1.7643   1.9711   1.9863   2.0770   2.0985

          k = 0.3208 0.5197 0.0000 ( 76259 PWs)   bands (ev):

   -58.3439 -58.3391 -58.3015 -58.2947 -57.8682 -57.8632 -34.8103 -34.8045
   -34.7937 -34.7886 -34.5878 -34.5846 -34.5458 -34.5441 -34.5295 -34.5256
   -34.5194 -34.5158 -34.3290 -34.3246 -34.2547 -34.2505 -34.0890 -34.0843
   -18.5179 -18.4642 -18.4072 -18.3243 -18.2607 -18.1763 -18.1312 -18.0463
   -17.9538 -17.9524 -17.5209 -17.5177  -6.0661  -6.0392  -5.9937  -5.8871
    -5.8440  -5.8291  -5.6968  -5.6817  -5.6513  -5.5168  -5.4408  -5.4271
    -5.0606  -4.7290  -4.6541  -4.6069  -4.3822  -4.2092  -4.1023  -4.0123
    -4.0015  -3.9130  -3.7146  -3.5094  -3.4388  -3.3174  -3.1809  -3.0795
    -2.9546  -2.8881  -2.7473  -2.6570  -2.5675  -2.4269  -2.3663  -2.3554
     0.7982   1.0147   1.0773   1.3882   1.4137   1.4784   1.5356   1.6107
     1.6751   1.7733   1.9354   1.9855   2.0961   2.1022

          k = 0.3208 0.6929 0.0000 ( 76319 PWs)   bands (ev):

   -58.3344 -58.3301 -58.2923 -58.2855 -57.8585 -57.8535 -34.9056 -34.9027
   -34.8904 -34.8855 -34.5621 -34.5585 -34.5311 -34.5276 -34.5230 -34.5183
   -34.5120 -34.5063 -34.4216 -34.4171 -34.2520 -34.2479 -34.0702 -34.0655
   -18.4988 -18.4950 -18.3924 -18.3684 -18.1205 -18.0803 -18.0316 -17.9852
   -17.8922 -17.8774 -17.4314 -17.4280  -6.3009  -6.2916  -6.1242  -6.1073
    -5.9298  -5.8853  -5.6582  -5.5606  -5.5193  -5.4498  -5.3732  -5.3702
    -5.0764  -4.8793  -4.6254  -4.5164  -4.2526  -4.1988  -4.1690  -4.0602
    -4.0012  -3.9103  -3.5311  -3.4303  -3.2638  -3.1866  -3.1079  -2.9956
    -2.9873  -2.8630  -2.8121  -2.7588  -2.6041  -2.5802  -2.4505  -2.3738
     0.7927   0.9441   1.1546   1.2818   1.5121   1.6257   1.7327   1.7427
     1.7668   1.7967   2.0135   2.0190   2.1075   2.1371

          k =-0.4812 0.0000 0.0000 ( 76438 PWs)   bands (ev):

   -58.3749 -58.3706 -58.3329 -58.3261 -57.9012 -57.8962 -34.6731 -34.6730
   -34.6286 -34.6253 -34.5664 -34.5652 -34.5405 -34.5373 -34.4569 -34.4532
   -34.4432 -34.4370 -34.2905 -34.2862 -34.1649 -34.1602 -33.9415 -33.9369
   -18.9687 -18.9667 -18.8964 -18.8924 -18.5301 -18.5291 -18.0201 -18.0182
   -17.9053 -17.9030 -17.4391 -17.4365  -6.7774  -6.7771  -6.5049  -6.5040
    -5.8176  -5.8167  -5.2530  -5.2491  -5.1755  -5.1682  -4.7688  -4.7661
    -4.7649  -4.7644  -4.6251  -4.6236  -4.3744  -4.3728  -4.2031  -4.1996
    -3.5370  -3.5349  -3.3230  -3.3224  -3.2358  -3.2348  -3.0547  -3.0530
    -2.9547  -2.9512  -2.7418  -2.7411  -2.6183  -2.6162  -2.4621  -2.4606
     0.7558   0.7573   1.0057   1.0082   1.3074   1.3092   1.5183   1.5212
     2.0367   2.0425   2.0501   2.0547   2.1650   2.1684

          k =-0.4812 0.1732 0.0000 ( 76384 PWs)   bands (ev):

   -58.3700 -58.3658 -58.3280 -58.3212 -57.8961 -57.8911 -34.6608 -34.6606
   -34.6176 -34.6146 -34.5654 -34.5640 -34.5373 -34.5337 -34.5070 -34.5040
   -34.4979 -34.4919 -34.2856 -34.2814 -34.1564 -34.1518 -33.9991 -33.9945
   -18.8702 -18.8684 -18.7981 -18.7945 -18.4431 -18.4420 -18.0551 -18.0535
   -17.9516 -17.9495 -17.4689 -17.4662  -6.6323  -6.6319  -6.3563  -6.3553
    -5.7577  -5.7571  -5.5587  -5.5569  -5.4736  -5.4701  -4.7739  -4.7735
    -4.6875  -4.6861  -4.3732  -4.3725  -4.1812  -4.1776  -4.0443  -4.0435
    -3.6515  -3.6500  -3.5079  -3.5056  -3.3633  -3.3597  -3.1986  -3.1977
    -3.0902  -3.0888  -2.8881  -2.8867  -2.5157  -2.5148  -2.3401  -2.3387
     0.8003   0.8028   1.0515   1.0526   1.3792   1.3826   1.4953   1.4974
     1.8003   1.8058   2.1100   2.1139   2.1590   2.1627

          k =-0.4812 0.3465 0.0000 ( 76352 PWs)   bands (ev):

   -58.3577 -58.3534 -58.3156 -58.3088 -57.8831 -57.8781 -34.6609 -34.6590
   -34.6494 -34.6459 -34.6192 -34.6180 -34.5760 -34.5722 -34.5425 -34.5414
   -34.5267 -34.5234 -34.2770 -34.2728 -34.1709 -34.1664 -34.1042 -34.0995
   -18.6237 -18.6226 -18.5615 -18.5590 -18.2881 -18.2875 -18.0944 -18.0929
   -18.0502 -18.0494 -17.5289 -17.5260  -6.2731  -6.2724  -6.0151  -6.0143
    -5.8780  -5.8758  -5.7538  -5.7516  -5.6175  -5.6170  -5.0051  -5.0037
    -4.5932  -4.5919  -4.5056  -4.5044  -4.1927  -4.1915  -4.1007  -4.1003
    -3.8261  -3.8249  -3.6643  -3.6639  -3.4513  -3.4493  -3.2981  -3.2977
    -2.9428  -2.9405  -2.7040  -2.7017  -2.5385  -2.5368  -2.3698  -2.3692
     0.9588   0.9625   1.1334   1.1356   1.2296   1.2362   1.5831   1.5859
     1.8601   1.8658   1.9909   1.9971   2.0411   2.0449

          k =-0.4812 0.5197 0.0000 ( 76318 PWs)   bands (ev):

   -58.3436 -58.3393 -58.3015 -58.2947 -57.8682 -57.8632 -34.8087 -34.8063
   -34.7935 -34.7885 -34.5880 -34.5866 -34.5456 -34.5441 -34.5290 -34.5259
   -34.5192 -34.5156 -34.3290 -34.3246 -34.2546 -34.2505 -34.0891 -34.0843
   -18.4544 -18.4542 -18.3697 -18.3682 -18.2317 -18.2309 -18.0982 -18.0970
   -17.9639 -17.9638 -17.5208 -17.5175  -6.0741  -6.0719  -6.0004  -5.9994
    -5.8671  -5.8665  -5.7337  -5.7332  -5.5986  -5.5981  -5.4168  -5.4157
    -4.8503  -4.8489  -4.6716  -4.6714  -4.2016  -4.2011  -4.0732  -4.0706
    -3.8589  -3.8575  -3.6323  -3.6314  -3.3893  -3.3876  -3.1138  -3.1129
    -2.8200  -2.8171  -2.6174  -2.6153  -2.5714  -2.5691  -2.4291  -2.4288
     1.0135   1.0149   1.2138   1.2156   1.3191   1.3238   1.6275   1.6309
     1.8022   1.8082   1.9252   1.9289   2.0519   2.0550

          k =-0.4812 0.6929 0.0000 ( 76294 PWs)   bands (ev):

   -58.3344 -58.3301 -58.2923 -58.2855 -57.8585 -57.8535 -34.9053 -34.9031
   -34.8903 -34.8854 -34.5624 -34.5591 -34.5307 -34.5274 -34.5228 -34.5180
   -34.5127 -34.5071 -34.4214 -34.4169 -34.2521 -34.2479 -34.0703 -34.0655
   -18.4981 -18.4981 -18.3860 -18.3839 -18.0840 -18.0834 -18.0083 -18.0081
   -17.8941 -17.8932 -17.4289 -17.4255  -6.3048  -6.3033  -6.1841  -6.1834
    -5.9792  -5.9790  -5.6564  -5.6554  -5.4700  -5.4690  -5.3731  -5.3721
    -4.8922  -4.8903  -4.6836  -4.6823  -4.2101  -4.2075  -4.0721  -4.0705
    -3.9661  -3.9652  -3.4766  -3.4756  -3.2046  -3.2036  -3.0009  -2.9995
    -2.8467  -2.8444  -2.6872  -2.6853  -2.5157  -2.5152  -2.4267  -2.4260
     0.8496   0.8521   1.2024   1.2048   1.6605   1.6629   1.7297   1.7334
     1.7964   1.7996   1.9816   1.9859   2.0873   2.0906

     the Fermi energy is    -0.5456 ev

!    total energy              =   -1077.91164733 Ry
     estimated scf accuracy    <          2.1E-09 Ry
     smearing contrib. (-TS)   =      -0.00000000 Ry
     internal energy E=F+TS    =   -1077.91164733 Ry

     The total energy is F=E-TS. E is the sum of the following terms:
     one-electron contribution =  -24678.26731265 Ry
     hartree contribution      =   12351.14134153 Ry
     xc contribution           =    -170.03428470 Ry
     ewald contribution        =   11419.24860849 Ry

     convergence has been achieved in   8 iterations

     Forces acting on atoms (cartesian axes, Ry/au):

     atom    1 type  1   force =     0.00028331    0.00000000    0.00049829
     atom    2 type  1   force =    -0.00007959    0.00000000   -0.00088216
     atom    3 type  1   force =    -0.00051383    0.00000000    0.00037006
     atom    4 type  1   force =    -0.00054882    0.00000000   -0.00058912
     atom    5 type  1   force =    -0.00037444    0.00000000    0.00096034
     atom    6 type  1   force =     0.00023758    0.00000000   -0.00019438
     atom    7 type  2   force =    -0.00016698    0.00000000    0.00078624
     atom    8 type  2   force =     0.00079608    0.00000000   -0.00045029
     atom    9 type  2   force =    -0.00074745    0.00000000    0.00050219
     atom   10 type  2   force =    -0.00075053    0.00000000    0.00013742
     atom   11 type  2   force =     0.00107608    0.00000000   -0.00049916
     atom   12 type  2   force =     0.00011058    0.00000000   -0.00091372
     atom   13 type  2   force =    -0.00030142    0.00000000   -0.00032831
     atom   14 type  2   force =    -0.00024942    0.00000000   -0.00015291
     atom   15 type  2   force =    -0.00021759    0.00000000    0.00042206
     atom   16 type  2   force =     0.00083098    0.00000000    0.00120972
     atom   17 type  2   force =     0.00024184    0.00000000   -0.00076847
     atom   18 type  2   force =     0.00037360    0.00000000   -0.00010777

     Total force =     0.003451     Total SCF correction =     0.000161


     Computing stress (Cartesian axis) and pressure

          total   stress  (Ry/bohr**3)                   (kbar)     P=        0.03
   0.00000163   0.00000000   0.00000022            0.24        0.00        0.03
   0.00000000   0.00000096   0.00000000            0.00        0.14        0.00
   0.00000022   0.00000000  -0.00000207            0.03        0.00       -0.30

     Energy error            =      2.4E-05 Ry
     Gradient error          =      1.2E-03 Ry/Bohr
     Cell gradient error     =      2.4E-01 kbar

     number of scf cycles    =  22
     number of bfgs steps    =  21

     enthalpy           old  =   -1077.9116234303 Ry
     enthalpy           new  =   -1077.9116473307 Ry

     CASE: enthalpy          _new < enthalpy          _old

     new trust radius        =       0.0070329864 bohr
     new conv_thr            =       0.0000000100 Ry

     new unit-cell volume =   3563.34029 a.u.^3 (   528.03255 Ang^3 )
     density =      1.50694 g/cm^3

CELL_PARAMETERS (angstrom)
   4.777165967   0.000000000   0.000000000
   0.000000000   2.949264559   0.000000000
   0.000000000   0.000000000  37.478019714

ATOMIC_POSITIONS (angstrom)
Ti               0.1802352190        0.0000000000       14.6223487971
Ti               2.5313304000        1.4746321921       16.8443283202
Ti               0.1302224994        0.0000000000       19.2135024171
Ti               2.5178549972        1.4746321921       21.4599089139
Ti               0.1419885016        0.0000000000       23.8269777235
Ti               2.5682507893        1.4746321921       26.0466676408
O                0.6197267108        1.4746322798       13.6066888208
O                1.4610958494        0.0000000000       15.9444101354
O                3.2868126668        0.0000000000       17.7820538497
O                0.8863475992        1.4746322798       18.2675053624
O                3.7559199626        1.4746322798       15.4508071606
O                1.4806740737        0.0000000000       20.5643180711
O                3.2730203720        0.0000000000       22.4040397753
O                0.8973639676        1.4746322798       22.8913079324
O                3.8728052107        1.4746322798       20.1132096779
O                1.3656863098        0.0000000000       25.2204648721
O                3.0101955993        0.0000000000       27.0608284352
O                3.8492114663        1.4746322798       24.7254803382



     Writing config-only to output data dir ./Out/pwscf.save/
     NEW-OLD atomic charge density approx. for the potential

     negative rho (up, down):  7.890E-06 0.000E+00

     total cpu time spent up to now is      876.8 secs

     Self-consistent Calculation

     iteration #  1     ecut=   120.00 Ry     beta= 0.40
     Davidson diagonalization with overlap
     ethr =  1.00E-06,  avg # of iterations =  4.0

     Threshold (ethr) on eigenvalues was too large:
     Diagonalizing with lowered threshold

     Davidson diagonalization with overlap
     ethr =  9.56E-09,  avg # of iterations =  6.0

     negative rho (up, down):  4.587E-06 0.000E+00

     total cpu time spent up to now is      885.4 secs

     total energy              =   -1077.91166361 Ry
     estimated scf accuracy    <       0.00001309 Ry

     iteration #  2     ecut=   120.00 Ry     beta= 0.40
     Davidson diagonalization with overlap
     ethr =  9.09E-09,  avg # of iterations =  2.0

     negative rho (up, down):  1.663E-06 0.000E+00

     total cpu time spent up to now is      888.7 secs

     total energy              =   -1077.91166370 Ry
     estimated scf accuracy    <       0.00000254 Ry

     iteration #  3     ecut=   120.00 Ry     beta= 0.40
     Davidson diagonalization with overlap
     ethr =  1.76E-09,  avg # of iterations =  2.1

     negative rho (up, down):  9.639E-07 0.000E+00

     total cpu time spent up to now is      892.1 secs

     total energy              =   -1077.91166403 Ry
     estimated scf accuracy    <       0.00000042 Ry

     iteration #  4     ecut=   120.00 Ry     beta= 0.40
     Davidson diagonalization with overlap
     ethr =  2.88E-10,  avg # of iterations =  4.5

     negative rho (up, down):  4.023E-07 0.000E+00

     total cpu time spent up to now is      895.9 secs

     total energy              =   -1077.91166413 Ry
     estimated scf accuracy    <       0.00000013 Ry

     iteration #  5     ecut=   120.00 Ry     beta= 0.40
     Davidson diagonalization with overlap
     ethr =  8.79E-11,  avg # of iterations =  4.5

     negative rho (up, down):  1.203E-07 0.000E+00

     total cpu time spent up to now is      899.7 secs

     total energy              =   -1077.91166415 Ry
     estimated scf accuracy    <       0.00000004 Ry

     iteration #  6     ecut=   120.00 Ry     beta= 0.40
     Davidson diagonalization with overlap
     ethr =  2.86E-11,  avg # of iterations =  2.9

     total cpu time spent up to now is      903.1 secs

     End of self-consistent calculation

          k = 0.0000 0.0000 0.0000 ( 76179 PWs)   bands (ev):

   -58.3769 -58.3677 -58.3341 -58.3266 -57.9033 -57.8975 -34.6672 -34.6616
   -34.6278 -34.6229 -34.5731 -34.5623 -34.5439 -34.5384 -34.4637 -34.4496
   -34.4420 -34.4355 -34.2935 -34.2884 -34.1673 -34.1618 -33.9437 -33.9381
   -19.4466 -19.2327 -18.8669 -18.5439 -18.3821 -18.3756 -18.0169 -17.9843
   -17.8623 -17.8583 -17.4273 -17.4213  -6.9791  -6.6626  -6.5641  -6.4225
    -6.0319  -5.8226  -5.7940  -5.5550  -5.2271  -5.2215  -5.1559  -5.1483
    -4.9201  -4.7568  -4.7555  -4.6147  -4.3830  -4.2880  -4.1627  -3.7322
    -3.5874  -3.5013  -3.3610  -3.3251  -3.1186  -3.1127  -2.9110  -2.9086
    -2.8523  -2.6956  -2.5773  -2.3945  -2.3778  -2.1689  -1.9011  -1.6921
     0.6323   0.8353   0.9502   1.0354   1.1486   1.2144   1.2797   1.2804
     1.4368   1.5848   1.5882   2.1776   2.3064   2.3396

          k = 0.0000 0.1732 0.0000 ( 76281 PWs)   bands (ev):

   -58.3718 -58.3631 -58.3292 -58.3218 -57.8982 -57.8923 -34.6555 -34.6494
   -34.6183 -34.6114 -34.5718 -34.5603 -34.5401 -34.5346 -34.5135 -34.5027
   -34.4960 -34.4899 -34.2885 -34.2834 -34.1588 -34.1532 -34.0014 -33.9959
   -19.3249 -19.1214 -18.7726 -18.4589 -18.3073 -18.2953 -18.0569 -18.0188
   -17.9146 -17.9047 -17.4584 -17.4530  -6.8103  -6.5115  -6.4249  -6.2772
    -5.9453  -5.7737  -5.7465  -5.5814  -5.4274  -5.4204  -5.3650  -5.1754
    -4.8090  -4.7670  -4.5641  -4.4493  -4.2802  -4.0878  -4.0270  -3.8814
    -3.8572  -3.6412  -3.4750  -3.3405  -3.3396  -3.1880  -3.1742  -2.9738
    -2.9732  -2.9103  -2.6533  -2.4123  -2.4023  -2.1533  -1.9400  -1.7315
     0.7552   0.9410   0.9977   1.0417   1.1767   1.2260   1.3080   1.3348
     1.5205   1.6078   1.7409   1.8516   1.9011   2.3549

          k = 0.0000 0.3464 0.0000 ( 76251 PWs)   bands (ev):

   -58.3589 -58.3512 -58.3170 -58.3094 -57.8852 -57.8794 -34.6681 -34.6527
   -34.6457 -34.6437 -34.6144 -34.6123 -34.5763 -34.5697 -34.5457 -34.5418
   -34.5299 -34.5243 -34.2793 -34.2742 -34.1729 -34.1675 -34.1068 -34.1013
   -19.0030 -18.8362 -18.5620 -18.3050 -18.1700 -18.1384 -18.0798 -18.0781
   -18.0192 -18.0100 -17.5231 -17.5188  -6.3685  -6.1543  -6.0708  -5.9553
    -5.7834  -5.6908  -5.6737  -5.6202  -5.5769  -5.5727  -5.3739  -5.2319
    -4.7922  -4.6757  -4.5743  -4.5551  -4.4945  -4.2899  -4.1828  -4.1722
    -4.1218  -3.8266  -3.8002  -3.4887  -3.4790  -3.3117  -3.2524  -3.0145
    -2.8859  -2.8502  -2.7308  -2.6407  -2.6136  -2.2254  -2.0585  -1.9303
     0.8174   0.9861   1.0366   1.0612   1.1221   1.3599   1.3915   1.5032
     1.6895   1.7588   1.8606   1.8760   1.9749   2.1637

          k = 0.0000 0.5196 0.0000 ( 76270 PWs)   bands (ev):

   -58.3440 -58.3379 -58.3029 -58.2954 -57.8704 -57.8645 -34.8112 -34.8011
   -34.7941 -34.7885 -34.5840 -34.5801 -34.5455 -34.5430 -34.5313 -34.5275
   -34.5209 -34.5149 -34.3308 -34.3255 -34.2572 -34.2521 -34.0911 -34.0855
   -18.6006 -18.5207 -18.4573 -18.3802 -18.2207 -18.1195 -18.0363 -18.0333
   -17.9339 -17.9245 -17.5236 -17.5193  -5.9523  -5.8960  -5.8737  -5.8013
    -5.6973  -5.6778  -5.6761  -5.6317  -5.5210  -5.4759  -5.4523  -5.2840
    -5.0890  -5.0876  -4.7832  -4.7188  -4.5594  -4.2544  -4.1676  -4.1369
    -4.0517  -3.8592  -3.7553  -3.6230  -3.5750  -3.2814  -3.1815  -3.0871
    -3.0070  -2.9205  -2.9091  -2.7195  -2.6752  -2.3767  -2.3127  -2.2873
     0.6972   0.9094   0.9652   1.2626   1.3953   1.4309   1.6001   1.6035
     1.7650   1.8675   1.9472   2.0272   2.1962   2.2135

          k = 0.0000 0.6928 0.0000 ( 76376 PWs)   bands (ev):

   -58.3342 -58.3293 -58.2937 -58.2862 -57.8607 -57.8548 -34.9046 -34.9004
   -34.8910 -34.8854 -34.5602 -34.5559 -34.5306 -34.5264 -34.5248 -34.5195
   -34.5117 -34.5052 -34.4238 -34.4184 -34.2541 -34.2490 -34.0721 -34.0665
   -18.4981 -18.4753 -18.3892 -18.3372 -18.2355 -18.0682 -18.0342 -17.9658
   -17.8817 -17.8550 -17.4415 -17.4372  -6.2870  -6.1968  -6.0325  -5.9606
    -5.6620  -5.6560  -5.5751  -5.5143  -5.4133  -5.4121  -5.3239  -5.3126
    -4.9225  -4.8707  -4.6033  -4.4828  -4.3208  -4.2242  -4.1781  -4.1490
    -4.1053  -4.0494  -3.8888  -3.6260  -3.5088  -3.2999  -3.2277  -3.1234
    -3.0229  -2.9839  -2.9543  -2.8314  -2.7725  -2.6988  -2.4684  -2.3788
     0.6917   0.9158   1.0778   1.2279   1.4024   1.6465   1.6849   1.7473
     1.7940   1.8337   2.0789   2.0835   2.2676   2.3185

          k = 0.1604 0.0000 0.0000 ( 76264 PWs)   bands (ev):

   -58.3764 -58.3681 -58.3341 -58.3266 -57.9033 -57.8975 -34.6685 -34.6644
   -34.6279 -34.6236 -34.5714 -34.5627 -34.5432 -34.5380 -34.4624 -34.4496
   -34.4425 -34.4360 -34.2933 -34.2882 -34.1672 -34.1617 -33.9437 -33.9382
   -19.3740 -19.1896 -18.8693 -18.5824 -18.3981 -18.3949 -18.0211 -18.0110
   -17.8874 -17.8542 -17.4298 -17.4254  -6.9040  -6.7574  -6.4646  -6.4591
    -5.9177  -5.8133  -5.7570  -5.4478  -5.2330  -5.2281  -5.1607  -5.1517
    -4.8971  -4.7605  -4.7588  -4.5654  -4.4158  -4.2291  -4.0859  -3.6976
    -3.6285  -3.4650  -3.3401  -3.2775  -3.1495  -3.1379  -2.9842  -2.9372
    -2.7683  -2.7659  -2.6444  -2.6092  -2.5159  -2.3466  -2.0417  -1.8114
     0.6918   0.7791   0.9877   1.0470   1.1815   1.2215   1.2980   1.3926
     1.5343   1.6266   1.7346   2.1709   2.2519   2.2658

          k = 0.1604 0.1732 0.0000 ( 76282 PWs)   bands (ev):

   -58.3714 -58.3634 -58.3293 -58.3218 -57.8982 -57.8923 -34.6563 -34.6526
   -34.6176 -34.6126 -34.5705 -34.5608 -34.5396 -34.5342 -34.5119 -34.5030
   -34.4965 -34.4904 -34.2883 -34.2832 -34.1587 -34.1532 -34.0014 -33.9959
   -19.2559 -19.0802 -18.7742 -18.4968 -18.3149 -18.3132 -18.0605 -18.0503
   -17.9353 -17.9038 -17.4608 -17.4566  -6.7439  -6.6090  -6.3207  -6.3152
    -5.8710  -5.7783  -5.7145  -5.5779  -5.4656  -5.3953  -5.2956  -5.1168
    -4.7854  -4.7560  -4.5379  -4.4130  -4.3302  -4.1154  -3.9819  -3.8138
    -3.7883  -3.6996  -3.5432  -3.2886  -3.2732  -3.1939  -3.1727  -3.0356
    -3.0031  -2.9309  -2.6602  -2.5425  -2.5274  -2.3126  -2.0679  -1.8451
     0.7717   0.8907   1.0187   1.1257   1.1772   1.2568   1.3178   1.4196
     1.6016   1.6105   1.8120   1.8567   1.9184   2.3544

          k = 0.1604 0.3464 0.0000 ( 76223 PWs)   bands (ev):

   -58.3586 -58.3515 -58.3170 -58.3094 -57.8852 -57.8794 -34.6668 -34.6522
   -34.6476 -34.6446 -34.6168 -34.6120 -34.5758 -34.5710 -34.5455 -34.5410
   -34.5289 -34.5242 -34.2793 -34.2742 -34.1729 -34.1675 -34.1067 -34.1011
   -18.9465 -18.8001 -18.5565 -18.3295 -18.1643 -18.1459 -18.1166 -18.0931
   -18.0429 -18.0099 -17.5249 -17.5208  -6.3393  -6.2359  -6.0135  -5.9779
    -5.8032  -5.7998  -5.6692  -5.6439  -5.6126  -5.5435  -5.1947  -5.0766
    -4.8729  -4.7043  -4.6016  -4.5572  -4.3944  -4.3678  -4.1291  -4.0946
    -4.0815  -3.8027  -3.7774  -3.5324  -3.5168  -3.2585  -3.1940  -3.0594
    -2.9511  -2.8589  -2.7718  -2.6244  -2.6014  -2.3140  -2.1314  -2.0103
     0.7988   1.0006   1.0198   1.1155   1.1944   1.3668   1.4284   1.4850
     1.6863   1.7313   1.8638   1.8735   2.0780   2.1550

          k = 0.1604 0.5196 0.0000 ( 76310 PWs)   bands (ev):

   -58.3439 -58.3380 -58.3029 -58.2954 -57.8704 -57.8645 -34.8105 -34.8014
   -34.7944 -34.7887 -34.5851 -34.5812 -34.5449 -34.5441 -34.5314 -34.5265
   -34.5202 -34.5155 -34.3308 -34.3255 -34.2571 -34.2520 -34.0911 -34.0855
   -18.5771 -18.5030 -18.4420 -18.3620 -18.2053 -18.1721 -18.0678 -18.0232
   -17.9376 -17.9346 -17.5235 -17.5192  -5.9987  -5.9525  -5.8688  -5.8659
    -5.7684  -5.7131  -5.6535  -5.6364  -5.5926  -5.5036  -5.4734  -5.3562
    -5.1231  -4.8797  -4.6851  -4.6330  -4.4898  -4.2847  -4.2004  -4.0731
    -4.0692  -3.8967  -3.6862  -3.5955  -3.5762  -3.2103  -3.1639  -3.0883
    -3.0337  -2.9654  -2.8319  -2.7036  -2.6432  -2.3810  -2.3039  -2.2996
     0.7181   0.9307   0.9666   1.3323   1.4407   1.4671   1.5697   1.6200
     1.7918   1.8046   1.8794   1.9624   2.1309   2.2157

          k = 0.1604 0.6928 0.0000 ( 76348 PWs)   bands (ev):

   -58.3341 -58.3293 -58.2937 -58.2862 -57.8607 -57.8548 -34.9044 -34.9005
   -34.8911 -34.8855 -34.5605 -34.5564 -34.5308 -34.5269 -34.5242 -34.5190
   -34.5122 -34.5057 -34.4236 -34.4183 -34.2542 -34.2491 -34.0722 -34.0666
   -18.4965 -18.4857 -18.3720 -18.3700 -18.1699 -18.1134 -17.9951 -17.9900
   -17.8819 -17.8618 -17.4388 -17.4345  -6.2858  -6.2403  -6.0295  -6.0136
    -5.7461  -5.7178  -5.5714  -5.5380  -5.5189  -5.4557  -5.3587  -5.3079
    -5.0817  -4.8287  -4.5524  -4.5180  -4.3097  -4.2323  -4.1891  -4.0913
    -3.9816  -3.9783  -3.7664  -3.5408  -3.3724  -3.2237  -3.2080  -3.1483
    -3.0054  -2.9989  -2.9089  -2.7719  -2.7519  -2.6829  -2.4624  -2.3733
     0.7448   0.9280   1.1527   1.1847   1.5048   1.5713   1.6983   1.7470
     1.7908   1.8240   2.0533   2.0612   2.2048   2.2112

          k = 0.3208 0.0000 0.0000 ( 76372 PWs)   bands (ev):

   -58.3752 -58.3691 -58.3342 -58.3267 -57.9033 -57.8975 -34.6709 -34.6696
   -34.6286 -34.6249 -34.5687 -34.5633 -34.5415 -34.5374 -34.4591 -34.4505
   -34.4438 -34.4370 -34.2929 -34.2877 -34.1670 -34.1615 -33.9438 -33.9382
   -19.1761 -19.0779 -18.8820 -18.6916 -18.4759 -18.4690 -18.0361 -18.0200
   -17.9047 -17.8715 -17.4370 -17.4331  -6.8051  -6.7723  -6.5465  -6.4276
    -5.8284  -5.8101  -5.3833  -5.2467  -5.2408  -5.1721  -5.1563  -5.1000
    -4.7662  -4.7643  -4.7186  -4.4496  -4.4286  -4.3524  -3.9543  -3.8149
    -3.6781  -3.4085  -3.3155  -3.2792  -3.2381  -3.2228  -3.0245  -3.0123
    -2.9312  -2.9052  -2.7109  -2.7084  -2.6877  -2.6345  -2.3291  -2.1165
     0.7459   0.7620   0.9738   1.0573   1.1857   1.3315   1.4719   1.5379
     1.7101   1.8197   1.9814   2.1237   2.1348   2.1647

          k = 0.3208 0.1732 0.0000 ( 76383 PWs)   bands (ev):

   -58.3703 -58.3643 -58.3293 -58.3218 -57.8982 -57.8924 -34.6585 -34.6577
   -34.6176 -34.6142 -34.5679 -34.5618 -34.5383 -34.5337 -34.5084 -34.5032
   -34.4979 -34.4915 -34.2880 -34.2828 -34.1586 -34.1530 -34.0013 -33.9958
   -19.0677 -18.9732 -18.7852 -18.6024 -18.3892 -18.3823 -18.0743 -18.0581
   -17.9519 -17.9187 -17.4672 -17.4634  -6.6570  -6.6265  -6.3977  -6.2823
    -5.7723  -5.7580  -5.6124  -5.5688  -5.4961  -5.4362  -5.0561  -4.8477
    -4.7612  -4.7245  -4.4416  -4.3825  -4.2893  -4.1569  -3.9916  -3.8913
    -3.7076  -3.6492  -3.5371  -3.3427  -3.2987  -3.2189  -3.1670  -3.1657
    -3.0644  -3.0017  -2.8449  -2.7943  -2.5886  -2.5186  -2.2979  -2.0919
     0.8033   0.8234   1.0049   1.1329   1.3034   1.3307   1.4401   1.4904
     1.7332   1.7654   1.8608   1.9101   2.0364   2.3092

          k = 0.3208 0.3464 0.0000 ( 76318 PWs)   bands (ev):

   -58.3578 -58.3522 -58.3170 -58.3095 -57.8852 -57.8794 -34.6635 -34.6543
   -34.6503 -34.6439 -34.6221 -34.6119 -34.5765 -34.5722 -34.5442 -34.5404
   -34.5275 -34.5236 -34.2792 -34.2741 -34.1729 -34.1675 -34.1064 -34.1009
   -18.7923 -18.7073 -18.5520 -18.4048 -18.2351 -18.2284 -18.1169 -18.1026
   -18.0492 -18.0234 -17.5288 -17.5249  -6.2831  -6.2731  -6.0709  -5.9523
    -5.8736  -5.8236  -5.7436  -5.6601  -5.6379  -5.6152  -4.9827  -4.9460
    -4.7520  -4.6577  -4.5542  -4.5157  -4.4183  -4.3185  -4.0969  -4.0231
    -3.9125  -3.8144  -3.7696  -3.5867  -3.4706  -3.2537  -3.2523  -3.1200
    -2.9667  -2.9493  -2.8016  -2.6339  -2.5684  -2.5081  -2.3021  -2.1918
     0.8807   0.9639   1.0368   1.2180   1.2489   1.3275   1.4465   1.5322
     1.7448   1.7635   1.9712   1.9865   2.0756   2.0987

          k = 0.3208 0.5196 0.0000 ( 76259 PWs)   bands (ev):

   -58.3435 -58.3384 -58.3029 -58.2954 -57.8704 -57.8645 -34.8089 -34.8029
   -34.7944 -34.7887 -34.5869 -34.5836 -34.5457 -34.5439 -34.5300 -34.5262
   -34.5197 -34.5156 -34.3309 -34.3256 -34.2570 -34.2518 -34.0912 -34.0856
   -18.5153 -18.4636 -18.4072 -18.3231 -18.2574 -18.1737 -18.1288 -18.0440
   -17.9543 -17.9526 -17.5231 -17.5189  -6.0637  -6.0377  -5.9907  -5.8851
    -5.8416  -5.8262  -5.6962  -5.6809  -5.6497  -5.5151  -5.4400  -5.4262
    -5.0572  -4.7273  -4.6536  -4.6056  -4.3802  -4.2090  -4.1026  -4.0115
    -3.9977  -3.9127  -3.7125  -3.5080  -3.4380  -3.3144  -3.1806  -3.0785
    -2.9547  -2.8891  -2.7479  -2.6576  -2.5673  -2.4276  -2.3674  -2.3540
     0.7995   1.0145   1.0767   1.3874   1.4130   1.4778   1.5355   1.6107
     1.6754   1.7714   1.9342   1.9845   2.0949   2.1003

          k = 0.3208 0.6928 0.0000 ( 76319 PWs)   bands (ev):

   -58.3341 -58.3293 -58.2937 -58.2862 -57.8606 -57.8548 -34.9040 -34.9008
   -34.8910 -34.8854 -34.5612 -34.5573 -34.5310 -34.5269 -34.5234 -34.5182
   -34.5134 -34.5069 -34.4233 -34.4179 -34.2543 -34.2492 -34.0724 -34.0668
   -18.4977 -18.4940 -18.3890 -18.3646 -18.1199 -18.0794 -18.0309 -17.9852
   -17.8912 -17.8757 -17.4337 -17.4293  -6.2978  -6.2884  -6.1231  -6.1063
    -5.9282  -5.8833  -5.6566  -5.5592  -5.5169  -5.4476  -5.3723  -5.3684
    -5.0735  -4.8779  -4.6236  -4.5140  -4.2509  -4.1977  -4.1667  -4.0580
    -4.0011  -3.9103  -3.5293  -3.4293  -3.2633  -3.1869  -3.1082  -2.9954
    -2.9854  -2.8633  -2.8115  -2.7598  -2.6040  -2.5797  -2.4508  -2.3734
     0.7948   0.9458   1.1546   1.2819   1.5109   1.6241   1.7310   1.7410
     1.7664   1.7964   2.0109   2.0172   2.1061   2.1351

          k =-0.4812 0.0000 0.0000 ( 76438 PWs)   bands (ev):

   -58.3744 -58.3698 -58.3342 -58.3267 -57.9033 -57.8975 -34.6721 -34.6720
   -34.6292 -34.6255 -34.5661 -34.5651 -34.5407 -34.5371 -34.4563 -34.4521
   -34.4444 -34.4374 -34.2926 -34.2875 -34.1669 -34.1614 -33.9438 -33.9382
   -18.9683 -18.9673 -18.8917 -18.8881 -18.5322 -18.5299 -18.0198 -18.0167
   -17.9021 -17.8992 -17.4409 -17.4371  -6.7742  -6.7739  -6.5023  -6.5015
    -5.8188  -5.8169  -5.2527  -5.2490  -5.1715  -5.1644  -4.7679  -4.7666
    -4.7644  -4.7619  -4.6250  -4.6223  -4.3731  -4.3712  -4.2015  -4.1975
    -3.5346  -3.5318  -3.3222  -3.3215  -3.2358  -3.2352  -3.0569  -3.0530
    -2.9531  -2.9495  -2.7444  -2.7429  -2.6191  -2.6161  -2.4625  -2.4611
     0.7573   0.7590   1.0064   1.0091   1.3081   1.3100   1.5186   1.5215
     2.0356   2.0421   2.0464   2.0520   2.1641   2.1674

          k =-0.4812 0.1732 0.0000 ( 76384 PWs)   bands (ev):

   -58.3696 -58.3649 -58.3293 -58.3218 -57.8982 -57.8924 -34.6599 -34.6596
   -34.6181 -34.6148 -34.5651 -34.5638 -34.5376 -34.5335 -34.5063 -34.5030
   -34.4989 -34.4923 -34.2878 -34.2827 -34.1585 -34.1530 -34.0013 -33.9958
   -18.8698 -18.8691 -18.7935 -18.7903 -18.4450 -18.4427 -18.0548 -18.0521
   -17.9483 -17.9458 -17.4707 -17.4669  -6.6293  -6.6289  -6.3538  -6.3530
    -5.7587  -5.7572  -5.5568  -5.5553  -5.4709  -5.4672  -4.7749  -4.7738
    -4.6855  -4.6843  -4.3717  -4.3705  -4.1795  -4.1762  -4.0449  -4.0435
    -3.6502  -3.6490  -3.5058  -3.5038  -3.3610  -3.3572  -3.1997  -3.1977
    -3.0901  -3.0885  -2.8904  -2.8870  -2.5156  -2.5147  -2.3413  -2.3393
     0.8006   0.8035   1.0512   1.0525   1.3793   1.3831   1.4957   1.4980
     1.7991   1.8054   2.1087   2.1130   2.1570   2.1617

          k =-0.4812 0.3464 0.0000 ( 76352 PWs)   bands (ev):

   -58.3573 -58.3526 -58.3170 -58.3095 -57.8852 -57.8794 -34.6600 -34.6581
   -34.6495 -34.6457 -34.6185 -34.6174 -34.5768 -34.5725 -34.5424 -34.5413
   -34.5268 -34.5232 -34.2792 -34.2740 -34.1730 -34.1675 -34.1063 -34.1008
   -18.6236 -18.6234 -18.5574 -18.5553 -18.2889 -18.2870 -18.0935 -18.0911
   -18.0482 -18.0467 -17.5309 -17.5270  -6.2705  -6.2698  -6.0134  -6.0127
    -5.8747  -5.8728  -5.7519  -5.7493  -5.6175  -5.6169  -5.0041  -5.0033
    -4.5915  -4.5905  -4.5058  -4.5043  -4.1915  -4.1907  -4.0998  -4.0990
    -3.8257  -3.8240  -3.6625  -3.6620  -3.4493  -3.4472  -3.2968  -3.2956
    -2.9431  -2.9404  -2.7031  -2.7002  -2.5404  -2.5377  -2.3715  -2.3699
     0.9579   0.9623   1.1320   1.1347   1.2286   1.2360   1.5839   1.5869
     1.8603   1.8661   1.9882   1.9960   2.0408   2.0446

          k =-0.4812 0.5196 0.0000 ( 76318 PWs)   bands (ev):

   -58.3432 -58.3386 -58.3029 -58.2954 -57.8704 -57.8645 -34.8074 -34.8047
   -34.7942 -34.7885 -34.5871 -34.5855 -34.5457 -34.5439 -34.5295 -34.5265
   -34.5194 -34.5155 -34.3309 -34.3256 -34.2569 -34.2517 -34.0912 -34.0856
   -18.4535 -18.4529 -18.3679 -18.3665 -18.2293 -18.2287 -18.0958 -18.0946
   -17.9650 -17.9636 -17.5230 -17.5187  -6.0716  -6.0694  -5.9979  -5.9977
    -5.8645  -5.8638  -5.7339  -5.7329  -5.5963  -5.5959  -5.4159  -5.4154
    -4.8469  -4.8456  -4.6714  -4.6706  -4.2012  -4.2003  -4.0731  -4.0695
    -3.8569  -3.8552  -3.6316  -3.6301  -3.3867  -3.3851  -3.1128  -3.1124
    -2.8217  -2.8178  -2.6179  -2.6150  -2.5709  -2.5683  -2.4307  -2.4290
     1.0141   1.0156   1.2134   1.2152   1.3175   1.3229   1.6273   1.6312
     1.8011   1.8078   1.9236   1.9279   2.0510   2.0540

          k =-0.4812 0.6928 0.0000 ( 76294 PWs)   bands (ev):

   -58.3340 -58.3294 -58.2937 -58.2862 -57.8606 -57.8548 -34.9038 -34.9012
   -34.8909 -34.8853 -34.5615 -34.5579 -34.5306 -34.5266 -34.5233 -34.5179
   -34.5141 -34.5077 -34.4231 -34.4177 -34.2544 -34.2493 -34.0725 -34.0669
   -18.4974 -18.4968 -18.3820 -18.3801 -18.0838 -18.0825 -18.0082 -18.0077
   -17.8925 -17.8921 -17.4312 -17.4268  -6.3018  -6.3005  -6.1831  -6.1828
    -5.9778  -5.9773  -5.6546  -5.6534  -5.4679  -5.4664  -5.3725  -5.3699
    -4.8899  -4.8882  -4.6813  -4.6798  -4.2088  -4.2053  -4.0704  -4.0680
    -3.9663  -3.9646  -3.4761  -3.4746  -3.2045  -3.2033  -3.0000  -2.9991
    -2.8471  -2.8438  -2.6871  -2.6855  -2.5160  -2.5155  -2.4268  -2.4252
     0.8519   0.8543   1.2026   1.2051   1.6590   1.6621   1.7271   1.7318
     1.7955   1.7993   1.9791   1.9843   2.0855   2.0890

     the Fermi energy is    -0.5462 ev

!    total energy              =   -1077.91166415 Ry
     estimated scf accuracy    <          5.3E-09 Ry
     smearing contrib. (-TS)   =      -0.00000000 Ry
     internal energy E=F+TS    =   -1077.91166415 Ry

     The total energy is F=E-TS. E is the sum of the following terms:
     one-electron contribution =  -24669.61809112 Ry
     hartree contribution      =   12346.81491062 Ry
     xc contribution           =    -170.03062358 Ry
     ewald contribution        =   11414.92213993 Ry

     convergence has been achieved in   6 iterations

     Forces acting on atoms (cartesian axes, Ry/au):

     atom    1 type  1   force =     0.00024897    0.00000000    0.00060955
     atom    2 type  1   force =    -0.00001349    0.00000000   -0.00060205
     atom    3 type  1   force =    -0.00042450    0.00000000    0.00061911
     atom    4 type  1   force =    -0.00038403    0.00000000   -0.00071145
     atom    5 type  1   force =    -0.00022608    0.00000000    0.00070794
     atom    6 type  1   force =     0.00025503    0.00000000   -0.00033652
     atom    7 type  2   force =    -0.00003916    0.00000000    0.00073900
     atom    8 type  2   force =     0.00090358    0.00000000   -0.00067888
     atom    9 type  2   force =    -0.00054849    0.00000000    0.00015150
     atom   10 type  2   force =    -0.00084235    0.00000000    0.00051176
     atom   11 type  2   force =     0.00056835    0.00000000   -0.00026082
     atom   12 type  2   force =     0.00013796    0.00000000   -0.00124358
     atom   13 type  2   force =    -0.00036960    0.00000000   -0.00066567
     atom   14 type  2   force =    -0.00009876    0.00000000    0.00017737
     atom   15 type  2   force =    -0.00031305    0.00000000    0.00067436
     atom   16 type  2   force =     0.00040743    0.00000000    0.00079558
     atom   17 type  2   force =     0.00033342    0.00000000   -0.00064063
     atom   18 type  2   force =     0.00040476    0.00000000    0.00015345

     Total force =     0.003241     Total SCF correction =     0.000271


     Computing stress (Cartesian axis) and pressure

          total   stress  (Ry/bohr**3)                   (kbar)     P=       -0.22
   0.00000081   0.00000000   0.00000018            0.12        0.00        0.03
   0.00000000  -0.00000158   0.00000000            0.00       -0.23        0.00
   0.00000018   0.00000000  -0.00000369            0.03        0.00       -0.54

     Energy error            =      1.7E-05 Ry
     Gradient error          =      1.2E-03 Ry/Bohr
     Cell gradient error     =      2.3E-01 kbar

     number of scf cycles    =  23
     number of bfgs steps    =  22

     enthalpy           old  =   -1077.9116473307 Ry
     enthalpy           new  =   -1077.9116641524 Ry

     CASE: enthalpy          _new < enthalpy          _old

     new trust radius        =       0.0077369278 bohr
     new conv_thr            =       0.0000000100 Ry

     new unit-cell volume =   3564.56598 a.u.^3 (   528.21418 Ang^3 )
     density =      1.50642 g/cm^3

CELL_PARAMETERS (angstrom)
   4.778117437   0.000000000   0.000000000
   0.000000000   2.949691534   0.000000000
   0.000000000   0.000000000  37.478019714

ATOMIC_POSITIONS (angstrom)
Ti               0.1816222354        0.0000000000       14.6224095692
Ti               2.5324116021        1.4748456796       16.8433896879
Ti               0.1296030463        0.0000000000       19.2133009920
Ti               2.5177557396        1.4748456796       21.4596658831
Ti               0.1423350021        0.0000000000       23.8282218831
Ti               2.5699523903        1.4748456796       26.0466473256
O                0.6200048370        1.4748457673       13.6068491181
O                1.4633066003        0.0000000000       15.9432954726
O                3.2838653155        0.0000000000       17.7840015102
O                0.8839647666        1.4748457673       18.2659501705
O                3.7594724960        1.4748457673       15.4514400367
O                1.4804869387        0.0000000000       20.5635945406
O                3.2717486394        0.0000000000       22.4048532738
O                0.8955890385        1.4748457673       22.8908317729
O                3.8731810312        1.4748457673       20.1134765281
O                1.3674409338        0.0000000000       25.2216832335
O                3.0124477912        0.0000000000       27.0599896986
O                3.8506898094        1.4748457673       24.7252475475



     Writing config-only to output data dir ./Out/pwscf.save/
     NEW-OLD atomic charge density approx. for the potential

     negative rho (up, down):  1.053E-05 0.000E+00

     total cpu time spent up to now is      909.0 secs

     Self-consistent Calculation

     iteration #  1     ecut=   120.00 Ry     beta= 0.40
     Davidson diagonalization with overlap
     ethr =  1.00E-06,  avg # of iterations =  4.0

     Threshold (ethr) on eigenvalues was too large:
     Diagonalizing with lowered threshold

     Davidson diagonalization with overlap
     ethr =  1.37E-08,  avg # of iterations =  5.8

     negative rho (up, down):  6.125E-06 0.000E+00

     total cpu time spent up to now is      917.6 secs

     total energy              =   -1077.91168263 Ry
     estimated scf accuracy    <       0.00001816 Ry

     iteration #  2     ecut=   120.00 Ry     beta= 0.40
     Davidson diagonalization with overlap
     ethr =  1.26E-08,  avg # of iterations =  2.0

     negative rho (up, down):  3.056E-06 0.000E+00

     total cpu time spent up to now is      920.9 secs

     total energy              =   -1077.91168319 Ry
     estimated scf accuracy    <       0.00000434 Ry

     iteration #  3     ecut=   120.00 Ry     beta= 0.40
     Davidson diagonalization with overlap
     ethr =  3.01E-09,  avg # of iterations =  3.3

     negative rho (up, down):  1.543E-06 0.000E+00

     total cpu time spent up to now is      924.6 secs

     total energy              =   -1077.91168366 Ry
     estimated scf accuracy    <       0.00000264 Ry

     iteration #  4     ecut=   120.00 Ry     beta= 0.40
     Davidson diagonalization with overlap
     ethr =  1.83E-09,  avg # of iterations =  2.4

     negative rho (up, down):  7.594E-07 0.000E+00

     total cpu time spent up to now is      928.0 secs

     total energy              =   -1077.91168413 Ry
     estimated scf accuracy    <       0.00000021 Ry

     iteration #  5     ecut=   120.00 Ry     beta= 0.40
     Davidson diagonalization with overlap
     ethr =  1.44E-10,  avg # of iterations =  5.3

     negative rho (up, down):  3.162E-07 0.000E+00

     total cpu time spent up to now is      932.2 secs

     total energy              =   -1077.91168422 Ry
     estimated scf accuracy    <       0.00000011 Ry

     iteration #  6     ecut=   120.00 Ry     beta= 0.40
     Davidson diagonalization with overlap
     ethr =  7.48E-11,  avg # of iterations =  2.5

     negative rho (up, down):  3.682E-08 0.000E+00

     total cpu time spent up to now is      935.6 secs

     total energy              =   -1077.91168423 Ry
     estimated scf accuracy    <       0.00000001 Ry

     iteration #  7     ecut=   120.00 Ry     beta= 0.40
     Davidson diagonalization with overlap
     ethr =  7.93E-12,  avg # of iterations =  5.0

     total cpu time spent up to now is      939.7 secs

     End of self-consistent calculation

          k = 0.0000 0.0000 0.0000 ( 76179 PWs)   bands (ev):

   -58.3736 -58.3645 -58.3356 -58.3283 -57.9048 -57.8984 -34.6641 -34.6587
   -34.6279 -34.6236 -34.5714 -34.5612 -34.5437 -34.5378 -34.4606 -34.4482
   -34.4420 -34.4358 -34.2954 -34.2896 -34.1690 -34.1629 -33.9455 -33.9393
   -19.4432 -19.2326 -18.8666 -18.5412 -18.3828 -18.3773 -18.0170 -17.9832
   -17.8582 -17.8535 -17.4290 -17.4220  -6.9756  -6.6623  -6.5581  -6.4201
    -6.0271  -5.8248  -5.7957  -5.5532  -5.2292  -5.2244  -5.1491  -5.1426
    -4.9207  -4.7609  -4.7589  -4.6159  -4.3803  -4.2851  -4.1577  -3.7302
    -3.5879  -3.5013  -3.3612  -3.3276  -3.1192  -3.1120  -2.9135  -2.9092
    -2.8508  -2.6946  -2.5760  -2.3919  -2.3744  -2.1693  -1.9029  -1.6919
     0.6349   0.8363   0.9533   1.0373   1.1510   1.2123   1.2774   1.2832
     1.4366   1.5834   1.5922   2.1778   2.3061   2.3390

          k = 0.0000 0.1732 0.0000 ( 76281 PWs)   bands (ev):

   -58.3685 -58.3598 -58.3308 -58.3235 -57.8996 -57.8933 -34.6524 -34.6466
   -34.6180 -34.6120 -34.5704 -34.5590 -34.5401 -34.5342 -34.5109 -34.5013
   -34.4955 -34.4901 -34.2904 -34.2846 -34.1605 -34.1543 -34.0031 -33.9971
   -19.3215 -19.1213 -18.7725 -18.4562 -18.3077 -18.2967 -18.0571 -18.0179
   -17.9102 -17.8999 -17.4602 -17.4538  -6.8069  -6.5116  -6.4187  -6.2752
    -5.9423  -5.7761  -5.7472  -5.5776  -5.4256  -5.4208  -5.3619  -5.1715
    -4.8108  -4.7696  -4.5655  -4.4518  -4.2809  -4.0848  -4.0245  -3.8796
    -3.8552  -3.6413  -3.4749  -3.3380  -3.3373  -3.1890  -3.1753  -2.9734
    -2.9714  -2.9117  -2.6532  -2.4107  -2.3999  -2.1534  -1.9420  -1.7309
     0.7572   0.9422   0.9997   1.0432   1.1768   1.2277   1.3081   1.3335
     1.5195   1.6061   1.7443   1.8523   1.9026   2.3563

          k = 0.0000 0.3463 0.0000 ( 76251 PWs)   bands (ev):

   -58.3556 -58.3480 -58.3185 -58.3112 -57.8867 -57.8803 -34.6647 -34.6524
   -34.6446 -34.6421 -34.6117 -34.6099 -34.5771 -34.5704 -34.5439 -34.5410
   -34.5295 -34.5239 -34.2812 -34.2755 -34.1746 -34.1686 -34.1086 -34.1024
   -18.9998 -18.8360 -18.5628 -18.3044 -18.1662 -18.1361 -18.0810 -18.0783
   -18.0164 -18.0065 -17.5251 -17.5198  -6.3653  -6.1548  -6.0651  -5.9555
    -5.7828  -5.6910  -5.6718  -5.6154  -5.5766  -5.5700  -5.3687  -5.2324
    -4.7951  -4.6752  -4.5747  -4.5540  -4.4923  -4.2897  -4.1807  -4.1732
    -4.1222  -3.8252  -3.7972  -3.4857  -3.4774  -3.3126  -3.2519  -3.0149
    -2.8860  -2.8478  -2.7300  -2.6406  -2.6137  -2.2252  -2.0601  -1.9289
     0.8202   0.9857   1.0374   1.0598   1.1234   1.3614   1.3927   1.5050
     1.6871   1.7575   1.8615   1.8752   1.9784   2.1638

          k = 0.0000 0.5195 0.0000 ( 76270 PWs)   bands (ev):

   -58.3407 -58.3347 -58.3045 -58.2972 -57.8719 -57.8655 -34.8072 -34.7984
   -34.7941 -34.7894 -34.5809 -34.5771 -34.5443 -34.5423 -34.5309 -34.5284
   -34.5208 -34.5148 -34.3325 -34.3266 -34.2591 -34.2533 -34.0928 -34.0867
   -18.5971 -18.5196 -18.4590 -18.3805 -18.2172 -18.1154 -18.0324 -18.0304
   -17.9358 -17.9250 -17.5258 -17.5207  -5.9492  -5.8915  -5.8715  -5.7983
    -5.6983  -5.6759  -5.6731  -5.6323  -5.5198  -5.4771  -5.4488  -5.2849
    -5.0876  -5.0850  -4.7821  -4.7140  -4.5578  -4.2546  -4.1683  -4.1368
    -4.0492  -3.8571  -3.7555  -3.6196  -3.5708  -3.2838  -3.1811  -3.0860
    -3.0093  -2.9189  -2.9086  -2.7204  -2.6754  -2.3742  -2.3118  -2.2881
     0.7004   0.9091   0.9640   1.2641   1.3975   1.4308   1.6010   1.6046
     1.7644   1.8663   1.9458   2.0259   2.1969   2.2123

          k = 0.0000 0.6927 0.0000 ( 76376 PWs)   bands (ev):

   -58.3309 -58.3261 -58.2953 -58.2880 -57.8622 -57.8558 -34.9005 -34.8967
   -34.8916 -34.8863 -34.5569 -34.5527 -34.5297 -34.5247 -34.5233 -34.5192
   -34.5133 -34.5068 -34.4254 -34.4195 -34.2560 -34.2503 -34.0738 -34.0676
   -18.4978 -18.4751 -18.3859 -18.3333 -18.2343 -18.0676 -18.0331 -17.9658
   -17.8798 -17.8531 -17.4438 -17.4386  -6.2834  -6.1917  -6.0319  -5.9586
    -5.6612  -5.6550  -5.5730  -5.5136  -5.4113  -5.4094  -5.3245  -5.3096
    -4.9221  -4.8715  -4.6014  -4.4811  -4.3183  -4.2211  -4.1760  -4.1477
    -4.1056  -4.0479  -3.8847  -3.6243  -3.5085  -3.2992  -3.2281  -3.1222
    -3.0231  -2.9844  -2.9527  -2.8291  -2.7739  -2.6983  -2.4688  -2.3786
     0.6953   0.9193   1.0765   1.2264   1.4014   1.6464   1.6840   1.7452
     1.7932   1.8356   2.0754   2.0806   2.2696   2.3202

          k = 0.1604 0.0000 0.0000 ( 76264 PWs)   bands (ev):

   -58.3731 -58.3649 -58.3357 -58.3284 -57.9048 -57.8984 -34.6654 -34.6616
   -34.6281 -34.6242 -34.5698 -34.5617 -34.5430 -34.5374 -34.4593 -34.4480
   -34.4426 -34.4366 -34.2952 -34.2894 -34.1689 -34.1628 -33.9455 -33.9394
   -19.3707 -19.1895 -18.8687 -18.5797 -18.4005 -18.3957 -18.0211 -18.0096
   -17.8824 -17.8500 -17.4316 -17.4260  -6.9007  -6.7547  -6.4616  -6.4558
    -5.9147  -5.8156  -5.7569  -5.4459  -5.2348  -5.2306  -5.1541  -5.1464
    -4.8972  -4.7648  -4.7623  -4.5657  -4.4154  -4.2249  -4.0815  -3.6955
    -3.6289  -3.4655  -3.3406  -3.2799  -3.1497  -3.1369  -2.9835  -2.9383
    -2.7672  -2.7665  -2.6414  -2.6086  -2.5140  -2.3470  -2.0431  -1.8110
     0.6949   0.7809   0.9891   1.0502   1.1836   1.2208   1.2960   1.3954
     1.5332   1.6296   1.7338   2.1710   2.2513   2.2649

          k = 0.1604 0.1732 0.0000 ( 76282 PWs)   bands (ev):

   -58.3680 -58.3602 -58.3308 -58.3235 -57.8996 -57.8933 -34.6533 -34.6497
   -34.6175 -34.6130 -34.5690 -34.5597 -34.5395 -34.5337 -34.5093 -34.5014
   -34.4961 -34.4906 -34.2902 -34.2844 -34.1604 -34.1543 -34.0031 -33.9971
   -19.2526 -19.0801 -18.7738 -18.4942 -18.3166 -18.3143 -18.0607 -18.0488
   -17.9302 -17.8996 -17.4627 -17.4573  -6.7406  -6.6064  -6.3181  -6.3121
    -5.8688  -5.7805  -5.7145  -5.5747  -5.4638  -5.3938  -5.2926  -5.1144
    -4.7875  -4.7585  -4.5386  -4.4149  -4.3317  -4.1137  -3.9788  -3.8124
    -3.7848  -3.6994  -3.5413  -3.2882  -3.2713  -3.1948  -3.1734  -3.0365
    -3.0033  -2.9295  -2.6597  -2.5402  -2.5261  -2.3126  -2.0699  -1.8448
     0.7741   0.8918   1.0197   1.1269   1.1777   1.2594   1.3171   1.4203
     1.6000   1.6105   1.8129   1.8573   1.9202   2.3558

          k = 0.1604 0.3463 0.0000 ( 76223 PWs)   bands (ev):

   -58.3552 -58.3483 -58.3185 -58.3112 -57.8867 -57.8803 -34.6633 -34.6518
   -34.6462 -34.6431 -34.6144 -34.6096 -34.5766 -34.5717 -34.5440 -34.5402
   -34.5283 -34.5237 -34.2812 -34.2754 -34.1746 -34.1686 -34.1084 -34.1023
   -18.9433 -18.8000 -18.5570 -18.3286 -18.1606 -18.1442 -18.1166 -18.0945
   -18.0391 -18.0070 -17.5269 -17.5219  -6.3361  -6.2339  -6.0132  -5.9752
    -5.8013  -5.7960  -5.6690  -5.6438  -5.6110  -5.5397  -5.1911  -5.0777
    -4.8745  -4.7028  -4.6031  -4.5579  -4.3911  -4.3681  -4.1280  -4.0942
    -4.0811  -3.8017  -3.7755  -3.5300  -3.5133  -3.2588  -3.1949  -3.0598
    -2.9507  -2.8561  -2.7704  -2.6244  -2.6019  -2.3136  -2.1334  -2.0096
     0.8013   1.0001   1.0199   1.1164   1.1942   1.3684   1.4296   1.4871
     1.6846   1.7284   1.8650   1.8749   2.0804   2.1552

          k = 0.1604 0.5195 0.0000 ( 76310 PWs)   bands (ev):

   -58.3405 -58.3349 -58.3045 -58.2972 -57.8719 -57.8655 -34.8066 -34.7983
   -34.7946 -34.7896 -34.5820 -34.5781 -34.5441 -34.5429 -34.5315 -34.5271
   -34.5197 -34.5153 -34.3325 -34.3267 -34.2590 -34.2533 -34.0929 -34.0867
   -18.5736 -18.5023 -18.4437 -18.3620 -18.2017 -18.1678 -18.0642 -18.0203
   -17.9394 -17.9350 -17.5257 -17.5206  -5.9955  -5.9490  -5.8664  -5.8631
    -5.7652  -5.7109  -5.6538  -5.6368  -5.5926  -5.5034  -5.4706  -5.3563
    -5.1207  -4.8786  -4.6847  -4.6297  -4.4870  -4.2852  -4.1994  -4.0721
    -4.0689  -3.8954  -3.6839  -3.5939  -3.5723  -3.2097  -3.1637  -3.0898
    -3.0352  -2.9635  -2.8319  -2.7043  -2.6430  -2.3802  -2.3049  -2.2979
     0.7215   0.9307   0.9656   1.3337   1.4416   1.4667   1.5712   1.6216
     1.7904   1.8039   1.8789   1.9611   2.1302   2.2148

          k = 0.1604 0.6927 0.0000 ( 76348 PWs)   bands (ev):

   -58.3308 -58.3261 -58.2953 -58.2880 -57.8622 -57.8558 -34.9003 -34.8966
   -34.8918 -34.8864 -34.5573 -34.5532 -34.5300 -34.5251 -34.5229 -34.5183
   -34.5138 -34.5073 -34.4252 -34.4193 -34.2561 -34.2504 -34.0739 -34.0677
   -18.4962 -18.4856 -18.3681 -18.3663 -18.1685 -18.1125 -17.9951 -17.9897
   -17.8803 -17.8595 -17.4411 -17.4359  -6.2820  -6.2361  -6.0284  -6.0123
    -5.7453  -5.7170  -5.5673  -5.5385  -5.5181  -5.4532  -5.3568  -5.3052
    -5.0809  -4.8283  -4.5506  -4.5174  -4.3068  -4.2310  -4.1854  -4.0892
    -3.9813  -3.9770  -3.7630  -3.5398  -3.3727  -3.2239  -3.2087  -3.1462
    -3.0061  -2.9996  -2.9075  -2.7730  -2.7499  -2.6821  -2.4626  -2.3728
     0.7486   0.9310   1.1518   1.1840   1.5030   1.5702   1.6989   1.7450
     1.7903   1.8259   2.0504   2.0586   2.2060   2.2123

          k = 0.3207 0.0000 0.0000 ( 76372 PWs)   bands (ev):

   -58.3718 -58.3659 -58.3357 -58.3284 -57.9048 -57.8985 -34.6679 -34.6667
   -34.6289 -34.6254 -34.5672 -34.5624 -34.5409 -34.5369 -34.4558 -34.4477
   -34.4445 -34.4382 -34.2947 -34.2890 -34.1687 -34.1626 -33.9455 -33.9394
   -19.1733 -19.0778 -18.8804 -18.6879 -18.4788 -18.4711 -18.0350 -18.0191
   -17.9002 -17.8667 -17.4388 -17.4338  -6.8018  -6.7692  -6.5430  -6.4247
    -5.8303  -5.8123  -5.3785  -5.2478  -5.2427  -5.1659  -5.1513  -5.0983
    -4.7707  -4.7681  -4.7190  -4.4472  -4.4286  -4.3505  -3.9516  -3.8123
    -3.6755  -3.4076  -3.3149  -3.2804  -3.2381  -3.2246  -3.0226  -3.0114
    -2.9309  -2.9039  -2.7123  -2.7102  -2.6877  -2.6345  -2.3296  -2.1162
     0.7496   0.7646   0.9753   1.0602   1.1874   1.3324   1.4720   1.5401
     1.7114   1.8185   1.9817   2.1218   2.1328   2.1643

          k = 0.3207 0.1732 0.0000 ( 76383 PWs)   bands (ev):

   -58.3669 -58.3611 -58.3309 -58.3236 -57.8997 -57.8933 -34.6555 -34.6548
   -34.6177 -34.6145 -34.5664 -34.5608 -34.5379 -34.5334 -34.5055 -34.5013
   -34.4977 -34.4922 -34.2899 -34.2841 -34.1603 -34.1541 -34.0031 -33.9970
   -19.0649 -18.9732 -18.7838 -18.5988 -18.3919 -18.3843 -18.0732 -18.0572
   -17.9474 -17.9139 -17.4691 -17.4642  -6.6539  -6.6235  -6.3945  -6.2797
    -5.7739  -5.7599  -5.6100  -5.5668  -5.4938  -5.4328  -5.0526  -4.8476
    -4.7640  -4.7261  -4.4418  -4.3824  -4.2907  -4.1563  -3.9907  -3.8870
    -3.7053  -3.6484  -3.5340  -3.3415  -3.2970  -3.2213  -3.1678  -3.1655
    -3.0653  -2.9995  -2.8442  -2.7928  -2.5889  -2.5188  -2.2997  -2.0919
     0.8061   0.8245   1.0050   1.1350   1.3046   1.3312   1.4415   1.4929
     1.7331   1.7639   1.8616   1.9098   2.0369   2.3103

          k = 0.3207 0.3463 0.0000 ( 76318 PWs)   bands (ev):

   -58.3544 -58.3490 -58.3186 -58.3112 -57.8867 -57.8803 -34.6601 -34.6529
   -34.6487 -34.6436 -34.6194 -34.6099 -34.5772 -34.5729 -34.5432 -34.5396
   -34.5264 -34.5231 -34.2811 -34.2753 -34.1746 -34.1686 -34.1082 -34.1021
   -18.7896 -18.7073 -18.5515 -18.4024 -18.2354 -18.2278 -18.1151 -18.1016
   -18.0467 -18.0198 -17.5308 -17.5260  -6.2803  -6.2699  -6.0689  -5.9522
    -5.8692  -5.8194  -5.7419  -5.6567  -5.6389  -5.6157  -4.9844  -4.9469
    -4.7494  -4.6567  -4.5553  -4.5161  -4.4184  -4.3157  -4.0961  -4.0237
    -3.9111  -3.8118  -3.7690  -3.5844  -3.4669  -3.2539  -3.2516  -3.1186
    -2.9664  -2.9498  -2.7986  -2.6340  -2.5693  -2.5074  -2.3047  -2.1922
     0.8830   0.9634   1.0362   1.2185   1.2487   1.3284   1.4488   1.5343
     1.7435   1.7635   1.9718   1.9871   2.0760   2.1010

          k = 0.3207 0.5195 0.0000 ( 76259 PWs)   bands (ev):

   -58.3401 -58.3352 -58.3045 -58.2972 -57.8719 -57.8655 -34.8050 -34.7994
   -34.7950 -34.7897 -34.5838 -34.5806 -34.5450 -34.5431 -34.5300 -34.5270
   -34.5189 -34.5153 -34.3326 -34.3267 -34.2589 -34.2531 -34.0929 -34.0867
   -18.5124 -18.4640 -18.4084 -18.3216 -18.2535 -18.1698 -18.1256 -18.0410
   -17.9560 -17.9531 -17.5254 -17.5203  -6.0604  -6.0349  -5.9868  -5.8827
    -5.8389  -5.8233  -5.6972  -5.6815  -5.6484  -5.5135  -5.4401  -5.4262
    -5.0533  -4.7256  -4.6533  -4.6042  -4.3780  -4.2098  -4.1031  -4.0103
    -3.9930  -3.9116  -3.7096  -3.5062  -3.4383  -3.3116  -3.1812  -3.0774
    -2.9551  -2.8908  -2.7479  -2.6578  -2.5663  -2.4284  -2.3693  -2.3521
     0.8029   1.0148   1.0763   1.3874   1.4123   1.4789   1.5361   1.6123
     1.6777   1.7692   1.9335   1.9837   2.0952   2.0991

          k = 0.3207 0.6927 0.0000 ( 76319 PWs)   bands (ev):

   -58.3308 -58.3262 -58.2953 -58.2880 -57.8622 -57.8558 -34.8999 -34.8970
   -34.8917 -34.8864 -34.5580 -34.5541 -34.5301 -34.5252 -34.5219 -34.5174
   -34.5150 -34.5086 -34.4249 -34.4190 -34.2562 -34.2505 -34.0741 -34.0679
   -18.4977 -18.4942 -18.3846 -18.3594 -18.1197 -18.0783 -18.0306 -17.9860
   -17.8897 -17.8729 -17.4360 -17.4307  -6.2943  -6.2847  -6.1220  -6.1056
    -5.9272  -5.8823  -5.6552  -5.5578  -5.5143  -5.4455  -5.3712  -5.3658
    -5.0707  -4.8772  -4.6218  -4.5112  -4.2480  -4.1958  -4.1635  -4.0544
    -4.0008  -3.9104  -3.5274  -3.4289  -3.2645  -3.1887  -3.1098  -2.9952
    -2.9836  -2.8639  -2.8107  -2.7610  -2.6033  -2.5784  -2.4507  -2.3725
     0.7991   0.9492   1.1544   1.2821   1.5102   1.6220   1.7296   1.7392
     1.7678   1.7983   2.0088   2.0157   2.1062   2.1344

          k =-0.4811 0.0000 0.0000 ( 76438 PWs)   bands (ev):

   -58.3710 -58.3666 -58.3358 -58.3284 -57.9048 -57.8985 -34.6693 -34.6689
   -34.6295 -34.6259 -34.5647 -34.5642 -34.5398 -34.5366 -34.4528 -34.4487
   -34.4458 -34.4389 -34.2945 -34.2887 -34.1686 -34.1625 -33.9456 -33.9395
   -18.9694 -18.9692 -18.8854 -18.8823 -18.5359 -18.5320 -18.0198 -18.0158
   -17.8971 -17.8940 -17.4428 -17.4379  -6.7710  -6.7706  -6.4990  -6.4983
    -5.8215  -5.8184  -5.2538  -5.2503  -5.1660  -5.1591  -4.7726  -4.7704
    -4.7602  -4.7582  -4.6254  -4.6215  -4.3721  -4.3701  -4.1991  -4.1945
    -3.5321  -3.5290  -3.3214  -3.3204  -3.2376  -3.2360  -3.0591  -3.0527
    -2.9505  -2.9473  -2.7484  -2.7454  -2.6196  -2.6159  -2.4628  -2.4602
     0.7605   0.7623   1.0086   1.0113   1.3110   1.3126   1.5194   1.5220
     2.0358   2.0424   2.0435   2.0493   2.1648   2.1678

          k =-0.4811 0.1732 0.0000 ( 76384 PWs)   bands (ev):

   -58.3662 -58.3617 -58.3309 -58.3236 -57.8997 -57.8933 -34.6571 -34.6566
   -34.6182 -34.6150 -34.5636 -34.5629 -34.5371 -34.5333 -34.5029 -34.5012
   -34.4985 -34.4936 -34.2897 -34.2839 -34.1602 -34.1541 -34.0031 -33.9970
   -18.8711 -18.8709 -18.7874 -18.7846 -18.4485 -18.4447 -18.0548 -18.0512
   -17.9433 -17.9404 -17.4726 -17.4678  -6.6261  -6.6257  -6.3507  -6.3502
    -5.7613  -5.7584  -5.5553  -5.5540  -5.4677  -5.4636  -4.7775  -4.7753
    -4.6841  -4.6833  -4.3710  -4.3696  -4.1767  -4.1735  -4.0463  -4.0445
    -3.6491  -3.6484  -3.5025  -3.5014  -3.3579  -3.3543  -3.2016  -3.1980
    -3.0900  -3.0883  -2.8927  -2.8869  -2.5153  -2.5142  -2.3427  -2.3397
     0.8022   0.8053   1.0525   1.0539   1.3808   1.3846   1.4977   1.4997
     1.7988   1.8052   2.1088   2.1133   2.1568   2.1620

          k =-0.4811 0.3463 0.0000 ( 76352 PWs)   bands (ev):

   -58.3539 -58.3494 -58.3186 -58.3112 -57.8867 -57.8803 -34.6568 -34.6558
   -34.6484 -34.6454 -34.6162 -34.6152 -34.5775 -34.5732 -34.5418 -34.5403
   -34.5256 -34.5226 -34.2811 -34.2753 -34.1747 -34.1687 -34.1081 -34.1019
   -18.6254 -18.6246 -18.5520 -18.5502 -18.2905 -18.2873 -18.0931 -18.0897
   -18.0449 -18.0426 -17.5329 -17.5281  -6.2676  -6.2668  -6.0113  -6.0106
    -5.8709  -5.8695  -5.7498  -5.7465  -5.6189  -5.6174  -5.0050  -5.0045
    -4.5900  -4.5893  -4.5068  -4.5050  -4.1905  -4.1901  -4.0989  -4.0977
    -3.8253  -3.8230  -3.6604  -3.6594  -3.4471  -3.4453  -3.2952  -3.2931
    -2.9438  -2.9407  -2.7014  -2.6979  -2.5422  -2.5383  -2.3738  -2.3710
     0.9579   0.9628   1.1324   1.1353   1.2284   1.2359   1.5870   1.5897
     1.8614   1.8666   1.9861   1.9948   2.0422   2.0456

          k =-0.4811 0.5195 0.0000 ( 76318 PWs)   bands (ev):

   -58.3399 -58.3354 -58.3045 -58.2972 -57.8719 -57.8655 -34.8035 -34.8012
   -34.7948 -34.7895 -34.5841 -34.5825 -34.5450 -34.5431 -34.5296 -34.5274
   -34.5185 -34.5151 -34.3326 -34.3268 -34.2588 -34.2530 -34.0929 -34.0868
   -18.4535 -18.4527 -18.3659 -18.3644 -18.2262 -18.2258 -18.0926 -18.0913
   -17.9669 -17.9638 -17.5252 -17.5202  -6.0679  -6.0661  -5.9952  -5.9946
    -5.8615  -5.8605  -5.7357  -5.7343  -5.5948  -5.5934  -5.4168  -5.4153
    -4.8430  -4.8417  -4.6716  -4.6700  -4.2015  -4.1999  -4.0723  -4.0678
    -3.8541  -3.8520  -3.6307  -3.6286  -3.3852  -3.3833  -3.1128  -3.1120
    -2.8241  -2.8195  -2.6178  -2.6142  -2.5696  -2.5667  -2.4328  -2.4294
     1.0167   1.0181   1.2138   1.2155   1.3163   1.3221   1.6283   1.6325
     1.8013   1.8080   1.9227   1.9273   2.0512   2.0538

          k =-0.4811 0.6927 0.0000 ( 76294 PWs)   bands (ev):

   -58.3307 -58.3262 -58.2953 -58.2880 -57.8622 -57.8558 -34.8998 -34.8975
   -34.8915 -34.8863 -34.5583 -34.5547 -34.5297 -34.5247 -34.5221 -34.5174
   -34.5156 -34.5094 -34.4247 -34.4188 -34.2563 -34.2506 -34.0742 -34.0680
   -18.4979 -18.4969 -18.3766 -18.3750 -18.0838 -18.0820 -18.0089 -18.0075
   -17.8903 -17.8898 -17.4336 -17.4282  -6.2981  -6.2972  -6.1822  -6.1816
    -5.9772  -5.9768  -5.6529  -5.6515  -5.4659  -5.4638  -5.3715  -5.3672
    -4.8878  -4.8865  -4.6788  -4.6773  -4.2060  -4.2020  -4.0672  -4.0642
    -3.9670  -3.9644  -3.4756  -3.4739  -3.2067  -3.2054  -2.9999  -2.9997
    -2.8476  -2.8432  -2.6871  -2.6856  -2.5163  -2.5148  -2.4261  -2.4237
     0.8567   0.8583   1.2032   1.2054   1.6580   1.6613   1.7246   1.7299
     1.7971   1.8011   1.9778   1.9833   2.0847   2.0882

     the Fermi energy is    -0.5446 ev

!    total energy              =   -1077.91168423 Ry
     estimated scf accuracy    <          7.4E-09 Ry
     smearing contrib. (-TS)   =      -0.00000000 Ry
     internal energy E=F+TS    =   -1077.91168423 Ry

     The total energy is F=E-TS. E is the sum of the following terms:
     one-electron contribution =  -24660.54132339 Ry
     hartree contribution      =   12342.28216906 Ry
     xc contribution           =    -170.02839125 Ry
     ewald contribution        =   11410.37586135 Ry

     convergence has been achieved in   7 iterations

     Forces acting on atoms (cartesian axes, Ry/au):

     atom    1 type  1   force =     0.00014637    0.00000000    0.00048391
     atom    2 type  1   force =     0.00009035    0.00000000   -0.00002175
     atom    3 type  1   force =    -0.00027294    0.00000000    0.00062931
     atom    4 type  1   force =    -0.00012332    0.00000000   -0.00059567
     atom    5 type  1   force =     0.00008823    0.00000000    0.00021095
     atom    6 type  1   force =     0.00020259    0.00000000   -0.00029397
     atom    7 type  2   force =     0.00022735    0.00000000    0.00039983
     atom    8 type  2   force =     0.00088262    0.00000000   -0.00083175
     atom    9 type  2   force =    -0.00031290    0.00000000   -0.00024629
     atom   10 type  2   force =    -0.00085601    0.00000000    0.00066881
     atom   11 type  2   force =    -0.00010286    0.00000000    0.00029309
     atom   12 type  2   force =     0.00012777    0.00000000   -0.00127152
     atom   13 type  2   force =    -0.00043582    0.00000000   -0.00084046
     atom   14 type  2   force =     0.00004757    0.00000000    0.00050683
     atom   15 type  2   force =    -0.00033988    0.00000000    0.00080104
     atom   16 type  2   force =    -0.00025560    0.00000000    0.00000105
     atom   17 type  2   force =     0.00050708    0.00000000   -0.00029208
     atom   18 type  2   force =     0.00037940    0.00000000    0.00039868

     Total force =     0.002943     Total SCF correction =     0.000381
     SCF correction compared to forces is large: reduce conv_thr to get better values


     Computing stress (Cartesian axis) and pressure

          total   stress  (Ry/bohr**3)                   (kbar)     P=       -0.37
   0.00000055   0.00000000   0.00000009            0.08        0.00        0.01
   0.00000000  -0.00000363   0.00000000            0.00       -0.53        0.00
   0.00000009   0.00000000  -0.00000442            0.01        0.00       -0.65

     Energy error            =      2.0E-05 Ry
     Gradient error          =      1.3E-03 Ry/Bohr
     Cell gradient error     =      5.3E-01 kbar

     number of scf cycles    =  24
     number of bfgs steps    =  23

     enthalpy           old  =   -1077.9116641524 Ry
     enthalpy           new  =   -1077.9116842313 Ry

     CASE: enthalpy          _new < enthalpy          _old

     new trust radius        =       0.0081239320 bohr
     new conv_thr            =       0.0000000100 Ry

     new unit-cell volume =   3565.49501 a.u.^3 (   528.35185 Ang^3 )
     density =      1.50603 g/cm^3

CELL_PARAMETERS (angstrom)
   4.779334196   0.000000000   0.000000000
   0.000000000   2.949709160   0.000000000
   0.000000000   0.000000000  37.478019714

ATOMIC_POSITIONS (angstrom)
Ti               0.1829633413        0.0000000000       14.6227135012
Ti               2.5336174257        1.4748544928       16.8424144572
Ti               0.1288762302        0.0000000000       19.2135605383
Ti               2.5178020810        1.4748544928       21.4589977748
Ti               0.1426763465        0.0000000000       23.8296479729
Ti               2.5717854693        1.4748544928       26.0465186617
O                0.6201778876        1.4748545805       13.6070861226
O                1.4664038742        0.0000000000       15.9413093478
O                3.2808067744        0.0000000000       17.7858235329
O                0.8809435445        1.4748545805       18.2647684943
O                3.7633524394        1.4748545805       15.4525047189
O                1.4807074065        0.0000000000       20.5618638527
O                3.2703022903        0.0000000000       22.4051545211
O                0.8938646727        1.4748545805       22.8906610056
O                3.8737326151        1.4748545805       20.1144502319
O                1.3692505938        0.0000000000       25.2227208781
O                3.0149537662        0.0000000000       27.0591135599
O                3.8527871493        1.4748545805       24.7255390720



     Writing config-only to output data dir ./Out/pwscf.save/
     NEW-OLD atomic charge density approx. for the potential

     negative rho (up, down):  1.138E-05 0.000E+00

     total cpu time spent up to now is      945.6 secs

     Self-consistent Calculation

     iteration #  1     ecut=   120.00 Ry     beta= 0.40
     Davidson diagonalization with overlap
     ethr =  1.00E-06,  avg # of iterations =  4.0

     Threshold (ethr) on eigenvalues was too large:
     Diagonalizing with lowered threshold

     Davidson diagonalization with overlap
     ethr =  1.73E-08,  avg # of iterations =  4.8

     negative rho (up, down):  6.624E-06 0.000E+00

     total cpu time spent up to now is      954.1 secs

     total energy              =   -1077.91170135 Ry
     estimated scf accuracy    <       0.00002389 Ry

     iteration #  2     ecut=   120.00 Ry     beta= 0.40
     Davidson diagonalization with overlap
     ethr =  1.66E-08,  avg # of iterations =  2.0

     negative rho (up, down):  3.025E-06 0.000E+00

     total cpu time spent up to now is      957.4 secs

     total energy              =   -1077.91170189 Ry
     estimated scf accuracy    <       0.00000529 Ry

     iteration #  3     ecut=   120.00 Ry     beta= 0.40
     Davidson diagonalization with overlap
     ethr =  3.68E-09,  avg # of iterations =  3.0

     negative rho (up, down):  1.552E-06 0.000E+00

     total cpu time spent up to now is      961.0 secs

     total energy              =   -1077.91170251 Ry
     estimated scf accuracy    <       0.00000249 Ry

     iteration #  4     ecut=   120.00 Ry     beta= 0.40
     Davidson diagonalization with overlap
     ethr =  1.73E-09,  avg # of iterations =  2.9

     negative rho (up, down):  8.168E-07 0.000E+00

     total cpu time spent up to now is      964.5 secs

     total energy              =   -1077.91170296 Ry
     estimated scf accuracy    <       0.00000028 Ry

     iteration #  5     ecut=   120.00 Ry     beta= 0.40
     Davidson diagonalization with overlap
     ethr =  1.94E-10,  avg # of iterations =  5.0

     negative rho (up, down):  2.969E-07 0.000E+00

     total cpu time spent up to now is      968.6 secs

     total energy              =   -1077.91170306 Ry
     estimated scf accuracy    <       0.00000013 Ry

     iteration #  6     ecut=   120.00 Ry     beta= 0.40
     Davidson diagonalization with overlap
     ethr =  8.79E-11,  avg # of iterations =  2.9

     negative rho (up, down):  4.109E-08 0.000E+00

     total cpu time spent up to now is      972.0 secs

     total energy              =   -1077.91170308 Ry
     estimated scf accuracy    <       0.00000001 Ry

     iteration #  7     ecut=   120.00 Ry     beta= 0.40
     Davidson diagonalization with overlap
     ethr =  1.04E-11,  avg # of iterations =  5.5

     total cpu time spent up to now is      976.1 secs

     End of self-consistent calculation

          k = 0.0000 0.0000 0.0000 ( 76179 PWs)   bands (ev):

   -58.3685 -58.3595 -58.3353 -58.3298 -57.9042 -57.8998 -34.6599 -34.6548
   -34.6265 -34.6237 -34.5687 -34.5593 -34.5425 -34.5361 -34.4560 -34.4463
   -34.4406 -34.4339 -34.2954 -34.2914 -34.1688 -34.1645 -33.9452 -33.9409
   -19.4401 -19.2326 -18.8674 -18.5390 -18.3837 -18.3795 -18.0174 -17.9817
   -17.8543 -17.8491 -17.4301 -17.4238  -6.9723  -6.6624  -6.5528  -6.4182
    -6.0233  -5.8278  -5.7983  -5.5521  -5.2319  -5.2274  -5.1431  -5.1372
    -4.9229  -4.7639  -4.7631  -4.6178  -4.3780  -4.2833  -4.1520  -3.7291
    -3.5890  -3.5019  -3.3606  -3.3291  -3.1197  -3.1131  -2.9150  -2.9105
    -2.8496  -2.6951  -2.5753  -2.3894  -2.3725  -2.1697  -1.9051  -1.6924
     0.6390   0.8385   0.9579   1.0406   1.1551   1.2116   1.2758   1.2883
     1.4381   1.5830   1.5984   2.1786   2.2072   2.3068

          k = 0.0000 0.1732 0.0000 ( 76281 PWs)   bands (ev):

   -58.3634 -58.3549 -58.3305 -58.3250 -57.8991 -57.8947 -34.6483 -34.6427
   -34.6164 -34.6118 -34.5679 -34.5570 -34.5389 -34.5328 -34.5073 -34.4996
   -34.4931 -34.4881 -34.2904 -34.2864 -34.1602 -34.1559 -34.0029 -33.9987
   -19.3184 -19.1212 -18.7734 -18.4540 -18.3084 -18.2985 -18.0577 -18.0168
   -17.9061 -17.8955 -17.4614 -17.4558  -6.8037  -6.5120  -6.4134  -6.2735
    -5.9401  -5.7792  -5.7486  -5.5745  -5.4245  -5.4218  -5.3594  -5.1678
    -4.8133  -4.7726  -4.5681  -4.4551  -4.2818  -4.0826  -4.0215  -3.8770
    -3.8529  -3.6420  -3.4751  -3.3368  -3.3345  -3.1899  -3.1770  -2.9738
    -2.9700  -2.9138  -2.6542  -2.4092  -2.3980  -2.1536  -1.9441  -1.7310
     0.7604   0.9446   1.0031   1.0462   1.1781   1.2308   1.3092   1.3340
     1.5203   1.6054   1.7499   1.8536   1.9049   2.3603

          k = 0.0000 0.3463 0.0000 ( 76251 PWs)   bands (ev):

   -58.3505 -58.3431 -58.3182 -58.3127 -57.8861 -57.8817 -34.6601 -34.6511
   -34.6444 -34.6375 -34.6077 -34.6063 -34.5767 -34.5705 -34.5413 -34.5391
   -34.5277 -34.5222 -34.2813 -34.2772 -34.1745 -34.1703 -34.1083 -34.1041
   -18.9967 -18.8357 -18.5644 -18.3040 -18.1628 -18.1336 -18.0826 -18.0795
   -18.0134 -18.0032 -17.5263 -17.5223  -6.3621  -6.1555  -6.0598  -5.9563
    -5.7826  -5.6920  -5.6709  -5.6111  -5.5776  -5.5675  -5.3642  -5.2329
    -4.7986  -4.6756  -4.5754  -4.5537  -4.4905  -4.2902  -4.1799  -4.1749
    -4.1237  -3.8232  -3.7937  -3.4823  -3.4760  -3.3138  -3.2519  -3.0155
    -2.8866  -2.8457  -2.7299  -2.6409  -2.6143  -2.2251  -2.0617  -1.9276
     0.8238   0.9864   1.0387   1.0595   1.1257   1.3642   1.3947   1.5087
     1.6865   1.7572   1.8639   1.8749   1.9846   2.1661

          k = 0.0000 0.5195 0.0000 ( 76270 PWs)   bands (ev):

   -58.3356 -58.3298 -58.3042 -58.2987 -57.8713 -57.8669 -34.8022 -34.7966
   -34.7922 -34.7888 -34.5765 -34.5728 -34.5424 -34.5408 -34.5291 -34.5282
   -34.5192 -34.5134 -34.3325 -34.3285 -34.2591 -34.2551 -34.0926 -34.0882
   -18.5936 -18.5187 -18.4613 -18.3810 -18.2142 -18.1115 -18.0283 -18.0280
   -17.9379 -17.9258 -17.5268 -17.5235  -5.9464  -5.8868  -5.8695  -5.7957
    -5.7004  -5.6752  -5.6707  -5.6334  -5.5188  -5.4787  -5.4465  -5.2869
    -5.0870  -5.0831  -4.7812  -4.7096  -4.5567  -4.2556  -4.1695  -4.1364
    -4.0461  -3.8550  -3.7565  -3.6161  -3.5676  -3.2862  -3.1812  -3.0855
    -3.0123  -2.9178  -2.9083  -2.7213  -2.6760  -2.3721  -2.3108  -2.2889
     0.7045   0.9094   0.9632   1.2680   1.4011   1.4318   1.6033   1.6064
     1.7651   1.8665   1.9454   2.0260   2.2000   2.2130

          k = 0.0000 0.6927 0.0000 ( 76376 PWs)   bands (ev):

   -58.3257 -58.3212 -58.2951 -58.2895 -57.8616 -57.8572 -34.8955 -34.8934
   -34.8897 -34.8873 -34.5523 -34.5483 -34.5285 -34.5239 -34.5194 -34.5164
   -34.5129 -34.5080 -34.4255 -34.4214 -34.2561 -34.2521 -34.0735 -34.0692
   -18.4981 -18.4757 -18.3829 -18.3300 -18.2327 -18.0662 -18.0327 -17.9661
   -17.8780 -17.8513 -17.4448 -17.4413  -6.2805  -6.1876  -6.0316  -5.9571
    -5.6623  -5.6561  -5.5709  -5.5133  -5.4096  -5.4080  -5.3252  -5.3077
    -4.9219  -4.8719  -4.5996  -4.4786  -4.3156  -4.2176  -4.1736  -4.1463
    -4.1061  -4.0469  -3.8814  -3.6237  -3.5097  -3.2990  -3.2291  -3.1220
    -3.0229  -2.9852  -2.9512  -2.8273  -2.7750  -2.6984  -2.4695  -2.3787
     0.6998   0.9245   1.0758   1.2258   1.4014   1.6476   1.6848   1.7449
     1.7943   1.8395   2.0745   2.0780   2.2739   2.3241

          k = 0.1603 0.0000 0.0000 ( 76264 PWs)   bands (ev):

   -58.3679 -58.3599 -58.3354 -58.3298 -57.9042 -57.8998 -34.6613 -34.6577
   -34.6268 -34.6242 -34.5671 -34.5599 -34.5416 -34.5356 -34.4546 -34.4459
   -34.4410 -34.4351 -34.2952 -34.2912 -34.1687 -34.1644 -33.9452 -33.9410
   -19.3678 -19.1896 -18.8691 -18.5775 -18.4029 -18.3972 -18.0209 -18.0079
   -17.8779 -17.8461 -17.4326 -17.4280  -6.8976  -6.7526  -6.4592  -6.4531
    -5.9127  -5.8186  -5.7575  -5.4445  -5.2373  -5.2331  -5.1481  -5.1413
    -4.8987  -4.7680  -4.7665  -4.5667  -4.4158  -4.2207  -4.0782  -3.6941
    -3.6299  -3.4660  -3.3404  -3.2815  -3.1505  -3.1373  -2.9828  -2.9392
    -2.7671  -2.7669  -2.6396  -2.6085  -2.5124  -2.3477  -2.0448  -1.8115
     0.6998   0.7839   0.9920   1.0549   1.1877   1.2215   1.2951   1.3995
     1.5337   1.6348   1.7341   2.1717   2.2520   2.2646

          k = 0.1603 0.1732 0.0000 ( 76282 PWs)   bands (ev):

   -58.3629 -58.3552 -58.3305 -58.3250 -57.8991 -57.8947 -34.6492 -34.6459
   -34.6159 -34.6128 -34.5664 -34.5577 -34.5383 -34.5323 -34.5057 -34.4996
   -34.4939 -34.4886 -34.2903 -34.2862 -34.1602 -34.1559 -34.0029 -33.9987
   -19.2497 -19.0800 -18.7743 -18.4921 -18.3183 -18.3160 -18.0608 -18.0472
   -17.9257 -17.8957 -17.4637 -17.4594  -6.7376  -6.6043  -6.3159  -6.3095
    -5.8674  -5.7835  -5.7151  -5.5722  -5.4623  -5.3929  -5.2904  -5.1123
    -4.7900  -4.7612  -4.5404  -4.4177  -4.3338  -4.1120  -3.9760  -3.8112
    -3.7810  -3.6989  -3.5397  -3.2883  -3.2697  -3.1958  -3.1746  -3.0379
    -3.0042  -2.9286  -2.6597  -2.5385  -2.5251  -2.3130  -2.0722  -1.8452
     0.7781   0.8942   1.0220   1.1298   1.1792   1.2632   1.3182   1.4219
     1.6006   1.6114   1.8153   1.8583   1.9234   2.3595

          k = 0.1603 0.3463 0.0000 ( 76223 PWs)   bands (ev):

   -58.3501 -58.3434 -58.3183 -58.3127 -57.8861 -57.8817 -34.6588 -34.6504
   -34.6458 -34.6389 -34.6105 -34.6060 -34.5759 -34.5719 -34.5417 -34.5384
   -34.5262 -34.5220 -34.2812 -34.2772 -34.1745 -34.1703 -34.1082 -34.1039
   -18.9403 -18.7997 -18.5583 -18.3279 -18.1571 -18.1428 -18.1165 -18.0966
   -18.0357 -18.0043 -17.5280 -17.5244  -6.3329  -6.2320  -6.0132  -5.9729
    -5.8002  -5.7929  -5.6694  -5.6445  -5.6097  -5.5364  -5.1883  -5.0789
    -4.8767  -4.7020  -4.6055  -4.5591  -4.3885  -4.3687  -4.1282  -4.0948
    -4.0814  -3.8003  -3.7731  -3.5280  -3.5092  -3.2596  -3.1961  -3.0605
    -2.9511  -2.8538  -2.7692  -2.6249  -2.6030  -2.3134  -2.1353  -2.0091
     0.8049   1.0007   1.0207   1.1185   1.1947   1.3706   1.4322   1.4912
     1.6848   1.7268   1.8677   1.8768   2.0850   2.1576

          k = 0.1603 0.5195 0.0000 ( 76310 PWs)   bands (ev):

   -58.3354 -58.3299 -58.3042 -58.2987 -57.8713 -57.8669 -34.8016 -34.7963
   -34.7922 -34.7896 -34.5775 -34.5739 -34.5428 -34.5409 -34.5305 -34.5266
   -34.5176 -34.5140 -34.3326 -34.3286 -34.2591 -34.2550 -34.0926 -34.0883
   -18.5702 -18.5018 -18.4460 -18.3620 -18.1987 -18.1640 -18.0604 -18.0178
   -17.9411 -17.9359 -17.5267 -17.5234  -5.9927  -5.9452  -5.8642  -5.8605
    -5.7633  -5.7089  -5.6552  -5.6381  -5.5930  -5.5037  -5.4686  -5.3576
    -5.1188  -4.8778  -4.6844  -4.6270  -4.4845  -4.2863  -4.1987  -4.0709
    -4.0684  -3.8937  -3.6821  -3.5935  -3.5687  -3.2095  -3.1640  -3.0917
    -3.0375  -2.9622  -2.8321  -2.7053  -2.6432  -2.3797  -2.3060  -2.2964
     0.7260   0.9314   0.9651   1.3370   1.4441   1.4674   1.5736   1.6246
     1.7907   1.8048   1.8799   1.9607   2.1314   2.2158

          k = 0.1603 0.6927 0.0000 ( 76348 PWs)   bands (ev):

   -58.3256 -58.3212 -58.2951 -58.2895 -57.8616 -57.8572 -34.8953 -34.8932
   -34.8900 -34.8875 -34.5526 -34.5488 -34.5288 -34.5243 -34.5191 -34.5153
   -34.5134 -34.5087 -34.4253 -34.4212 -34.2562 -34.2522 -34.0736 -34.0693
   -18.4966 -18.4861 -18.3646 -18.3629 -18.1669 -18.1113 -17.9954 -17.9896
   -17.8788 -17.8573 -17.4421 -17.4386  -6.2791  -6.2328  -6.0277  -6.0115
    -5.7461  -5.7178  -5.5640  -5.5395  -5.5178  -5.4506  -5.3553  -5.3036
    -5.0801  -4.8283  -4.5487  -4.5167  -4.3034  -4.2298  -4.1816  -4.0871
    -3.9805  -3.9764  -3.7603  -3.5395  -3.3741  -3.2250  -3.2103  -3.1444
    -3.0073  -3.0002  -2.9067  -2.7743  -2.7479  -2.6819  -2.4633  -2.3728
     0.7536   0.9355   1.1517   1.1841   1.5022   1.5701   1.7014   1.7448
     1.7917   1.8298   2.0496   2.0568   2.2094   2.2154

          k = 0.3206 0.0000 0.0000 ( 76372 PWs)   bands (ev):

   -58.3667 -58.3609 -58.3355 -58.3299 -57.9042 -57.8998 -34.6639 -34.6628
   -34.6277 -34.6254 -34.5649 -34.5607 -34.5389 -34.5353 -34.4510 -34.4452
   -34.4421 -34.4381 -34.2948 -34.2907 -34.1685 -34.1642 -33.9453 -33.9410
   -19.1710 -19.0780 -18.8797 -18.6848 -18.4817 -18.4740 -18.0337 -18.0181
   -17.8962 -17.8622 -17.4397 -17.4359  -6.7992  -6.7669  -6.5397  -6.4224
    -5.8327  -5.8153  -5.3747  -5.2496  -5.2447  -5.1601  -5.1465  -5.0971
    -4.7742  -4.7724  -4.7204  -4.4457  -4.4295  -4.3495  -3.9498  -3.8101
    -3.6738  -3.4068  -3.3144  -3.2811  -3.2387  -3.2260  -3.0207  -3.0117
    -2.9305  -2.9032  -2.7135  -2.7119  -2.6882  -2.6356  -2.3307  -2.1168
     0.7551   0.7686   0.9783   1.0646   1.1911   1.3346   1.4731   1.5443
     1.7140   1.8186   1.9830   2.1216   2.1315   2.1646

          k = 0.3206 0.1732 0.0000 ( 76383 PWs)   bands (ev):

   -58.3618 -58.3562 -58.3306 -58.3251 -57.8991 -57.8947 -34.6515 -34.6508
   -34.6163 -34.6142 -34.5639 -34.5589 -34.5363 -34.5321 -34.5022 -34.4985
   -34.4957 -34.4906 -34.2899 -34.2859 -34.1600 -34.1557 -34.0029 -33.9987
   -19.0626 -18.9734 -18.7832 -18.5958 -18.3947 -18.3869 -18.0719 -18.0562
   -17.9434 -17.9094 -17.4701 -17.4664  -6.6512  -6.6210  -6.3914  -6.2777
    -5.7760  -5.7627  -5.6083  -5.5653  -5.4917  -5.4299  -5.0501  -4.8482
    -4.7669  -4.7279  -4.4431  -4.3831  -4.2927  -4.1566  -3.9902  -3.8826
    -3.7028  -3.6475  -3.5315  -3.3413  -3.2959  -3.2235  -3.1683  -3.1663
    -3.0665  -2.9974  -2.8443  -2.7917  -2.5895  -2.5194  -2.3018  -2.0925
     0.8106   0.8269   1.0066   1.1387   1.3076   1.3326   1.4443   1.4970
     1.7344   1.7633   1.8634   1.9104   2.0391   2.3137

          k = 0.3206 0.3463 0.0000 ( 76318 PWs)   bands (ev):

   -58.3493 -58.3441 -58.3183 -58.3127 -57.8861 -57.8817 -34.6560 -34.6506
   -34.6466 -34.6413 -34.6153 -34.6066 -34.5763 -34.5732 -34.5413 -34.5380
   -34.5238 -34.5213 -34.2812 -34.2771 -34.1745 -34.1703 -34.1080 -34.1037
   -18.7872 -18.7074 -18.5516 -18.4002 -18.2358 -18.2276 -18.1138 -18.1009
   -18.0445 -18.0166 -17.5319 -17.5286  -6.2777  -6.2672  -6.0669  -5.9525
    -5.8654  -5.8158  -5.7407  -5.6542  -5.6404  -5.6164  -4.9869  -4.9486
    -4.7473  -4.6564  -4.5569  -4.5169  -4.4190  -4.3137  -4.0962  -4.0247
    -3.9104  -3.8087  -3.7684  -3.5821  -3.4630  -3.2548  -3.2517  -3.1179
    -2.9660  -2.9506  -2.7960  -2.6345  -2.5708  -2.5070  -2.3075  -2.1931
     0.8867   0.9642   1.0366   1.2204   1.2494   1.3307   1.4520   1.5379
     1.7433   1.7650   1.9736   1.9885   2.0784   2.1056

          k = 0.3206 0.5195 0.0000 ( 76259 PWs)   bands (ev):

   -58.3350 -58.3303 -58.3043 -58.2987 -57.8713 -57.8669 -34.8002 -34.7963
   -34.7927 -34.7905 -34.5794 -34.5763 -34.5434 -34.5417 -34.5291 -34.5266
   -34.5165 -34.5138 -34.3326 -34.3286 -34.2589 -34.2548 -34.0926 -34.0883
   -18.5097 -18.4648 -18.4101 -18.3196 -18.2502 -18.1660 -18.1226 -18.0385
   -17.9574 -17.9543 -17.5264 -17.5231  -6.0573  -6.0320  -5.9835  -5.8802
    -5.8368  -5.8211  -5.6988  -5.6830  -5.6478  -5.5126  -5.4411  -5.4272
    -5.0503  -4.7240  -4.6533  -4.6033  -4.3761  -4.2109  -4.1037  -4.0089
    -3.9886  -3.9100  -3.7068  -3.5043  -3.4395  -3.3098  -3.1831  -3.0773
    -2.9559  -2.8928  -2.7481  -2.6585  -2.5657  -2.4296  -2.3713  -2.3507
     0.8076   1.0163   1.0766   1.3890   1.4128   1.4814   1.5381   1.6149
     1.6818   1.7682   1.9342   1.9840   2.0969   2.0994

          k = 0.3206 0.6927 0.0000 ( 76319 PWs)   bands (ev):

   -58.3256 -58.3213 -58.2951 -58.2895 -57.8616 -57.8572 -34.8950 -34.8934
   -34.8900 -34.8874 -34.5533 -34.5497 -34.5289 -34.5244 -34.5179 -34.5151
   -34.5141 -34.5101 -34.4250 -34.4209 -34.2563 -34.2523 -34.0738 -34.0695
   -18.4981 -18.4950 -18.3807 -18.3548 -18.1191 -18.0770 -18.0307 -17.9870
   -17.8883 -17.8702 -17.4371 -17.4334  -6.2916  -6.2818  -6.1214  -6.1052
    -5.9274  -5.8825  -5.6540  -5.5566  -5.5125  -5.4444  -5.3697  -5.3639
    -5.0688  -4.8771  -4.6204  -4.5089  -4.2446  -4.1938  -4.1603  -4.0504
    -4.0005  -3.9105  -3.5256  -3.4286  -3.2666  -3.1914  -3.1123  -2.9953
    -2.9829  -2.8647  -2.8107  -2.7623  -2.6033  -2.5775  -2.4510  -2.3722
     0.8049   0.9541   1.1551   1.2833   1.5105   1.6208   1.7302   1.7387
     1.7714   1.8020   2.0091   2.0152   2.1083   2.1355

          k =-0.4809 0.0000 0.0000 ( 76438 PWs)   bands (ev):

   -58.3658 -58.3616 -58.3355 -58.3300 -57.9042 -57.8998 -34.6654 -34.6649
   -34.6282 -34.6259 -34.5628 -34.5622 -34.5374 -34.5354 -34.4475 -34.4452
   -34.4437 -34.4399 -34.2946 -34.2905 -34.1684 -34.1641 -33.9453 -33.9410
   -18.9714 -18.9709 -18.8799 -18.8772 -18.5389 -18.5356 -18.0190 -18.0154
   -17.8923 -17.8893 -17.4436 -17.4400  -6.7683  -6.7682  -6.4959  -6.4955
    -5.8240  -5.8214  -5.2556  -5.2516  -5.1608  -5.1541  -4.7760  -4.7751
    -4.7576  -4.7558  -4.6261  -4.6212  -4.3723  -4.3700  -4.1966  -4.1915
    -3.5305  -3.5271  -3.3206  -3.3198  -3.2389  -3.2370  -3.0614  -3.0539
    -2.9477  -2.9453  -2.7511  -2.7483  -2.6205  -2.6171  -2.4639  -2.4596
     0.7657   0.7668   1.0127   1.0149   1.3157   1.3171   1.5218   1.5233
     2.0378   2.0422   2.0431   2.0468   2.1670   2.1693

          k =-0.4809 0.1732 0.0000 ( 76384 PWs)   bands (ev):

   -58.3610 -58.3568 -58.3306 -58.3251 -57.8991 -57.8947 -34.6532 -34.6526
   -34.6168 -34.6147 -34.5613 -34.5610 -34.5349 -34.5324 -34.5003 -34.4980
   -34.4944 -34.4939 -34.2897 -34.2857 -34.1600 -34.1557 -34.0029 -33.9987
   -18.8728 -18.8727 -18.7819 -18.7796 -18.4514 -18.4479 -18.0542 -18.0508
   -17.9385 -17.9357 -17.4735 -17.4701  -6.6234  -6.6233  -6.3477  -6.3475
    -5.7637  -5.7612  -5.5547  -5.5529  -5.4648  -5.4602  -4.7795  -4.7783
    -4.6840  -4.6829  -4.3713  -4.3694  -4.1741  -4.1704  -4.0483  -4.0462
    -3.6487  -3.6478  -3.4999  -3.4995  -3.3551  -3.3517  -3.2032  -3.1996
    -3.0895  -3.0886  -2.8949  -2.8881  -2.5154  -2.5142  -2.3443  -2.3408
     0.8058   0.8080   1.0553   1.0568   1.3841   1.3872   1.5012   1.5029
     1.8004   1.8050   2.1105   2.1146   2.1589   2.1635

          k =-0.4809 0.3463 0.0000 ( 76352 PWs)   bands (ev):

   -58.3487 -58.3445 -58.3183 -58.3128 -57.8861 -57.8817 -34.6536 -34.6522
   -34.6452 -34.6443 -34.6126 -34.6118 -34.5766 -34.5736 -34.5403 -34.5385
   -34.5227 -34.5209 -34.2811 -34.2771 -34.1745 -34.1703 -34.1078 -34.1036
   -18.6268 -18.6265 -18.5471 -18.5455 -18.2914 -18.2885 -18.0928 -18.0894
   -18.0415 -18.0390 -17.5339 -17.5307  -6.2648  -6.2644  -6.0096  -6.0086
    -5.8677  -5.8665  -5.7481  -5.7442  -5.6204  -5.6191  -5.0067  -5.0065
    -4.5892  -4.5886  -4.5073  -4.5067  -4.1908  -4.1898  -4.0981  -4.0969
    -3.8253  -3.8223  -3.6583  -3.6572  -3.4454  -3.4444  -3.2941  -3.2912
    -2.9438  -2.9416  -2.6998  -2.6965  -2.5436  -2.5398  -2.3760  -2.3731
     0.9598   0.9639   1.1346   1.1374   1.2303   1.2359   1.5915   1.5940
     1.8642   1.8673   1.9859   1.9939   2.0458   2.0487

          k =-0.4809 0.5195 0.0000 ( 76318 PWs)   bands (ev):

   -58.3347 -58.3305 -58.3043 -58.2987 -57.8713 -57.8669 -34.7986 -34.7978
   -34.7929 -34.7904 -34.5798 -34.5782 -34.5434 -34.5418 -34.5287 -34.5271
   -34.5159 -34.5135 -34.3327 -34.3287 -34.2588 -34.2548 -34.0927 -34.0883
   -18.4539 -18.4532 -18.3638 -18.3623 -18.2233 -18.2226 -18.0898 -18.0885
   -17.9685 -17.9650 -17.5262 -17.5230  -6.0643  -6.0632  -5.9930  -5.9917
    -5.8589  -5.8578  -5.7376  -5.7369  -5.5938  -5.5917  -5.4180  -5.4165
    -4.8399  -4.8385  -4.6716  -4.6707  -4.2015  -4.2002  -4.0704  -4.0662
    -3.8513  -3.8489  -3.6292  -3.6276  -3.3850  -3.3825  -3.1139  -3.1130
    -2.8254  -2.8224  -2.6179  -2.6147  -2.5683  -2.5654  -2.4346  -2.4309
     1.0209   1.0221   1.2159   1.2166   1.3173   1.3217   1.6304   1.6347
     1.8036   1.8093   1.9235   1.9274   2.0528   2.0552

          k =-0.4809 0.6927 0.0000 ( 76294 PWs)   bands (ev):

   -58.3255 -58.3213 -58.2951 -58.2895 -57.8615 -57.8572 -34.8948 -34.8940
   -34.8897 -34.8873 -34.5537 -34.5502 -34.5284 -34.5238 -34.5185 -34.5154
   -34.5145 -34.5105 -34.4248 -34.4207 -34.2563 -34.2523 -34.0739 -34.0695
   -18.4983 -18.4981 -18.3717 -18.3703 -18.0831 -18.0815 -18.0095 -18.0081
   -17.8881 -17.8876 -17.4347 -17.4309  -6.2953  -6.2948  -6.1814  -6.1806
    -5.9777  -5.9773  -5.6513  -5.6500  -5.4642  -5.4624  -5.3701  -5.3655
    -4.8870  -4.8856  -4.6763  -4.6754  -4.2021  -4.1987  -4.0634  -4.0604
    -3.9673  -3.9651  -3.4742  -3.4734  -3.2102  -3.2082  -3.0010  -3.0007
    -2.8479  -2.8441  -2.6879  -2.6865  -2.5170  -2.5147  -2.4253  -2.4234
     0.8630   0.8636   1.2052   1.2064   1.6585   1.6609   1.7243   1.7290
     1.8009   1.8047   1.9788   1.9831   2.0858   2.0890

     the Fermi energy is    -0.5405 ev

!    total energy              =   -1077.91170308 Ry
     estimated scf accuracy    <          5.7E-09 Ry
     smearing contrib. (-TS)   =      -0.00000000 Ry
     internal energy E=F+TS    =   -1077.91170308 Ry

     The total energy is F=E-TS. E is the sum of the following terms:
     one-electron contribution =  -24653.75288774 Ry
     hartree contribution      =   12338.89122675 Ry
     xc contribution           =    -170.02884159 Ry
     ewald contribution        =   11406.97879950 Ry

     convergence has been achieved in   7 iterations

     Forces acting on atoms (cartesian axes, Ry/au):

     atom    1 type  1   force =     0.00002789    0.00000000    0.00022567
     atom    2 type  1   force =     0.00017877    0.00000000    0.00052240
     atom    3 type  1   force =    -0.00014604    0.00000000    0.00040599
     atom    4 type  1   force =     0.00006625    0.00000000   -0.00032049
     atom    5 type  1   force =     0.00040578    0.00000000   -0.00038568
     atom    6 type  1   force =     0.00011374    0.00000000   -0.00019524
     atom    7 type  2   force =     0.00044874    0.00000000    0.00002221
     atom    8 type  2   force =     0.00071099    0.00000000   -0.00075965
     atom    9 type  2   force =    -0.00004514    0.00000000   -0.00051271
     atom   10 type  2   force =    -0.00073091    0.00000000    0.00060710
     atom   11 type  2   force =    -0.00066071    0.00000000    0.00077138
     atom   12 type  2   force =     0.00005820    0.00000000   -0.00098088
     atom   13 type  2   force =    -0.00037946    0.00000000   -0.00075961
     atom   14 type  2   force =     0.00015240    0.00000000    0.00065639
     atom   15 type  2   force =    -0.00026987    0.00000000    0.00070658
     atom   16 type  2   force =    -0.00076328    0.00000000   -0.00062879
     atom   17 type  2   force =     0.00061974    0.00000000    0.00010386
     atom   18 type  2   force =     0.00021290    0.00000000    0.00052147

     Total force =     0.002983     Total SCF correction =     0.000160


     Computing stress (Cartesian axis) and pressure

          total   stress  (Ry/bohr**3)                   (kbar)     P=       -0.33
   0.00000119   0.00000000  -0.00000001            0.17        0.00       -0.00
   0.00000000  -0.00000373   0.00000000            0.00       -0.55        0.00
  -0.00000001   0.00000000  -0.00000425           -0.00        0.00       -0.63

     Energy error            =      1.9E-05 Ry
     Gradient error          =      9.8E-04 Ry/Bohr
     Cell gradient error     =      5.5E-01 kbar

     number of scf cycles    =  25
     number of bfgs steps    =  24

     enthalpy           old  =   -1077.9116842313 Ry
     enthalpy           new  =   -1077.9117030842 Ry

     CASE: enthalpy          _new < enthalpy          _old

     new trust radius        =       0.0068968412 bohr
     new conv_thr            =       0.0000000100 Ry

     new unit-cell volume =   3566.25732 a.u.^3 (   528.46481 Ang^3 )
     density =      1.50571 g/cm^3

CELL_PARAMETERS (angstrom)
   4.781031996   0.000000000   0.000000000
   0.000000000   2.949292111   0.000000000
   0.000000000   0.000000000  37.478019714

ATOMIC_POSITIONS (angstrom)
Ti               0.1839196452        0.0000000000       14.6232348688
Ti               2.5349938778        1.4746459680       16.8417130041
Ti               0.1283891254        0.0000000000       19.2141803496
Ti               2.5184498410        1.4746459680       21.4580699449
Ti               0.1431257484        0.0000000000       23.8307857440
Ti               2.5735603662        1.4746459680       26.0462406845
O                0.6203591888        1.4746460557       13.6073736589
O                1.4697002773        0.0000000000       15.9389382449
O                3.2788544866        0.0000000000       17.7868040419
O                0.8781330610        1.4746460557       18.2643173330
O                3.7666693744        1.4746460557       15.4538224751
O                1.4814024433        0.0000000000       20.5596490919
O                3.2694645667        0.0000000000       22.4047766828
O                0.8927837490        1.4746460557       22.8910704110
O                3.8747268362        1.4746460557       20.1157834207
O                1.3705185019        0.0000000000       25.2232612575
O                3.0174768993        0.0000000000       27.0584641557
O                3.8552094203        1.4746460557       24.7263628747



     Writing config-only to output data dir ./Out/pwscf.save/
     NEW-OLD atomic charge density approx. for the potential

     negative rho (up, down):  1.100E-05 0.000E+00

     total cpu time spent up to now is      982.0 secs

     Self-consistent Calculation

     iteration #  1     ecut=   120.00 Ry     beta= 0.40
     Davidson diagonalization with overlap
     ethr =  1.00E-06,  avg # of iterations =  4.0

     Threshold (ethr) on eigenvalues was too large:
     Diagonalizing with lowered threshold

     Davidson diagonalization with overlap
     ethr =  1.38E-08,  avg # of iterations =  5.8

     negative rho (up, down):  6.401E-06 0.000E+00

     total cpu time spent up to now is      990.6 secs

     total energy              =   -1077.91171772 Ry
     estimated scf accuracy    <       0.00002127 Ry

     iteration #  2     ecut=   120.00 Ry     beta= 0.40
     Davidson diagonalization with overlap
     ethr =  1.48E-08,  avg # of iterations =  2.0

     negative rho (up, down):  3.150E-06 0.000E+00

     total cpu time spent up to now is      993.9 secs

     total energy              =   -1077.91171822 Ry
     estimated scf accuracy    <       0.00000465 Ry

     iteration #  3     ecut=   120.00 Ry     beta= 0.40
     Davidson diagonalization with overlap
     ethr =  3.23E-09,  avg # of iterations =  2.3

     negative rho (up, down):  1.543E-06 0.000E+00

     total cpu time spent up to now is      997.5 secs

     total energy              =   -1077.91171872 Ry
     estimated scf accuracy    <       0.00000203 Ry

     iteration #  4     ecut=   120.00 Ry     beta= 0.40
     Davidson diagonalization with overlap
     ethr =  1.41E-09,  avg # of iterations =  2.5

     negative rho (up, down):  9.059E-07 0.000E+00

     total cpu time spent up to now is     1000.9 secs

     total energy              =   -1077.91171908 Ry
     estimated scf accuracy    <       0.00000029 Ry

     iteration #  5     ecut=   120.00 Ry     beta= 0.40
     Davidson diagonalization with overlap
     ethr =  1.98E-10,  avg # of iterations =  5.0

     negative rho (up, down):  2.392E-07 0.000E+00

     total cpu time spent up to now is     1004.8 secs

     total energy              =   -1077.91171917 Ry
     estimated scf accuracy    <       0.00000009 Ry

     iteration #  6     ecut=   120.00 Ry     beta= 0.40
     Davidson diagonalization with overlap
     ethr =  6.33E-11,  avg # of iterations =  3.4

     negative rho (up, down):  3.738E-08 0.000E+00

     total cpu time spent up to now is     1008.5 secs

     total energy              =   -1077.91171918 Ry
     estimated scf accuracy    <       0.00000001 Ry

     iteration #  7     ecut=   120.00 Ry     beta= 0.40
     Davidson diagonalization with overlap
     ethr =  1.01E-11,  avg # of iterations =  4.3

     total cpu time spent up to now is     1012.3 secs

     End of self-consistent calculation

          k = 0.0000 0.0000 0.0000 ( 76179 PWs)   bands (ev):

   -58.3650 -58.3562 -58.3340 -58.3308 -57.9035 -57.9010 -34.6575 -34.6526
   -34.6252 -34.6237 -34.5672 -34.5583 -34.5418 -34.5348 -34.4530 -34.4448
   -34.4397 -34.4315 -34.2953 -34.2930 -34.1684 -34.1658 -33.9447 -33.9422
   -19.4396 -19.2335 -18.8699 -18.5394 -18.3854 -18.3820 -18.0189 -17.9817
   -17.8535 -17.8485 -17.4319 -17.4262  -6.9713  -6.6637  -6.5514  -6.4184
    -6.0226  -5.8309  -5.8010  -5.5524  -5.2351  -5.2308  -5.1411  -5.1357
    -4.9270  -4.7660  -4.7653  -4.6208  -4.3779  -4.2847  -4.1494  -3.7301
    -3.5911  -3.5039  -3.3602  -3.3300  -3.1220  -3.1159  -2.9161  -2.9119
    -2.8506  -2.6991  -2.5778  -2.3900  -2.3753  -2.1711  -1.9081  -1.6954
     0.6424   0.8411   0.9613   1.0437   1.1580   1.2119   1.2752   1.2927
     1.4401   1.5821   1.6038   2.1788   2.2064   2.3079

          k = 0.0000 0.1732 0.0000 ( 76281 PWs)   bands (ev):

   -58.3599 -58.3515 -58.3292 -58.3260 -57.8984 -57.8958 -34.6458 -34.6405
   -34.6152 -34.6116 -34.5664 -34.5558 -34.5383 -34.5318 -34.5050 -34.4987
   -34.4914 -34.4858 -34.2903 -34.2880 -34.1598 -34.1573 -34.0025 -34.0001
   -19.3178 -19.1220 -18.7759 -18.4543 -18.3099 -18.3007 -18.0594 -18.0171
   -17.9052 -17.8949 -17.4631 -17.4583  -6.8027  -6.5133  -6.4117  -6.2738
    -5.9403  -5.7823  -5.7507  -5.5740  -5.4260  -5.4238  -5.3600  -5.1670
    -4.8158  -4.7751  -4.5715  -4.4589  -4.2836  -4.0833  -4.0203  -3.8757
    -3.8523  -3.6440  -3.4760  -3.3374  -3.3338  -3.1916  -3.1798  -2.9755
    -2.9713  -2.9172  -2.6580  -2.4104  -2.3994  -2.1551  -1.9470  -1.7335
     0.7626   0.9471   1.0056   1.0487   1.1797   1.2330   1.3102   1.3347
     1.5220   1.6050   1.7552   1.8543   1.9062   2.3643

          k = 0.0000 0.3464 0.0000 ( 76251 PWs)   bands (ev):

   -58.3470 -58.3397 -58.3169 -58.3137 -57.8854 -57.8828 -34.6575 -34.6500
   -34.6444 -34.6346 -34.6052 -34.6041 -34.5760 -34.5704 -34.5398 -34.5382
   -34.5265 -34.5208 -34.2811 -34.2788 -34.1742 -34.1718 -34.1079 -34.1054
   -18.9958 -18.8361 -18.5669 -18.3049 -18.1623 -18.1334 -18.0851 -18.0816
   -18.0129 -18.0030 -17.5277 -17.5249  -6.3609  -6.1569  -6.0578  -5.9584
    -5.7834  -5.6937  -5.6721  -5.6103  -5.5803  -5.5673  -5.3633  -5.2343
    -4.8017  -4.6774  -4.5767  -4.5548  -4.4909  -4.2929  -4.1816  -4.1773
    -4.1265  -3.8225  -3.7926  -3.4814  -3.4765  -3.3158  -3.2532  -3.0172
    -2.8887  -2.8462  -2.7320  -2.6429  -2.6169  -2.2262  -2.0638  -1.9289
     0.8252   0.9871   1.0390   1.0596   1.1275   1.3659   1.3955   1.5120
     1.6873   1.7575   1.8659   1.8746   1.9906   2.1682

          k = 0.0000 0.5196 0.0000 ( 76270 PWs)   bands (ev):

   -58.3320 -58.3264 -58.3029 -58.2996 -57.8705 -57.8680 -34.7995 -34.7956
   -34.7927 -34.7869 -34.5738 -34.5704 -34.5410 -34.5401 -34.5285 -34.5274
   -34.5179 -34.5121 -34.3326 -34.3303 -34.2589 -34.2567 -34.0920 -34.0895
   -18.5925 -18.5188 -18.4638 -18.3825 -18.2142 -18.1111 -18.0280 -18.0271
   -17.9405 -17.9276 -17.5278 -17.5260  -5.9463  -5.8846  -5.8695  -5.7949
    -5.7038  -5.6768  -5.6703  -5.6351  -5.5193  -5.4810  -5.4470  -5.2903
    -5.0885  -5.0842  -4.7821  -4.7080  -4.5573  -4.2577  -4.1715  -4.1365
    -4.0446  -3.8551  -3.7589  -3.6152  -3.5684  -3.2884  -3.1827  -3.0869
    -3.0158  -2.9188  -2.9099  -2.7229  -2.6780  -2.3724  -2.3114  -2.2902
     0.7062   0.9092   0.9621   1.2720   1.4038   1.4324   1.6048   1.6073
     1.7660   1.8670   1.9453   2.0262   2.2027   2.2141

          k = 0.0000 0.6928 0.0000 ( 76376 PWs)   bands (ev):

   -58.3221 -58.3178 -58.2937 -58.2904 -57.8608 -57.8583 -34.8932 -34.8923
   -34.8890 -34.8869 -34.5496 -34.5459 -34.5275 -34.5246 -34.5166 -34.5142
   -34.5117 -34.5084 -34.4256 -34.4233 -34.2559 -34.2536 -34.0730 -34.0704
   -18.4998 -18.4776 -18.3824 -18.3299 -18.2323 -18.0659 -18.0341 -17.9675
   -17.8782 -17.8516 -17.4456 -17.4436  -6.2803  -6.1868  -6.0327  -5.9576
    -5.6657  -5.6596  -5.5705  -5.5146  -5.4099  -5.4085  -5.3269  -5.3084
    -4.9231  -4.8728  -4.5995  -4.4773  -4.3144  -4.2162  -4.1728  -4.1465
    -4.1078  -4.0482  -3.8816  -3.6254  -3.5128  -3.3004  -3.2313  -3.1238
    -3.0240  -2.9872  -2.9512  -2.8282  -2.7761  -2.6997  -2.4714  -2.3801
     0.7027   0.9288   1.0752   1.2249   1.4017   1.6482   1.6858   1.7457
     1.7959   1.8423   2.0748   2.0769   2.2774   2.3271

          k = 0.1603 0.0000 0.0000 ( 76264 PWs)   bands (ev):

   -58.3645 -58.3566 -58.3341 -58.3309 -57.9035 -57.9010 -34.6588 -34.6555
   -34.6255 -34.6243 -34.5657 -34.5590 -34.5408 -34.5343 -34.4516 -34.4444
   -34.4400 -34.4328 -34.2951 -34.2928 -34.1683 -34.1657 -33.9447 -33.9422
   -19.3674 -19.1906 -18.8713 -18.5779 -18.4055 -18.3995 -18.0218 -18.0078
   -17.8774 -17.8454 -17.4341 -17.4306  -6.8969  -6.7527  -6.4590  -6.4530
    -5.9130  -5.8217  -5.7591  -5.4447  -5.2404  -5.2362  -5.1461  -5.1399
    -4.9017  -4.7701  -4.7688  -4.5695  -4.4180  -4.2193  -4.0786  -3.6949
    -3.6321  -3.4674  -3.3404  -3.2827  -3.1529  -3.1398  -2.9834  -2.9403
    -2.7696  -2.7688  -2.6421  -2.6109  -2.5136  -2.3495  -2.0478  -1.8146
     0.7040   0.7869   0.9946   1.0586   1.1906   1.2228   1.2950   1.4031
     1.5349   1.6391   1.7338   2.1717   2.2529   2.2650

          k = 0.1603 0.1732 0.0000 ( 76282 PWs)   bands (ev):

   -58.3594 -58.3519 -58.3292 -58.3260 -57.8984 -57.8958 -34.6468 -34.6437
   -34.6146 -34.6126 -34.5649 -34.5566 -34.5376 -34.5312 -34.5034 -34.4986
   -34.4922 -34.4863 -34.2901 -34.2878 -34.1598 -34.1572 -34.0025 -34.0000
   -19.2492 -19.0809 -18.7765 -18.4924 -18.3205 -18.3183 -18.0619 -18.0471
   -17.9251 -17.8950 -17.4652 -17.4620  -6.7369  -6.6043  -6.3159  -6.3095
    -5.8680  -5.7864  -5.7167  -5.5722  -5.4628  -5.3942  -5.2913  -5.1124
    -4.7924  -4.7634  -4.5434  -4.4214  -4.3367  -4.1122  -3.9757  -3.8119
    -3.7796  -3.6996  -3.5397  -3.2897  -3.2700  -3.1977  -3.1771  -3.0407
    -3.0064  -2.9299  -2.6623  -2.5402  -2.5267  -2.3145  -2.0751  -1.8478
     0.7811   0.8965   1.0241   1.1325   1.1807   1.2660   1.3194   1.4230
     1.6019   1.6125   1.8173   1.8587   1.9260   2.3632

          k = 0.1603 0.3464 0.0000 ( 76223 PWs)   bands (ev):

   -58.3466 -58.3400 -58.3169 -58.3137 -57.8854 -57.8828 -34.6562 -34.6491
   -34.6459 -34.6360 -34.6082 -34.6038 -34.5750 -34.5720 -34.5404 -34.5376
   -34.5248 -34.5206 -34.2811 -34.2788 -34.1743 -34.1718 -34.1078 -34.1053
   -18.9396 -18.8003 -18.5606 -18.3287 -18.1567 -18.1435 -18.1173 -18.0990
   -18.0357 -18.0042 -17.5293 -17.5270  -6.3320  -6.2318  -6.0145  -5.9728
    -5.8012  -5.7926  -5.6708  -5.6463  -5.6101  -5.5358  -5.1886  -5.0810
    -4.8793  -4.7033  -4.6083  -4.5609  -4.3884  -4.3705  -4.1305  -4.0970
    -4.0833  -3.8003  -3.7724  -3.5284  -3.5074  -3.2612  -3.1979  -3.0624
    -2.9535  -2.8543  -2.7705  -2.6272  -2.6058  -2.3145  -2.1378  -2.0109
     0.8067   1.0016   1.0212   1.1202   1.1950   1.3713   1.4339   1.4943
     1.6860   1.7263   1.8699   1.8784   2.0894   2.1599

          k = 0.1603 0.5196 0.0000 ( 76310 PWs)   bands (ev):

   -58.3318 -58.3266 -58.3029 -58.2996 -57.8705 -57.8680 -34.7989 -34.7953
   -34.7925 -34.7879 -34.5749 -34.5715 -34.5418 -34.5398 -34.5299 -34.5261
   -34.5161 -34.5127 -34.3327 -34.3304 -34.2589 -34.2566 -34.0921 -34.0895
   -18.5692 -18.5023 -18.4485 -18.3632 -18.1985 -18.1634 -18.0595 -18.0180
   -17.9434 -17.9378 -17.5277 -17.5259  -5.9925  -5.9436  -5.8638  -5.8600
    -5.7640  -5.7084  -5.6577  -5.6405  -5.5947  -5.5051  -5.4692  -5.3608
    -5.1194  -4.8790  -4.6856  -4.6269  -4.4843  -4.2885  -4.1993  -4.0710
    -4.0687  -3.8933  -3.6827  -3.5958  -3.5680  -3.2106  -3.1658  -3.0943
    -3.0406  -2.9633  -2.8339  -2.7071  -2.6451  -2.3809  -2.3078  -2.2970
     0.7282   0.9319   0.9644   1.3401   1.4463   1.4679   1.5747   1.6265
     1.7914   1.8060   1.8808   1.9606   2.1328   2.2169

          k = 0.1603 0.6928 0.0000 ( 76348 PWs)   bands (ev):

   -58.3220 -58.3179 -58.2937 -58.2904 -57.8608 -57.8583 -34.8930 -34.8921
   -34.8890 -34.8873 -34.5499 -34.5463 -34.5278 -34.5250 -34.5163 -34.5133
   -34.5119 -34.5093 -34.4255 -34.4231 -34.2560 -34.2537 -34.0731 -34.0705
   -18.4983 -18.4879 -18.3641 -18.3625 -18.1668 -18.1114 -17.9968 -17.9909
   -17.8793 -17.8573 -17.4430 -17.4408  -6.2789  -6.2325  -6.0283  -6.0124
    -5.7493  -5.7208  -5.5635  -5.5411  -5.5192  -5.4498  -5.3553  -5.3043
    -5.0806  -4.8296  -4.5482  -4.5170  -4.3017  -4.2303  -4.1802  -4.0872
    -3.9811  -3.9778  -3.7605  -3.5410  -3.3773  -3.2277  -3.2128  -3.1450
    -3.0097  -3.0020  -2.9076  -2.7758  -2.7486  -2.6833  -2.4652  -2.3743
     0.7567   0.9391   1.1515   1.1843   1.5017   1.5699   1.7038   1.7456
     1.7934   1.8325   2.0498   2.0565   2.2121   2.2181

          k = 0.3205 0.0000 0.0000 ( 76372 PWs)   bands (ev):

   -58.3632 -58.3576 -58.3342 -58.3310 -57.9035 -57.9010 -34.6615 -34.6606
   -34.6263 -34.6254 -34.5637 -34.5597 -34.5378 -34.5342 -34.4479 -34.4434
   -34.4409 -34.4364 -34.2946 -34.2923 -34.1681 -34.1655 -33.9448 -33.9423
   -19.1711 -19.0794 -18.8812 -18.6848 -18.4844 -18.4768 -18.0338 -18.0185
   -17.8958 -17.8612 -17.4410 -17.4386  -6.7990  -6.7670  -6.5388  -6.4225
    -5.8351  -5.8182  -5.3744  -5.2524  -5.2474  -5.1582  -5.1453  -5.0975
    -4.7763  -4.7749  -4.7230  -4.4467  -4.4319  -4.3512  -3.9510  -3.8103
    -3.6749  -3.4077  -3.3154  -3.2821  -3.2407  -3.2276  -3.0205  -3.0145
    -2.9311  -2.9052  -2.7156  -2.7143  -2.6904  -2.6385  -2.3335  -2.1199
     0.7598   0.7724   0.9812   1.0682   1.1942   1.3368   1.4741   1.5478
     1.7162   1.8191   1.9835   2.1219   2.1313   2.1643

          k = 0.3205 0.1732 0.0000 ( 76383 PWs)   bands (ev):

   -58.3583 -58.3528 -58.3293 -58.3261 -57.8984 -57.8959 -34.6491 -34.6486
   -34.6149 -34.6141 -34.5625 -34.5578 -34.5352 -34.5313 -34.5002 -34.4974
   -34.4939 -34.4882 -34.2897 -34.2874 -34.1596 -34.1571 -34.0025 -34.0000
   -19.0626 -18.9746 -18.7845 -18.5958 -18.3972 -18.3896 -18.0721 -18.0566
   -17.9431 -17.9086 -17.4714 -17.4691  -6.6509  -6.6210  -6.3905  -6.2778
    -5.7783  -5.7655  -5.6088  -5.5659  -5.4917  -5.4296  -5.0508  -4.8500
    -4.7692  -4.7295  -4.4459  -4.3852  -4.2956  -4.1589  -3.9914  -3.8810
    -3.7022  -3.6481  -3.5318  -3.3435  -3.2971  -3.2256  -3.1698  -3.1683
    -3.0684  -2.9978  -2.8466  -2.7930  -2.5919  -2.5215  -2.3048  -2.0953
     0.8141   0.8292   1.0083   1.1417   1.3102   1.3340   1.4466   1.5000
     1.7358   1.7633   1.8647   1.9109   2.0408   2.3166

          k = 0.3205 0.3464 0.0000 ( 76318 PWs)   bands (ev):

   -58.3457 -58.3407 -58.3170 -58.3137 -57.8854 -57.8828 -34.6538 -34.6488
   -34.6462 -34.6390 -34.6129 -34.6046 -34.5750 -34.5736 -34.5402 -34.5373
   -34.5221 -34.5199 -34.2810 -34.2787 -34.1743 -34.1718 -34.1075 -34.1050
   -18.7869 -18.7083 -18.5531 -18.4004 -18.2369 -18.2287 -18.1146 -18.1018
   -18.0449 -18.0164 -17.5331 -17.5312  -6.2770  -6.2669  -6.0665  -5.9539
    -5.8647  -5.8150  -5.7414  -5.6540  -5.6423  -5.6180  -4.9898  -4.9511
    -4.7476  -4.6583  -4.5590  -4.5187  -4.4207  -4.3141  -4.0988  -4.0269
    -3.9118  -3.8075  -3.7695  -3.5822  -3.4616  -3.2574  -3.2536  -3.1193
    -2.9672  -2.9526  -2.7966  -2.6366  -2.5736  -2.5083  -2.3105  -2.1956
     0.8889   0.9651   1.0370   1.2221   1.2500   1.3322   1.4536   1.5407
     1.7436   1.7668   1.9752   1.9897   2.0805   2.1097

          k = 0.3205 0.5196 0.0000 ( 76259 PWs)   bands (ev):

   -58.3314 -58.3269 -58.3029 -58.2996 -57.8705 -57.8680 -34.7978 -34.7951
   -34.7919 -34.7898 -34.5768 -34.5739 -34.5420 -34.5411 -34.5284 -34.5262
   -34.5147 -34.5124 -34.3327 -34.3304 -34.2587 -34.2564 -34.0921 -34.0895
   -18.5093 -18.4662 -18.4121 -18.3194 -18.2500 -18.1651 -18.1226 -18.0386
   -17.9593 -17.9566 -17.5274 -17.5256  -6.0568  -6.0311  -5.9829  -5.8794
    -5.8368  -5.8211  -5.7010  -5.6854  -5.6485  -5.5136  -5.4434  -5.4295
    -5.0506  -4.7245  -4.6547  -4.6045  -4.3760  -4.2128  -4.1049  -4.0088
    -3.9872  -3.9097  -3.7068  -3.5042  -3.4424  -3.3110  -3.1867  -3.0797
    -2.9577  -2.8950  -2.7497  -2.6604  -2.5674  -2.4323  -2.3741  -2.3518
     0.8106   1.0175   1.0768   1.3906   1.4133   1.4832   1.5400   1.6162
     1.6850   1.7681   1.9352   1.9846   2.0981   2.1004

          k = 0.3205 0.6928 0.0000 ( 76319 PWs)   bands (ev):

   -58.3220 -58.3179 -58.2937 -58.2904 -57.8608 -57.8582 -34.8930 -34.8921
   -34.8885 -34.8877 -34.5506 -34.5472 -34.5279 -34.5250 -34.5151 -34.5138
   -34.5120 -34.5108 -34.4251 -34.4227 -34.2561 -34.2538 -34.0732 -34.0707
   -18.4998 -18.4967 -18.3799 -18.3538 -18.1195 -18.0771 -18.0320 -17.9888
   -17.8889 -17.8701 -17.4380 -17.4356  -6.2916  -6.2818  -6.1221  -6.1060
    -5.9295  -5.8847  -5.6544  -5.5568  -5.5128  -5.4455  -5.3693  -5.3638
    -5.0694  -4.8785  -4.6208  -4.5089  -4.2431  -4.1933  -4.1592  -4.0487
    -4.0014  -3.9120  -3.5258  -3.4294  -3.2697  -3.1950  -3.1161  -2.9973
    -2.9852  -2.8665  -2.8135  -2.7639  -2.6054  -2.5793  -2.4528  -2.3738
     0.8088   0.9577   1.1557   1.2844   1.5111   1.6202   1.7314   1.7391
     1.7743   1.8047   2.0102   2.0159   2.1104   2.1366

          k =-0.4808 0.0000 0.0000 ( 76438 PWs)   bands (ev):

   -58.3623 -58.3584 -58.3342 -58.3310 -57.9035 -57.9010 -34.6629 -34.6627
   -34.6269 -34.6260 -34.5616 -34.5613 -34.5356 -34.5347 -34.4441 -34.4435
   -34.4408 -34.4402 -34.2944 -34.2921 -34.1680 -34.1654 -33.9448 -33.9423
   -18.9742 -18.9731 -18.8785 -18.8763 -18.5413 -18.5388 -18.0191 -18.0165
   -17.8911 -17.8884 -17.4449 -17.4427  -6.7685  -6.7680  -6.4955  -6.4948
    -5.8263  -5.8244  -5.2584  -5.2538  -5.1591  -5.1527  -4.7780  -4.7779
    -4.7586  -4.7569  -4.6280  -4.6227  -4.3749  -4.3726  -4.1957  -4.1908
    -3.5317  -3.5279  -3.3216  -3.3204  -3.2402  -3.2386  -3.0650  -3.0570
    -2.9471  -2.9457  -2.7533  -2.7512  -2.6234  -2.6205  -2.4671  -2.4614
     0.7705   0.7707   1.0162   1.0183   1.3195   1.3208   1.5237   1.5243
     2.0394   2.0416   2.0437   2.0455   2.1687   2.1704

          k =-0.4808 0.1732 0.0000 ( 76384 PWs)   bands (ev):

   -58.3574 -58.3535 -58.3294 -58.3261 -57.8984 -57.8959 -34.6507 -34.6504
   -34.6154 -34.6147 -34.5601 -34.5597 -34.5334 -34.5319 -34.4988 -34.4965
   -34.4933 -34.4908 -34.2896 -34.2873 -34.1596 -34.1570 -34.0025 -34.0000
   -18.8755 -18.8747 -18.7805 -18.7786 -18.4535 -18.4510 -18.0546 -18.0521
   -17.9374 -17.9349 -17.4748 -17.4727  -6.6234  -6.6230  -6.3474  -6.3468
    -5.7659  -5.7640  -5.5561  -5.5538  -5.4646  -5.4596  -4.7812  -4.7811
    -4.6858  -4.6843  -4.3734  -4.3710  -4.1738  -4.1696  -4.0514  -4.0494
    -3.6501  -3.6486  -3.5011  -3.4994  -3.3550  -3.3517  -3.2058  -3.2023
    -3.0899  -3.0897  -2.8979  -2.8905  -2.5173  -2.5160  -2.3473  -2.3435
     0.8093   0.8102   1.0576   1.0593   1.3873   1.3894   1.5041   1.5053
     1.8021   1.8050   2.1118   2.1153   2.1607   2.1649

          k =-0.4808 0.3464 0.0000 ( 76352 PWs)   bands (ev):

   -58.3451 -58.3412 -58.3170 -58.3138 -57.8854 -57.8828 -34.6518 -34.6506
   -34.6438 -34.6424 -34.6102 -34.6098 -34.5753 -34.5740 -34.5393 -34.5379
   -34.5207 -34.5197 -34.2809 -34.2787 -34.1743 -34.1719 -34.1074 -34.1049
   -18.6289 -18.6283 -18.5457 -18.5445 -18.2924 -18.2905 -18.0939 -18.0911
   -18.0411 -18.0387 -17.5351 -17.5334  -6.2643  -6.2640  -6.0096  -6.0081
    -5.8673  -5.8659  -5.7485  -5.7441  -5.6225  -5.6214  -5.0094  -5.0090
    -4.5904  -4.5894  -4.5090  -4.5081  -4.1934  -4.1917  -4.0991  -4.0981
    -3.8267  -3.8233  -3.6590  -3.6572  -3.4463  -3.4460  -3.2955  -3.2920
    -2.9445  -2.9430  -2.7006  -2.6974  -2.5460  -2.5424  -2.3795  -2.3766
     0.9616   0.9645   1.1363   1.1389   1.2324   1.2357   1.5947   1.5972
     1.8666   1.8681   1.9862   1.9933   2.0489   2.0512

          k =-0.4808 0.5196 0.0000 ( 76318 PWs)   bands (ev):

   -58.3311 -58.3271 -58.3029 -58.2997 -57.8705 -57.8680 -34.7964 -34.7963
   -34.7910 -34.7908 -34.5771 -34.5758 -34.5420 -34.5413 -34.5281 -34.5268
   -34.5138 -34.5122 -34.3327 -34.3304 -34.2586 -34.2563 -34.0921 -34.0896
   -18.4559 -18.4540 -18.3636 -18.3622 -18.2229 -18.2220 -18.0897 -18.0886
   -17.9706 -17.9674 -17.5272 -17.5254  -6.0632  -6.0626  -5.9928  -5.9912
    -5.8584  -5.8571  -5.7399  -5.7396  -5.5944  -5.5919  -5.4204  -5.4193
    -4.8398  -4.8384  -4.6731  -4.6729  -4.2026  -4.2015  -4.0692  -4.0658
    -3.8507  -3.8482  -3.6290  -3.6280  -3.3877  -3.3849  -3.1174  -3.1165
    -2.8265  -2.8252  -2.6201  -2.6173  -2.5695  -2.5664  -2.4374  -2.4340
     1.0240   1.0252   1.2170   1.2179   1.3187   1.3212   1.6316   1.6359
     1.8061   1.8107   1.9245   1.9281   2.0543   2.0565

          k =-0.4808 0.6928 0.0000 ( 76294 PWs)   bands (ev):

   -58.3219 -58.3179 -58.2937 -58.2904 -57.8608 -57.8582 -34.8928 -34.8927
   -34.8881 -34.8877 -34.5509 -34.5478 -34.5275 -34.5244 -34.5162 -34.5139
   -34.5127 -34.5104 -34.4249 -34.4225 -34.2561 -34.2539 -34.0733 -34.0708
   -18.5006 -18.4992 -18.3705 -18.3693 -18.0833 -18.0823 -18.0111 -18.0098
   -17.8883 -17.8877 -17.4356 -17.4331  -6.2955  -6.2953  -6.1817  -6.1809
    -5.9802  -5.9789  -5.6510  -5.6500  -5.4646  -5.4633  -5.3698  -5.3657
    -4.8887  -4.8874  -4.6760  -4.6753  -4.1997  -4.1974  -4.0616  -4.0589
    -3.9686  -3.9671  -3.4744  -3.4733  -3.2148  -3.2118  -3.0039  -3.0035
    -2.8496  -2.8465  -2.6912  -2.6897  -2.5198  -2.5168  -2.4265  -2.4253
     0.8674   0.8678   1.2071   1.2074   1.6592   1.6606   1.7253   1.7288
     1.8040   1.8076   1.9805   1.9835   2.0871   2.0900

     the Fermi energy is    -0.5366 ev

!    total energy              =   -1077.91171918 Ry
     estimated scf accuracy    <          2.4E-09 Ry
     smearing contrib. (-TS)   =      -0.00000000 Ry
     internal energy E=F+TS    =   -1077.91171918 Ry

     The total energy is F=E-TS. E is the sum of the following terms:
     one-electron contribution =  -24648.68637890 Ry
     hartree contribution      =   12336.35787466 Ry
     xc contribution           =    -170.03132514 Ry
     ewald contribution        =   11404.44811020 Ry

     convergence has been achieved in   7 iterations

     Forces acting on atoms (cartesian axes, Ry/au):

     atom    1 type  1   force =    -0.00007215    0.00000000   -0.00004734
     atom    2 type  1   force =     0.00014007    0.00000000    0.00077350
     atom    3 type  1   force =    -0.00011192    0.00000000    0.00009017
     atom    4 type  1   force =     0.00009627    0.00000000   -0.00001496
     atom    5 type  1   force =     0.00049502    0.00000000   -0.00067720
     atom    6 type  1   force =     0.00000247    0.00000000    0.00003781
     atom    7 type  2   force =     0.00048596    0.00000000   -0.00020394
     atom    8 type  2   force =     0.00038753    0.00000000   -0.00048109
     atom    9 type  2   force =     0.00022267    0.00000000   -0.00041516
     atom   10 type  2   force =    -0.00049810    0.00000000    0.00031994
     atom   11 type  2   force =    -0.00073182    0.00000000    0.00090833
     atom   12 type  2   force =    -0.00005056    0.00000000   -0.00048650
     atom   13 type  2   force =    -0.00022169    0.00000000   -0.00046004
     atom   14 type  2   force =     0.00024809    0.00000000    0.00042752
     atom   15 type  2   force =    -0.00012524    0.00000000    0.00042445
     atom   16 type  2   force =    -0.00085355    0.00000000   -0.00086225
     atom   17 type  2   force =     0.00054596    0.00000000    0.00029660
     atom   18 type  2   force =     0.00004098    0.00000000    0.00037015

     Total force =     0.002625     Total SCF correction =     0.000153


     Computing stress (Cartesian axis) and pressure

          total   stress  (Ry/bohr**3)                   (kbar)     P=       -0.17
   0.00000196   0.00000000  -0.00000015            0.29        0.00       -0.02
   0.00000000  -0.00000190   0.00000000            0.00       -0.28        0.00
  -0.00000015   0.00000000  -0.00000345           -0.02        0.00       -0.51

     Energy error            =      1.6E-05 Ry
     Gradient error          =      9.1E-04 Ry/Bohr
     Cell gradient error     =      2.9E-01 kbar

     bfgs converged in  26 scf cycles and  25 bfgs steps
     (criteria: energy <  1.0E-04 Ry, force <  1.0E-03 Ry/Bohr, cell <  5.0E-01 kbar)

     End of BFGS Geometry Optimization

     Final enthalpy           =   -1077.9117191831 Ry

     File ./Out/pwscf.bfgs deleted, as requested
Begin final coordinates
     new unit-cell volume =   3566.25732 a.u.^3 (   528.46481 Ang^3 )
     density =      1.50571 g/cm^3

CELL_PARAMETERS (angstrom)
   4.781031996   0.000000000   0.000000000
   0.000000000   2.949292111   0.000000000
   0.000000000   0.000000000  37.478019714

ATOMIC_POSITIONS (angstrom)
Ti               0.1839196452        0.0000000000       14.6232348688
Ti               2.5349938778        1.4746459680       16.8417130041
Ti               0.1283891254        0.0000000000       19.2141803496
Ti               2.5184498410        1.4746459680       21.4580699449
Ti               0.1431257484        0.0000000000       23.8307857440
Ti               2.5735603662        1.4746459680       26.0462406845
O                0.6203591888        1.4746460557       13.6073736589
O                1.4697002773        0.0000000000       15.9389382449
O                3.2788544866        0.0000000000       17.7868040419
O                0.8781330610        1.4746460557       18.2643173330
O                3.7666693744        1.4746460557       15.4538224751
O                1.4814024433        0.0000000000       20.5596490919
O                3.2694645667        0.0000000000       22.4047766828
O                0.8927837490        1.4746460557       22.8910704110
O                3.8747268362        1.4746460557       20.1157834207
O                1.3705185019        0.0000000000       25.2232612575
O                3.0174768993        0.0000000000       27.0584641557
O                3.8552094203        1.4746460557       24.7263628747
End final coordinates



     Writing config-only to output data dir ./Out/pwscf.save/

     Final scf calculation at the relaxed structure.
     The G-vectors are recalculated for the final unit cell
     Results may differ from those at the preceding step.
 
     G-vector sticks info
     --------------------
     sticks:   dense  smooth     PW     G-vecs:    dense   smooth      PW
     Sum        1921    1921    537               633245   633245   93217
 
     Using Slab Decomposition
 


     bravais-lattice index     =            0
     lattice parameter (alat)  =       8.6875  a.u.
     unit-cell volume          =    3566.2573 (a.u.)^3
     number of atoms/cell      =           18
     number of atomic types    =            2
     number of electrons       =       144.00
     number of Kohn-Sham states=           86
     kinetic-energy cutoff     =     120.0000  Ry
     charge density cutoff     =     480.0000  Ry
     scf convergence threshold =      1.0E-08
     mixing beta               =       0.4000
     number of iterations used =           20  plain     mixing
     press convergence thresh. =      5.0E-01
     Exchange-correlation= PBE
                           (   1   4   3   4   0   0   0)

     GPU acceleration is ACTIVE.


     celldm(1)=   8.687483  celldm(2)=   0.000000  celldm(3)=   0.000000
     celldm(4)=   0.000000  celldm(5)=   0.000000  celldm(6)=   0.000000

     crystal axes: (cart. coord. in units of alat)
               a(1) = (   1.039984   0.000000   0.000000 )  
               a(2) = (   0.000000   0.641538   0.000000 )  
               a(3) = (   0.000000   0.000000   8.152326 )  

     reciprocal axes: (cart. coord. in units 2 pi/alat)
               b(1) = (  0.961553  0.000000  0.000000 )  
               b(2) = (  0.000000  1.558753  0.000000 )  
               b(3) = (  0.000000  0.000000  0.122664 )  


     PseudoPot. # 1 for Ti read from file:
     /cm/shared/apps/KO/pseudo/sg15/Ti_ONCV_PBE-1.2.upf
     MD5 check sum: 1aea57736bd12dcfee93c97d0b9b5968
     Pseudo is Norm-conserving, Zval = 12.0
     Generated using ONCVPSP code by D. R. Hamann
     Using radial grid of  602 points,  6 beta functions with: 
                l(1) =   0
                l(2) =   0
                l(3) =   1
                l(4) =   1
                l(5) =   2
                l(6) =   2

     PseudoPot. # 2 for O  read from file:
     /cm/shared/apps/KO/pseudo/sg15/O_ONCV_PBE-1.2.upf
     MD5 check sum: e36c48deb68f4e355fffe4602be2c42c
     Pseudo is Norm-conserving, Zval =  6.0
     Generated using ONCVPSP code by D. R. Hamann
     Using radial grid of  602 points,  4 beta functions with: 
                l(1) =   0
                l(2) =   0
                l(3) =   1
                l(4) =   1

     atomic species   valence    mass     pseudopotential
     Ti               12.00    47.86700     Ti( 1.00)
     O                 6.00    15.99900     O ( 1.00)

      2 Sym. Ops. (no inversion) found



   Cartesian axes

     site n.     atom                  positions (alat units)
         1        Ti     tau(   1) = (   0.0400067   0.0000000   3.1808879  )
         2        Ti     tau(   2) = (   0.5514191   0.3207692   3.6634576  )
         3        Ti     tau(   3) = (   0.0279276   0.0000000   4.1795235  )
         4        Ti     tau(   4) = (   0.5478204   0.3207692   4.6676208  )
         5        Ti     tau(   5) = (   0.0311331   0.0000000   5.1837408  )
         6        Ti     tau(   6) = (   0.5598082   0.3207692   5.6656529  )
         7        O      tau(   7) = (   0.1349423   0.3207692   2.9599149  )
         8        O      tau(   8) = (   0.3196934   0.0000000   3.4670835  )
         9        O      tau(   9) = (   0.7132258   0.0000000   3.8690366  )
        10        O      tau(  10) = (   0.1910140   0.3207692   3.9729066  )
        11        O      tau(  11) = (   0.8193367   0.3207692   3.3615597  )
        12        O      tau(  12) = (   0.3222389   0.0000000   4.4721938  )
        13        O      tau(  13) = (   0.7111833   0.0000000   4.8735512  )
        14        O      tau(  14) = (   0.1942009   0.3207692   4.9793312  )
        15        O      tau(  15) = (   0.8428417   0.3207692   4.3756428  )
        16        O      tau(  16) = (   0.2981191   0.0000000   5.4866360  )
        17        O      tau(  17) = (   0.6563702   0.0000000   5.8858346  )
        18        O      tau(  18) = (   0.8385962   0.3207692   5.3785493  )

     number of k points=    20  Gaussian smearing, width (Ry)=  0.0200
                       cart. coord. in units 2pi/alat
        k(    1) = (   0.0000000   0.0000000   0.0000000), wk =   0.0370370
        k(    2) = (   0.0000000   0.1731948   0.0000000), wk =   0.0740741
        k(    3) = (   0.0000000   0.3463896   0.0000000), wk =   0.0740741
        k(    4) = (   0.0000000   0.5195843   0.0000000), wk =   0.0740741
        k(    5) = (   0.0000000   0.6927791   0.0000000), wk =   0.0740741
        k(    6) = (   0.1602589   0.0000000   0.0000000), wk =   0.0740741
        k(    7) = (   0.1602589   0.1731948   0.0000000), wk =   0.1481481
        k(    8) = (   0.1602589   0.3463896   0.0000000), wk =   0.1481481
        k(    9) = (   0.1602589   0.5195843   0.0000000), wk =   0.1481481
        k(   10) = (   0.1602589   0.6927791   0.0000000), wk =   0.1481481
        k(   11) = (   0.3205178   0.0000000   0.0000000), wk =   0.0740741
        k(   12) = (   0.3205178   0.1731948   0.0000000), wk =   0.1481481
        k(   13) = (   0.3205178   0.3463896   0.0000000), wk =   0.1481481
        k(   14) = (   0.3205178   0.5195843   0.0000000), wk =   0.1481481
        k(   15) = (   0.3205178   0.6927791   0.0000000), wk =   0.1481481
        k(   16) = (  -0.4807767   0.0000000   0.0000000), wk =   0.0370370
        k(   17) = (  -0.4807767   0.1731948   0.0000000), wk =   0.0740741
        k(   18) = (  -0.4807767   0.3463896   0.0000000), wk =   0.0740741
        k(   19) = (  -0.4807767   0.5195843   0.0000000), wk =   0.0740741
        k(   20) = (  -0.4807767   0.6927791   0.0000000), wk =   0.0740741

     Dense  grid:   633245 G-vectors     FFT dimensions: (  64,  40, 500)

     Estimated max dynamical RAM per process >       3.38 GB

     Initial potential from superposition of free atoms

     starting charge     143.3302, renormalised to     144.0000

     negative rho (up, down):  6.830E-04 0.000E+00
     Starting wfcs are random

     total cpu time spent up to now is     1022.6 secs

     Self-consistent Calculation

     iteration #  1     ecut=   120.00 Ry     beta= 0.40
     Davidson diagonalization with overlap
     c_bands:  1 eigenvalues not converged
     c_bands:  1 eigenvalues not converged
     c_bands:  1 eigenvalues not converged
     c_bands:  2 eigenvalues not converged
     c_bands:  1 eigenvalues not converged
     c_bands:  1 eigenvalues not converged
     c_bands:  1 eigenvalues not converged
     c_bands:  3 eigenvalues not converged
     c_bands:  1 eigenvalues not converged
     c_bands:  1 eigenvalues not converged
     c_bands:  3 eigenvalues not converged
     c_bands:  4 eigenvalues not converged
     c_bands:  1 eigenvalues not converged
     c_bands:  3 eigenvalues not converged
     c_bands:  2 eigenvalues not converged
     ethr =  1.00E-06,  avg # of iterations = 59.8

     negative rho (up, down):  3.839E-04 0.000E+00

     total cpu time spent up to now is     1049.2 secs

     total energy              =   -1075.45824872 Ry
     estimated scf accuracy    <       8.13641354 Ry

     iteration #  2     ecut=   120.00 Ry     beta= 0.40
     Davidson diagonalization with overlap
     ethr =  5.65E-03,  avg # of iterations =  4.1

     negative rho (up, down):  2.708E-04 0.000E+00

     total cpu time spent up to now is     1053.1 secs

     total energy              =   -1076.80142967 Ry
     estimated scf accuracy    <       4.23551171 Ry

     iteration #  3     ecut=   120.00 Ry     beta= 0.40
     Davidson diagonalization with overlap
     ethr =  2.94E-03,  avg # of iterations =  3.2

     negative rho (up, down):  2.138E-04 0.000E+00

     total cpu time spent up to now is     1056.6 secs

     total energy              =   -1077.78644523 Ry
     estimated scf accuracy    <       0.83587703 Ry

     iteration #  4     ecut=   120.00 Ry     beta= 0.40
     Davidson diagonalization with overlap
     ethr =  5.80E-04,  avg # of iterations =  3.1

     negative rho (up, down):  1.236E-04 0.000E+00

     total cpu time spent up to now is     1060.2 secs

     total energy              =   -1077.86776773 Ry
     estimated scf accuracy    <       0.15914127 Ry

     iteration #  5     ecut=   120.00 Ry     beta= 0.40
     Davidson diagonalization with overlap
     ethr =  1.11E-04,  avg # of iterations =  7.3

     negative rho (up, down):  4.603E-05 0.000E+00

     total cpu time spent up to now is     1064.6 secs

     total energy              =   -1077.90396577 Ry
     estimated scf accuracy    <       0.03355446 Ry

     iteration #  6     ecut=   120.00 Ry     beta= 0.40
     Davidson diagonalization with overlap
     c_bands:  1 eigenvalues not converged
     c_bands:  2 eigenvalues not converged
     c_bands:  1 eigenvalues not converged
     ethr =  2.33E-05,  avg # of iterations = 13.9

     negative rho (up, down):  9.238E-06 0.000E+00

     total cpu time spent up to now is     1070.3 secs

     total energy              =   -1077.90943891 Ry
     estimated scf accuracy    <       0.02174951 Ry

     iteration #  7     ecut=   120.00 Ry     beta= 0.40
     Davidson diagonalization with overlap
     ethr =  1.51E-05,  avg # of iterations =  2.3

     negative rho (up, down):  2.779E-06 0.000E+00

     total cpu time spent up to now is     1073.7 secs

     total energy              =   -1077.91100987 Ry
     estimated scf accuracy    <       0.00211063 Ry

     iteration #  8     ecut=   120.00 Ry     beta= 0.40
     Davidson diagonalization with overlap
     c_bands:  1 eigenvalues not converged
     c_bands:  3 eigenvalues not converged
     ethr =  1.47E-06,  avg # of iterations = 14.4

     negative rho (up, down):  1.105E-06 0.000E+00

     total cpu time spent up to now is     1079.7 secs

     total energy              =   -1077.91173378 Ry
     estimated scf accuracy    <       0.00057301 Ry

     iteration #  9     ecut=   120.00 Ry     beta= 0.40
     Davidson diagonalization with overlap
     ethr =  3.98E-07,  avg # of iterations =  3.5

     negative rho (up, down):  5.093E-07 0.000E+00

     total cpu time spent up to now is     1083.5 secs

     total energy              =   -1077.91182909 Ry
     estimated scf accuracy    <       0.00004335 Ry

     iteration # 10     ecut=   120.00 Ry     beta= 0.40
     Davidson diagonalization with overlap
     ethr =  3.01E-08,  avg # of iterations =  6.6

     negative rho (up, down):  3.119E-07 0.000E+00

     total cpu time spent up to now is     1088.3 secs

     total energy              =   -1077.91184920 Ry
     estimated scf accuracy    <       0.00004628 Ry

     iteration # 11     ecut=   120.00 Ry     beta= 0.40
     Davidson diagonalization with overlap
     ethr =  3.01E-08,  avg # of iterations =  1.4

     total cpu time spent up to now is     1091.6 secs

     total energy              =   -1077.91184632 Ry
     estimated scf accuracy    <       0.00001603 Ry

     iteration # 12     ecut=   120.00 Ry     beta= 0.40
     Davidson diagonalization with overlap
     ethr =  1.11E-08,  avg # of iterations =  4.9

     total cpu time spent up to now is     1095.7 secs

     total energy              =   -1077.91185217 Ry
     estimated scf accuracy    <       0.00000512 Ry

     iteration # 13     ecut=   120.00 Ry     beta= 0.40
     Davidson diagonalization with overlap
     ethr =  3.55E-09,  avg # of iterations =  1.9

     total cpu time spent up to now is     1099.0 secs

     total energy              =   -1077.91185127 Ry
     estimated scf accuracy    <       0.00000386 Ry

     iteration # 14     ecut=   120.00 Ry     beta= 0.40
     Davidson diagonalization with overlap
     ethr =  2.68E-09,  avg # of iterations =  2.8

     total cpu time spent up to now is     1102.6 secs

     total energy              =   -1077.91185166 Ry
     estimated scf accuracy    <       0.00000052 Ry

     iteration # 15     ecut=   120.00 Ry     beta= 0.40
     Davidson diagonalization with overlap
     ethr =  3.61E-10,  avg # of iterations =  6.3

     total cpu time spent up to now is     1107.1 secs

     total energy              =   -1077.91185180 Ry
     estimated scf accuracy    <       0.00000010 Ry

     iteration # 16     ecut=   120.00 Ry     beta= 0.40
     Davidson diagonalization with overlap
     ethr =  6.61E-11,  avg # of iterations =  2.9

     total cpu time spent up to now is     1110.8 secs

     total energy              =   -1077.91185181 Ry
     estimated scf accuracy    <       0.00000002 Ry

     iteration # 17     ecut=   120.00 Ry     beta= 0.40
     Davidson diagonalization with overlap
     ethr =  1.04E-11,  avg # of iterations =  5.2

     total cpu time spent up to now is     1115.2 secs

     End of self-consistent calculation

          k = 0.0000 0.0000 0.0000 ( 79099 PWs)   bands (ev):

   -58.3650 -58.3562 -58.3341 -58.3308 -57.9034 -57.9008 -34.6575 -34.6526
   -34.6253 -34.6237 -34.5672 -34.5583 -34.5419 -34.5348 -34.4530 -34.4448
   -34.4397 -34.4315 -34.2952 -34.2929 -34.1683 -34.1657 -33.9446 -33.9420
   -19.4396 -19.2336 -18.8700 -18.5394 -18.3855 -18.3820 -18.0189 -17.9818
   -17.8535 -17.8485 -17.4319 -17.4262  -6.9714  -6.6638  -6.5515  -6.4184
    -6.0226  -5.8310  -5.8011  -5.5524  -5.2351  -5.2308  -5.1411  -5.1358
    -4.9270  -4.7659  -4.7653  -4.6209  -4.3780  -4.2848  -4.1494  -3.7301
    -3.5911  -3.5040  -3.3603  -3.3300  -3.1220  -3.1158  -2.9162  -2.9120
    -2.8507  -2.6992  -2.5778  -2.3900  -2.3753  -2.1712  -1.9082  -1.6955
     0.6424   0.8411   0.9613   1.0437   1.1580   1.2120   1.2752   1.2927
     1.4402   1.5821   1.6038   2.1789   2.2065   2.3079

          k = 0.0000 0.1732 0.0000 ( 79259 PWs)   bands (ev):

   -58.3599 -58.3515 -58.3292 -58.3260 -57.8983 -57.8956 -34.6459 -34.6405
   -34.6152 -34.6116 -34.5664 -34.5559 -34.5383 -34.5318 -34.5050 -34.4987
   -34.4915 -34.4858 -34.2902 -34.2878 -34.1597 -34.1571 -34.0025 -33.9999
   -19.3178 -19.1221 -18.7760 -18.4544 -18.3100 -18.3007 -18.0595 -18.0171
   -17.9052 -17.8949 -17.4631 -17.4582  -6.8027  -6.5134  -6.4118  -6.2739
    -5.9404  -5.7824  -5.7507  -5.5741  -5.4260  -5.4239  -5.3601  -5.1670
    -4.8158  -4.7751  -4.5715  -4.4589  -4.2836  -4.0833  -4.0203  -3.8758
    -3.8524  -3.6441  -3.4760  -3.3375  -3.3339  -3.1917  -3.1799  -2.9755
    -2.9713  -2.9172  -2.6581  -2.4105  -2.3995  -2.1552  -1.9471  -1.7336
     0.7626   0.9471   1.0056   1.0487   1.1797   1.2330   1.3102   1.3347
     1.5220   1.6050   1.7552   1.8544   1.9062   2.3643

          k = 0.0000 0.3464 0.0000 ( 79219 PWs)   bands (ev):

   -58.3470 -58.3397 -58.3169 -58.3137 -57.8853 -57.8826 -34.6575 -34.6501
   -34.6444 -34.6346 -34.6053 -34.6041 -34.5760 -34.5704 -34.5399 -34.5382
   -34.5266 -34.5208 -34.2810 -34.2786 -34.1742 -34.1716 -34.1078 -34.1052
   -18.9959 -18.8362 -18.5670 -18.3049 -18.1624 -18.1334 -18.0852 -18.0816
   -18.0129 -18.0030 -17.5277 -17.5248  -6.3610  -6.1569  -6.0578  -5.9584
    -5.7834  -5.6938  -5.6721  -5.6103  -5.5804  -5.5674  -5.3633  -5.2343
    -4.8018  -4.6774  -4.5767  -4.5548  -4.4909  -4.2929  -4.1817  -4.1774
    -4.1265  -3.8225  -3.7926  -3.4814  -3.4766  -3.3158  -3.2533  -3.0173
    -2.8887  -2.8462  -2.7321  -2.6430  -2.6169  -2.2263  -2.0639  -1.9289
     0.8252   0.9872   1.0390   1.0596   1.1275   1.3659   1.3955   1.5119
     1.6873   1.7575   1.8659   1.8746   1.9906   2.1682

          k = 0.0000 0.5196 0.0000 ( 79190 PWs)   bands (ev):

   -58.3320 -58.3264 -58.3029 -58.2996 -57.8704 -57.8678 -34.7995 -34.7957
   -34.7927 -34.7869 -34.5739 -34.5704 -34.5410 -34.5401 -34.5285 -34.5275
   -34.5179 -34.5121 -34.3325 -34.3302 -34.2588 -34.2565 -34.0920 -34.0893
   -18.5925 -18.5189 -18.4639 -18.3825 -18.2142 -18.1111 -18.0281 -18.0271
   -17.9406 -17.9277 -17.5278 -17.5259  -5.9464  -5.8847  -5.8696  -5.7950
    -5.7039  -5.6768  -5.6704  -5.6351  -5.5193  -5.4810  -5.4471  -5.2904
    -5.0886  -5.0843  -4.7822  -4.7080  -4.5574  -4.2578  -4.1716  -4.1365
    -4.0446  -3.8551  -3.7589  -3.6153  -3.5685  -3.2884  -3.1827  -3.0870
    -3.0159  -2.9189  -2.9100  -2.7229  -2.6780  -2.3725  -2.3114  -2.2902
     0.7062   0.9093   0.9621   1.2720   1.4038   1.4324   1.6048   1.6073
     1.7660   1.8670   1.9453   2.0262   2.2028   2.2147

          k = 0.0000 0.6928 0.0000 ( 79108 PWs)   bands (ev):

   -58.3221 -58.3179 -58.2937 -58.2904 -57.8607 -57.8581 -34.8932 -34.8924
   -34.8890 -34.8869 -34.5496 -34.5459 -34.5275 -34.5246 -34.5167 -34.5142
   -34.5118 -34.5084 -34.4255 -34.4231 -34.2558 -34.2535 -34.0729 -34.0702
   -18.4998 -18.4777 -18.3825 -18.3299 -18.2324 -18.0659 -18.0341 -17.9676
   -17.8783 -17.8517 -17.4455 -17.4435  -6.2804  -6.1869  -6.0327  -5.9577
    -5.6658  -5.6597  -5.5706  -5.5147  -5.4099  -5.4085  -5.3269  -5.3085
    -4.9231  -4.8729  -4.5996  -4.4774  -4.3145  -4.2163  -4.1728  -4.1465
    -4.1078  -4.0483  -3.8816  -3.6255  -3.5129  -3.3004  -3.2314  -3.1239
    -3.0241  -2.9873  -2.9512  -2.8282  -2.7761  -2.6997  -2.4714  -2.3801
     0.7027   0.9288   1.0752   1.2249   1.4017   1.6482   1.6858   1.7457
     1.7959   1.8422   2.0748   2.0770   2.2773   2.3273

          k = 0.1603 0.0000 0.0000 ( 79251 PWs)   bands (ev):

   -58.3645 -58.3566 -58.3341 -58.3309 -57.9034 -57.9008 -34.6589 -34.6555
   -34.6255 -34.6243 -34.5657 -34.5590 -34.5408 -34.5343 -34.4516 -34.4445
   -34.4401 -34.4328 -34.2950 -34.2926 -34.1682 -34.1656 -33.9447 -33.9421
   -19.3674 -19.1907 -18.8714 -18.5779 -18.4055 -18.3995 -18.0218 -18.0079
   -17.8774 -17.8455 -17.4342 -17.4305  -6.8970  -6.7528  -6.4590  -6.4531
    -5.9131  -5.8217  -5.7592  -5.4447  -5.2404  -5.2362  -5.1462  -5.1400
    -4.9018  -4.7700  -4.7687  -4.5695  -4.4181  -4.2193  -4.0787  -3.6949
    -3.6321  -3.4674  -3.3404  -3.2828  -3.1530  -3.1398  -2.9834  -2.9404
    -2.7696  -2.7689  -2.6421  -2.6109  -2.5137  -2.3496  -2.0479  -1.8147
     0.7040   0.7869   0.9946   1.0586   1.1906   1.2228   1.2951   1.4031
     1.5349   1.6391   1.7338   2.1718   2.1996   2.2588

          k = 0.1603 0.1732 0.0000 ( 79204 PWs)   bands (ev):

   -58.3595 -58.3519 -58.3293 -58.3260 -57.8983 -57.8957 -34.6468 -34.6437
   -34.6147 -34.6126 -34.5649 -34.5567 -34.5376 -34.5312 -34.5034 -34.4986
   -34.4922 -34.4863 -34.2900 -34.2876 -34.1597 -34.1570 -34.0024 -33.9999
   -19.2492 -19.0810 -18.7766 -18.4924 -18.3206 -18.3183 -18.0619 -18.0472
   -17.9252 -17.8950 -17.4652 -17.4620  -6.7369  -6.6044  -6.3159  -6.3096
    -5.8680  -5.7865  -5.7168  -5.5722  -5.4629  -5.3942  -5.2913  -5.1125
    -4.7924  -4.7634  -4.5434  -4.4214  -4.3368  -4.1122  -3.9758  -3.8119
    -3.7796  -3.6996  -3.5397  -3.2897  -3.2701  -3.1978  -3.1772  -3.0407
    -3.0065  -2.9299  -2.6623  -2.5402  -2.5267  -2.3146  -2.0752  -1.8479
     0.7811   0.8965   1.0241   1.1325   1.1807   1.2659   1.3194   1.4230
     1.6019   1.6125   1.8174   1.8588   1.9260   2.3633

          k = 0.1603 0.3464 0.0000 ( 79167 PWs)   bands (ev):

   -58.3466 -58.3400 -58.3170 -58.3137 -57.8853 -57.8826 -34.6562 -34.6491
   -34.6459 -34.6360 -34.6082 -34.6038 -34.5750 -34.5720 -34.5404 -34.5377
   -34.5249 -34.5206 -34.2810 -34.2786 -34.1742 -34.1716 -34.1077 -34.1051
   -18.9396 -18.8004 -18.5606 -18.3288 -18.1568 -18.1436 -18.1173 -18.0991
   -18.0357 -18.0043 -17.5293 -17.5269  -6.3320  -6.2318  -6.0145  -5.9729
    -5.8013  -5.7927  -5.6709  -5.6463  -5.6102  -5.5359  -5.1886  -5.0810
    -4.8793  -4.7034  -4.6084  -4.5610  -4.3884  -4.3705  -4.1306  -4.0970
    -4.0833  -3.8004  -3.7724  -3.5285  -3.5075  -3.2612  -3.1980  -3.0625
    -2.9536  -2.8544  -2.7706  -2.6273  -2.6059  -2.3146  -2.1379  -2.0110
     0.8067   1.0016   1.0212   1.1202   1.1950   1.3713   1.4339   1.4943
     1.6860   1.7263   1.8699   1.8784   2.0894   2.1602

          k = 0.1603 0.5196 0.0000 ( 79095 PWs)   bands (ev):

   -58.3318 -58.3266 -58.3029 -58.2996 -57.8704 -57.8678 -34.7989 -34.7953
   -34.7925 -34.7879 -34.5749 -34.5715 -34.5418 -34.5398 -34.5299 -34.5261
   -34.5161 -34.5127 -34.3326 -34.3302 -34.2588 -34.2564 -34.0920 -34.0893
   -18.5692 -18.5023 -18.4485 -18.3632 -18.1986 -18.1634 -18.0595 -18.0180
   -17.9435 -17.9379 -17.5276 -17.5258  -5.9925  -5.9437  -5.8638  -5.8601
    -5.7640  -5.7085  -5.6578  -5.6405  -5.5947  -5.5051  -5.4692  -5.3609
    -5.1194  -4.8791  -4.6857  -4.6269  -4.4844  -4.2886  -4.1994  -4.0710
    -4.0687  -3.8933  -3.6827  -3.5959  -3.5681  -3.2107  -3.1658  -3.0944
    -3.0407  -2.9633  -2.8339  -2.7071  -2.6451  -2.3810  -2.3078  -2.2970
     0.7282   0.9319   0.9644   1.3401   1.4463   1.4679   1.5747   1.6265
     1.7914   1.8060   1.8808   1.9606   2.1330   2.2167

          k = 0.1603 0.6928 0.0000 ( 79141 PWs)   bands (ev):

   -58.3221 -58.3179 -58.2937 -58.2904 -57.8607 -57.8581 -34.8930 -34.8921
   -34.8890 -34.8873 -34.5499 -34.5463 -34.5278 -34.5249 -34.5164 -34.5133
   -34.5119 -34.5093 -34.4254 -34.4229 -34.2559 -34.2535 -34.0730 -34.0703
   -18.4983 -18.4880 -18.3642 -18.3625 -18.1669 -18.1114 -17.9969 -17.9909
   -17.8793 -17.8574 -17.4429 -17.4408  -6.2790  -6.2325  -6.0284  -6.0125
    -5.7494  -5.7208  -5.5636  -5.5412  -5.5193  -5.4499  -5.3553  -5.3044
    -5.0806  -4.8297  -4.5483  -4.5171  -4.3017  -4.2303  -4.1802  -4.0873
    -3.9811  -3.9778  -3.7606  -3.5411  -3.3774  -3.2278  -3.2129  -3.1451
    -3.0098  -3.0020  -2.9076  -2.7758  -2.7487  -2.6833  -2.4652  -2.3743
     0.7567   0.9391   1.1515   1.1844   1.5018   1.5699   1.7037   1.7456
     1.7934   1.8326   2.0499   2.0566   2.2125   2.2188

          k = 0.3205 0.0000 0.0000 ( 79224 PWs)   bands (ev):

   -58.3632 -58.3576 -58.3342 -58.3309 -57.9034 -57.9008 -34.6615 -34.6606
   -34.6264 -34.6254 -34.5637 -34.5598 -34.5378 -34.5342 -34.4480 -34.4435
   -34.4409 -34.4364 -34.2945 -34.2922 -34.1680 -34.1654 -33.9447 -33.9421
   -19.1711 -19.0794 -18.8812 -18.6849 -18.4844 -18.4768 -18.0338 -18.0185
   -17.8958 -17.8613 -17.4411 -17.4385  -6.7990  -6.7670  -6.5389  -6.4226
    -5.8352  -5.8183  -5.3744  -5.2524  -5.2474  -5.1582  -5.1453  -5.0976
    -4.7763  -4.7749  -4.7231  -4.4468  -4.4320  -4.3512  -3.9511  -3.8103
    -3.6749  -3.4077  -3.3154  -3.2821  -3.2407  -3.2276  -3.0206  -3.0146
    -2.9312  -2.9053  -2.7157  -2.7143  -2.6904  -2.6385  -2.3336  -2.1200
     0.7598   0.7724   0.9812   1.0682   1.1942   1.3368   1.4741   1.5478
     1.7162   1.8191   1.9835   2.1220   2.1314   2.1643

          k = 0.3205 0.1732 0.0000 ( 79173 PWs)   bands (ev):

   -58.3583 -58.3528 -58.3293 -58.3261 -57.8983 -57.8957 -34.6491 -34.6487
   -34.6149 -34.6141 -34.5625 -34.5578 -34.5353 -34.5313 -34.5002 -34.4974
   -34.4939 -34.4882 -34.2896 -34.2873 -34.1595 -34.1569 -34.0024 -33.9998
   -19.0626 -18.9746 -18.7846 -18.5959 -18.3972 -18.3896 -18.0721 -18.0566
   -17.9431 -17.9086 -17.4714 -17.4690  -6.6509  -6.6211  -6.3905  -6.2779
    -5.7784  -5.7655  -5.6088  -5.5660  -5.4918  -5.4296  -5.0509  -4.8500
    -4.7692  -4.7295  -4.4459  -4.3853  -4.2957  -4.1590  -3.9915  -3.8811
    -3.7022  -3.6482  -3.5318  -3.3435  -3.2971  -3.2257  -3.1699  -3.1683
    -3.0684  -2.9979  -2.8466  -2.7931  -2.5919  -2.5215  -2.3048  -2.0953
     0.8141   0.8292   1.0083   1.1417   1.3102   1.3340   1.4466   1.4999
     1.7358   1.7634   1.8648   1.9109   2.0409   2.3166

          k = 0.3205 0.3464 0.0000 ( 79120 PWs)   bands (ev):

   -58.3457 -58.3407 -58.3170 -58.3137 -57.8853 -57.8826 -34.6539 -34.6488
   -34.6462 -34.6390 -34.6129 -34.6046 -34.5750 -34.5736 -34.5402 -34.5374
   -34.5221 -34.5199 -34.2809 -34.2785 -34.1742 -34.1717 -34.1075 -34.1049
   -18.7869 -18.7084 -18.5531 -18.4004 -18.2370 -18.2288 -18.1146 -18.1019
   -18.0450 -18.0164 -17.5331 -17.5312  -6.2771  -6.2669  -6.0665  -5.9540
    -5.8648  -5.8150  -5.7415  -5.6541  -5.6423  -5.6180  -4.9898  -4.9512
    -4.7477  -4.6583  -4.5590  -4.5187  -4.4207  -4.3141  -4.0989  -4.0270
    -3.9118  -3.8075  -3.7695  -3.5822  -3.4616  -3.2574  -3.2536  -3.1194
    -2.9672  -2.9527  -2.7966  -2.6367  -2.5737  -2.5083  -2.3106  -2.1957
     0.8889   0.9651   1.0370   1.2221   1.2501   1.3322   1.4536   1.5407
     1.7436   1.7668   1.9752   1.9897   2.0812   2.1097

          k = 0.3205 0.5196 0.0000 ( 79129 PWs)   bands (ev):

   -58.3314 -58.3269 -58.3029 -58.2996 -57.8704 -57.8678 -34.7978 -34.7951
   -34.7919 -34.7898 -34.5768 -34.5739 -34.5421 -34.5411 -34.5284 -34.5263
   -34.5148 -34.5124 -34.3326 -34.3302 -34.2586 -34.2562 -34.0920 -34.0894
   -18.5093 -18.4662 -18.4122 -18.3194 -18.2500 -18.1652 -18.1226 -18.0386
   -17.9594 -17.9567 -17.5273 -17.5255  -6.0568  -6.0311  -5.9829  -5.8794
    -5.8369  -5.8212  -5.7010  -5.6854  -5.6486  -5.5136  -5.4435  -5.4295
    -5.0506  -4.7245  -4.6548  -4.6046  -4.3761  -4.2129  -4.1049  -4.0088
    -3.9873  -3.9097  -3.7068  -3.5043  -3.4425  -3.3110  -3.1867  -3.0797
    -2.9578  -2.8950  -2.7498  -2.6604  -2.5674  -2.4324  -2.3742  -2.3519
     0.8106   1.0175   1.0768   1.3906   1.4133   1.4832   1.5400   1.6162
     1.6850   1.7681   1.9353   1.9847   2.0987   2.1007

          k = 0.3205 0.6928 0.0000 ( 79203 PWs)   bands (ev):

   -58.3220 -58.3179 -58.2937 -58.2904 -57.8607 -57.8581 -34.8930 -34.8921
   -34.8885 -34.8878 -34.5506 -34.5472 -34.5280 -34.5250 -34.5151 -34.5139
   -34.5120 -34.5108 -34.4250 -34.4226 -34.2560 -34.2537 -34.0732 -34.0705
   -18.4999 -18.4968 -18.3799 -18.3538 -18.1196 -18.0771 -18.0321 -17.9889
   -17.8889 -17.8702 -17.4380 -17.4355  -6.2916  -6.2818  -6.1221  -6.1061
    -5.9296  -5.8848  -5.6544  -5.5568  -5.5129  -5.4456  -5.3694  -5.3639
    -5.0694  -4.8786  -4.6209  -4.5089  -4.2432  -4.1933  -4.1593  -4.0488
    -4.0014  -3.9120  -3.5259  -3.4295  -3.2698  -3.1951  -3.1161  -2.9973
    -2.9852  -2.8665  -2.8135  -2.7639  -2.6054  -2.5794  -2.4529  -2.3739
     0.8087   0.9577   1.1557   1.2844   1.5111   1.6203   1.7314   1.7391
     1.7743   1.8047   2.0103   2.0162   2.1110   2.1381

          k =-0.4808 0.0000 0.0000 ( 79180 PWs)   bands (ev):

   -58.3623 -58.3584 -58.3342 -58.3310 -57.9034 -57.9008 -34.6630 -34.6627
   -34.6269 -34.6260 -34.5616 -34.5613 -34.5357 -34.5347 -34.4441 -34.4436
   -34.4407 -34.4402 -34.2943 -34.2919 -34.1679 -34.1653 -33.9447 -33.9421
   -18.9742 -18.9732 -18.8785 -18.8763 -18.5413 -18.5388 -18.0191 -18.0166
   -17.8911 -17.8884 -17.4449 -17.4426  -6.7685  -6.7681  -6.4956  -6.4949
    -5.8264  -5.8245  -5.2584  -5.2539  -5.1591  -5.1528  -4.7779  -4.7779
    -4.7586  -4.7570  -4.6281  -4.6227  -4.3749  -4.3727  -4.1957  -4.1909
    -3.5317  -3.5279  -3.3216  -3.3204  -3.2403  -3.2387  -3.0651  -3.0570
    -2.9472  -2.9457  -2.7534  -2.7512  -2.6235  -2.6205  -2.4672  -2.4614
     0.7705   0.7707   1.0162   1.0182   1.3195   1.3208   1.5237   1.5244
     2.0394   2.0417   2.0438   2.0456   2.1686   2.1703

          k =-0.4808 0.1732 0.0000 ( 79126 PWs)   bands (ev):

   -58.3575 -58.3535 -58.3294 -58.3261 -57.8983 -57.8957 -34.6508 -34.6504
   -34.6154 -34.6147 -34.5601 -34.5598 -34.5334 -34.5319 -34.4988 -34.4965
   -34.4933 -34.4908 -34.2895 -34.2871 -34.1595 -34.1568 -34.0024 -33.9998
   -18.8755 -18.8747 -18.7805 -18.7786 -18.4536 -18.4510 -18.0546 -18.0521
   -17.9375 -17.9349 -17.4748 -17.4727  -6.6234  -6.6230  -6.3475  -6.3468
    -5.7660  -5.7640  -5.5562  -5.5538  -5.4646  -5.4597  -4.7813  -4.7810
    -4.6858  -4.6844  -4.3735  -4.3711  -4.1739  -4.1696  -4.0515  -4.0494
    -3.6502  -3.6487  -3.5012  -3.4994  -3.3551  -3.3518  -3.2059  -3.2023
    -3.0900  -3.0897  -2.8980  -2.8905  -2.5174  -2.5161  -2.3474  -2.3436
     0.8093   0.8102   1.0576   1.0593   1.3872   1.3894   1.5041   1.5053
     1.8021   1.8051   2.1117   2.1153   2.1609   2.1665

          k =-0.4808 0.3464 0.0000 ( 79108 PWs)   bands (ev):

   -58.3452 -58.3412 -58.3170 -58.3138 -57.8853 -57.8826 -34.6519 -34.6506
   -34.6438 -34.6424 -34.6102 -34.6098 -34.5754 -34.5740 -34.5393 -34.5379
   -34.5207 -34.5197 -34.2809 -34.2785 -34.1742 -34.1717 -34.1073 -34.1047
   -18.6289 -18.6284 -18.5457 -18.5446 -18.2925 -18.2905 -18.0939 -18.0911
   -18.0412 -18.0387 -17.5350 -17.5333  -6.2643  -6.2641  -6.0097  -6.0081
    -5.8673  -5.8660  -5.7485  -5.7441  -5.6226  -5.6215  -5.0095  -5.0090
    -4.5905  -4.5894  -4.5090  -4.5081  -4.1935  -4.1918  -4.0991  -4.0981
    -3.8268  -3.8234  -3.6590  -3.6572  -3.4463  -3.4461  -3.2956  -3.2920
    -2.9446  -2.9431  -2.7006  -2.6974  -2.5461  -2.5424  -2.3795  -2.3766
     0.9616   0.9645   1.1362   1.1389   1.2324   1.2357   1.5947   1.5972
     1.8666   1.8682   1.9867   1.9935   2.0490   2.0517

          k =-0.4808 0.5196 0.0000 ( 79180 PWs)   bands (ev):

   -58.3311 -58.3271 -58.3029 -58.2996 -57.8704 -57.8678 -34.7964 -34.7963
   -34.7910 -34.7908 -34.5772 -34.5758 -34.5420 -34.5413 -34.5281 -34.5268
   -34.5139 -34.5122 -34.3327 -34.3303 -34.2585 -34.2561 -34.0920 -34.0894
   -18.4560 -18.4540 -18.3636 -18.3622 -18.2230 -18.2220 -18.0898 -18.0886
   -17.9707 -17.9675 -17.5271 -17.5253  -6.0632  -6.0627  -5.9928  -5.9913
    -5.8585  -5.8572  -5.7400  -5.7396  -5.5945  -5.5920  -5.4205  -5.4193
    -4.8399  -4.8384  -4.6731  -4.6729  -4.2026  -4.2015  -4.0692  -4.0658
    -3.8508  -3.8483  -3.6291  -3.6281  -3.3878  -3.3850  -3.1174  -3.1166
    -2.8265  -2.8252  -2.6202  -2.6173  -2.5696  -2.5664  -2.4375  -2.4340
     1.0239   1.0251   1.2170   1.2179   1.3187   1.3212   1.6316   1.6359
     1.8061   1.8107   1.9245   1.9282   2.0544   2.0569

          k =-0.4808 0.6928 0.0000 ( 79296 PWs)   bands (ev):

   -58.3220 -58.3179 -58.2937 -58.2904 -57.8607 -57.8581 -34.8928 -34.8927
   -34.8881 -34.8877 -34.5509 -34.5478 -34.5275 -34.5243 -34.5162 -34.5139
   -34.5127 -34.5104 -34.4249 -34.4224 -34.2560 -34.2537 -34.0732 -34.0706
   -18.5006 -18.4993 -18.3705 -18.3694 -18.0833 -18.0823 -18.0111 -18.0099
   -17.8883 -17.8878 -17.4356 -17.4331  -6.2955  -6.2953  -6.1818  -6.1809
    -5.9803  -5.9790  -5.6511  -5.6501  -5.4646  -5.4633  -5.3699  -5.3658
    -4.8888  -4.8874  -4.6760  -4.6753  -4.1997  -4.1974  -4.0617  -4.0589
    -3.9687  -3.9671  -3.4745  -3.4734  -3.2149  -3.2119  -3.0040  -3.0035
    -2.8496  -2.8465  -2.6913  -2.6897  -2.5198  -2.5169  -2.4265  -2.4253
     0.8673   0.8678   1.2070   1.2074   1.6592   1.6607   1.7253   1.7288
     1.8040   1.8076   1.9807   1.9838   2.0877   2.0917

     the Fermi energy is    -0.5366 ev

!    total energy              =   -1077.91185181 Ry
     estimated scf accuracy    <          5.5E-09 Ry
     smearing contrib. (-TS)   =      -0.00000000 Ry
     internal energy E=F+TS    =   -1077.91185181 Ry

     The total energy is F=E-TS. E is the sum of the following terms:
     one-electron contribution =  -24648.68713887 Ry
     hartree contribution      =   12336.35861548 Ry
     xc contribution           =    -170.03143862 Ry
     ewald contribution        =   11404.44811020 Ry

     convergence has been achieved in  17 iterations

     Forces acting on atoms (cartesian axes, Ry/au):

     atom    1 type  1   force =    -0.00007386    0.00000000   -0.00004927
     atom    2 type  1   force =     0.00013835    0.00000000    0.00077318
     atom    3 type  1   force =    -0.00011069    0.00000000    0.00009432
     atom    4 type  1   force =     0.00009794    0.00000000   -0.00001514
     atom    5 type  1   force =     0.00049333    0.00000000   -0.00067396
     atom    6 type  1   force =    -0.00000031    0.00000000    0.00003798
     atom    7 type  2   force =     0.00048483    0.00000000   -0.00020393
     atom    8 type  2   force =     0.00039204    0.00000000   -0.00047952
     atom    9 type  2   force =     0.00022223    0.00000000   -0.00041680
     atom   10 type  2   force =    -0.00049906    0.00000000    0.00031842
     atom   11 type  2   force =    -0.00073432    0.00000000    0.00091430
     atom   12 type  2   force =    -0.00004838    0.00000000   -0.00048710
     atom   13 type  2   force =    -0.00022025    0.00000000   -0.00046114
     atom   14 type  2   force =     0.00024667    0.00000000    0.00042687
     atom   15 type  2   force =    -0.00012367    0.00000000    0.00042366
     atom   16 type  2   force =    -0.00085753    0.00000000   -0.00086650
     atom   17 type  2   force =     0.00054588    0.00000000    0.00029883
     atom   18 type  2   force =     0.00004681    0.00000000    0.00036580

     Total force =     0.002629     Total SCF correction =     0.000219


     Computing stress (Cartesian axis) and pressure

          total   stress  (Ry/bohr**3)                   (kbar)     P=       -0.12
   0.00000254   0.00000000  -0.00000015            0.37        0.00       -0.02
   0.00000000  -0.00000175   0.00000000            0.00       -0.26        0.00
  -0.00000015   0.00000000  -0.00000331           -0.02        0.00       -0.49


     Writing all to output data dir ./Out/pwscf.save/
 
     init_run     :     10.73s CPU     12.10s WALL (       2 calls)
     electrons    :    948.72s CPU    951.30s WALL (      27 calls)
     update_pot   :     40.40s CPU     38.38s WALL (      25 calls)
     forces       :     30.54s CPU     27.85s WALL (      27 calls)
     stress       :     90.01s CPU     89.50s WALL (      27 calls)

     Called by init_run:
     wfcinit      :      6.65s CPU      7.77s WALL (       2 calls)
     potinit      :      0.10s CPU      0.08s WALL (       2 calls)
     hinit0       :      3.33s CPU      3.35s WALL (       2 calls)

     Called by electrons:
     c_bands      :    754.54s CPU    757.45s WALL (     232 calls)
     sum_band     :    177.26s CPU    177.31s WALL (     232 calls)
     v_of_rho     :      5.17s CPU      3.75s WALL (     245 calls)
     mix_rho      :      9.05s CPU      9.35s WALL (     232 calls)

     Called by c_bands:
     init_us_2    :     10.73s CPU     10.78s WALL (   10400 calls)
     init_us_2:gp :     10.36s CPU     10.44s WALL (   10400 calls)
     cegterg      :    556.77s CPU    557.68s WALL (    4680 calls)

     Called by *egterg:
     cdiaghg      :     70.66s CPU     72.79s WALL (   26093 calls)
                                       72.61s GPU  (   26093 calls)
     h_psi        :    399.11s CPU    400.10s WALL (   26953 calls)
                                      399.33s GPU  (   26953 calls)
     g_psi        :      0.08s CPU      6.39s WALL (   22233 calls)
                                        6.22s GPU  (   22233 calls)

     Called by h_psi:
     h_psi:calbec :      1.20s CPU     14.44s WALL (   26953 calls)
                                       14.26s GPU  (   26953 calls)
     vloc_psi     :    356.66s CPU    357.34s WALL (   26953 calls)
                                      357.14s GPU  (   26953 calls)
     add_vuspsi   :     12.66s CPU     24.81s WALL (   26953 calls)
                                       24.62s GPU  (   26953 calls)

     General routines
     calbec       :      1.00s CPU      1.09s WALL (   29653 calls)
     fft          :      0.05s CPU      0.39s WALL (    2678 calls)
                                        0.37s GPU  (    2678 calls)
     ffts         :      0.01s CPU      0.03s WALL (     232 calls)
                                        0.03s GPU  (     232 calls)
     fftw         :      2.34s CPU    322.44s WALL (  209570 calls)
                                      321.00s GPU  (  209570 calls)
 
 
     PWSCF        :  18m41.73s CPU  18m41.61s WALL

 
   This run was terminated on:  15: 1:26  26Jul2026            

=------------------------------------------------------------------------------=
   JOB DONE.
=------------------------------------------------------------------------------=
