../../../03-100-interface/01-converge-slab-layers/3_layer/output final
1.0
   4.597217884   0.000000000   0.000000000
   0.000000000   2.956478552   0.000000000
   0.000000000   0.000000000  37.478019714
   Ti    O
   6   12
Cartesian
               0.0769186964        0.0000000000       14.5795007753
               2.3013552748        1.4782391884       16.8895170867
               0.0011010218        0.0000000000       19.1875789144
               2.2997366167        1.4782391884       21.4840417269
               0.0027306655        0.0000000000       23.7820945471
               2.3755315013        1.4782391884       26.0921381212
               0.8544263910        1.4782392763       13.7120870841
               1.3900744833        0.0000000000       15.9851152192
               3.1954444964        0.0000000000       17.7868654571
               0.8975285749        1.4782392763       18.2904874804
               3.6754030682        1.4782392763       15.4895993862
               1.3994367847        0.0000000000       20.5857896861
               3.1961493343        0.0000000000       22.3811963810
               0.8967654956        1.4782392763       22.8851467055
               3.6980168461        1.4782392763       20.0857354633
               1.3768033545        0.0000000000       25.1819011201
               3.1530875567        0.0000000000       26.9592343651
               3.6886215041        1.4782392763       24.6868187242
