../relax_2L_RuO2_on_top_of_6layer-R-TiO2_110.vasp/output final
1.0
6.52527379990000 0.00000000000000 0.00000000000000
0.00000000000000 2.96722197530000 0.00000000000000
0.00000000000000 0.00000000000000 47.96588516240000
   Ti    O   Ru
   12   32    4
Cartesian
              3.2626367050        0.0000000000       13.2140667080 
              0.0000000000        1.4836108990       12.7293564800 
              0.0000000000        0.0000000000       16.0729390360 
              3.2626367050        1.4836108990       16.4537921810 
              3.2626367050        0.0000000000       19.8291513014
              0.0000000000        1.4836108990       19.5375055383
              0.0000000000        0.0000000000       22.8338038623
              3.2626367050        1.4836108990       23.0886111362
              3.2626367050        0.0000000000       26.4419230460
              0.0000000000        1.4836108990       26.2164467243
              0.0000000000        0.0000000000       29.4984847343
              3.2626367050        1.4836108990       29.7078300425
              0.0000000000        0.0000000000       11.6627507740
              3.2626367050        0.0000000000       15.0142765481
              0.0000000000        0.0000000000       14.2463995922
              2.0337499825        1.4836108990       12.8506924394
              4.4915238175        1.4836108990       12.8506924394
              0.0000000000        0.0000000000       18.3635575827
              3.2626367050        0.0000000000       17.6013825790
              5.2395234437        1.4836109880       16.2837043384
              1.2857503563        1.4836109880       16.2837043384
              3.2626367050        0.0000000000       21.7010925834
              0.0000000000        0.0000000000       20.9477372520
              1.9981005100        1.4836108990       19.6553936087
              4.5271730960        1.4836108990       19.6553936087
              0.0000000000        0.0000000000       25.0065649225
              3.2626367050        0.0000000000       24.2834396940
              5.2475272121        1.4836109880       22.9723740184
              1.2777466859        1.4836109880       22.9723740184
              3.2626367050        0.0000000000       28.3609508175
              0.0000000000        0.0000000000       27.5774394256
              1.9969085064        1.4836108990       26.3198106522
              4.5283650996        1.4836108990       26.3198106522
              0.0000000000        0.0000000000       31.5688588589
              3.2626367050        0.0000000000       30.9478911016
              5.2475968376        1.4836109880       29.6156516664
              1.2776771564        1.4836109880       29.6156516664
              3.2626367050        0.0000000000       34.9511049925
              0.0000000000        0.0000000000       34.1665850639
              1.9612706334        1.4836108990       32.9473092824
              4.5640029716        1.4836108990       32.9473092824
              3.2626367050        0.0000000000       37.5056693761
              5.2588357358        1.4836109880       36.2598424116
              1.2664378692        1.4836109880       36.2598424116
              3.2626367050        0.0000000000       33.0325871335
              0.0000000000        1.4836108990       32.8449614334
              0.0000000000        0.0000000000       36.0282355514
              3.2626367050        1.4836108990       36.3412900213
