../relax_2L_RuO2_top_side_on-6-layer-R-TiO2_101.vasp/output final
1.0
        5.4640631676         0.0000000000         0.0000000000
        0.0000000000         4.5936999321         0.0000000000
        0.0000000000         0.0000000000        41.6286010742
   Ti    O   Ru
   12   32    4
Cartesian
            3.9373330461       -0.2344112369       12.4589652387
            1.2053016251        2.5312609289       12.4589652387
            2.1999134304        0.1349704503       14.8372761231
            4.9319443624        2.1618792417       14.8372761231
            0.7184923223       -0.0702790258       17.4445065332
            3.4505235393        2.3671287178       17.4445065332
            4.5000324334        0.0499504254       19.9115570522
            1.7680010124        2.2468992666       19.9115570522
            2.9296758268       -0.0438721164       22.4633886583
            0.1976445078        2.3407218084       22.4633886583
            1.2559010990        0.0324459236       24.9391281234
            3.9879319500        2.2644037684       24.9391281234
            2.6366177343        3.2893578483       11.6350528217
            5.3686496433        3.6011912287       11.6350528217
            5.0104019066        1.3816353485       13.1228015318
            1.0678519210        3.2232254417       14.1459402969
            2.2783704856        0.9152145495       13.1228002908
            3.7998829350        3.6673239083       14.1459390559
            3.4168318533        1.3949848389       15.6647601111
            4.9448733204        3.1874300893       16.6305785858
            0.6848005953        0.9018649901       15.6647625931
            2.2128418994        3.7031192607       16.6305773448
            1.8291291659        1.3963036353       18.1868977380
            3.3434276911        3.2005608295       19.1615075640
            4.5611610759        0.9005461257       18.1868977380
            0.6113961481        3.6899882475       19.1615075640
            0.2402159965        1.3940782666       20.7043417208
            1.7552035007        3.1963625236       21.6746111085
            2.9722469695        0.9027716314       20.7043404798
            4.4872354107        3.6941868274       21.6746135905
            4.1167751491        1.3986363782       23.2199821117
            0.1713990389        3.1955992152       24.1913379937
            1.3847431581        0.8982135198       23.2199796307
            2.9034302259        3.6949501348       24.1913330307
            2.5242037713        1.3631833243       25.7123719982
            4.1206560395        3.2139760669       26.7291128465
            5.2562347043        0.9336664367       25.7123719982
            1.3886251065        3.6765730101       26.7291128465
            0.9292440065        1.3877483764       28.2481709032
            2.3742072739        3.2158777500       29.2851540406
            3.6612752645        0.9091015216       28.2481659402
            5.1062395099        3.6746716010       29.2851590026
            4.6795756802        1.3224354720       30.7402796047
            1.9475439332        0.9744144260       30.7402746417
            5.2533126245       -0.0249595648       27.5162175953
            2.5212812035        2.3218092568       27.5162175953
            3.4380767784        0.1270274245       30.0166176387
            0.7060455204        2.1698222675       30.0166176387
