../relax_1L_RuO2_both_side_on-6-layer-R-TiO2_101.vasp/output final
1.0
        5.4640631676         0.0000000000         0.0000000000
        0.0000000000         4.5936999321         0.0000000000
        0.0000000000         0.0000000000        41.6286010742
   Ti    O   Ru
   12   32    4
Cartesian
           2.2679112941        0.1032942364       14.8658498767
           4.9999422261        2.1935554556       14.8658498767
           0.7348489531       -0.0489261670       17.4438203178
           3.4668801701        2.3457758590       17.4438203178
           4.4949953775        0.0421571286       19.9156034637
           1.7629639565        2.2546925634       19.9156034637
           2.9421582739       -0.0415833761       22.4709964016
           0.2101269549        2.3384330681       22.4709964016
           1.2384665170        0.0477558083       24.9427096413
           3.9704973680        2.2490938837       24.9427096413
           5.1728590639       -0.1022261232       27.5195480677
           2.4408276429        2.3990758152       27.5195480677
           2.6309367919        3.2429641653       11.6620815660
           5.3629687009        3.6475849117       11.6620815660
           4.9595785391        1.3599426841       13.1333598092
           1.0502448525        3.2466960932       14.1653706805
           2.2275471181        0.9369072139       13.1333585682
           3.7822758665        3.6438532568       14.1653694395
           3.4398999212        1.3965047614       15.6754671017
           4.9465434515        3.1984057203       16.6379460937
           0.7078686632        0.9003450676       15.6754695837
           2.2145120305        3.6921436297       16.6379448527
           1.8344186787        1.3925277337       18.1920387472
           3.3431818809        3.2011714626       19.1628139997
           4.5664505887        0.9043220273       18.1920387472
           0.6111503379        3.6893776144       19.1628139997
           0.2320347285        1.3965944535       20.7065186013
           1.7401200644        3.1972017437       21.6803578543
           2.9640657015        0.9002554445       20.7065173603
           4.4721519744        3.6933476073       21.6803603363
           4.0935014934        1.3910133369       23.2256524902
           0.1374042364        3.2022183025       24.1931134475
           1.3614695024        0.9058365611       23.2256500092
           2.8694354234        3.6883310475       24.1931084845
           2.4924399797        1.3943198763       25.7495110438
           3.9994469371        3.1974212159       26.7097340250
           5.2244709127        0.9025298847       25.7495110438
           1.2674160041        3.6931278611       26.7097340250
           0.9254964113        1.3473938924       28.2219423840
           2.4759584570        3.2347734719       29.2504054457
           3.6575276693        0.9494560056       28.2219374210
           5.2079906930        3.6557758791       29.2504104077
           4.8055391587        1.3493264899       30.7279504795
           2.0735074117        0.9475234081       30.7279455165
           3.8466633349       -0.1617014744       12.4062132747
           1.1146319139        2.4585511664       12.4062132747
           3.5887032132        0.1622603906       29.9815531274
           0.8566719552        2.1345893014       29.9815531274
