
     Program PWSCF v.7.1 starts on 13Jul2026 at 14: 5:42 

     This program is part of the open-source Quantum ESPRESSO suite
     for quantum simulation of materials; please cite
         "P. Giannozzi et al., J. Phys.:Condens. Matter 21 395502 (2009);
         "P. Giannozzi et al., J. Phys.:Condens. Matter 29 465901 (2017);
         "P. Giannozzi et al., J. Chem. Phys. 152 154105 (2020);
          URL http://www.quantum-espresso.org", 
     in publications or presentations arising from this work. More details at
     http://www.quantum-espresso.org/quote

     Parallel version (MPI), running on    36 processors

     MPI processes distributed on     1 nodes
     177234 MiB available memory on the printing compute node when the environment starts
 
     Waiting for input...
     Reading input from standard input

     Current dimensions of program PWSCF are:
     Max number of different atomic species (ntypx) = 10
     Max number of k-points (npk) =  40000
     Max angular momentum in pseudopotentials (lmaxx) =  4
     Message from routine setup:
     using ibrav=0 with symmetry is DISCOURAGED, use correct ibrav instead
 
     K-points division:     npool     =       2
     R & G space division:  proc/nbgrp/npool/nimage =      18
     Subspace diagonalization in iterative solution of the eigenvalue problem:
     a serial algorithm will be used

 
     Parallelization info
     --------------------
     sticks:   dense  smooth     PW     G-vecs:    dense   smooth      PW
     Min         153     153     43                 4178     4178     634
     Max         155     155     45                 4179     4179     636
     Sum        2757    2757    793                75221    75221   11429
 
     Using Slab Decomposition
 


     bravais-lattice index     =            0
     lattice parameter (alat)  =       8.4977  a.u.
     unit-cell volume          =     423.6931 (a.u.)^3
     number of atoms/cell      =            6
     number of atomic types    =            2
     number of electrons       =        56.00
     number of Kohn-Sham states=           28
     kinetic-energy cutoff     =     120.0000  Ry
     charge density cutoff     =     480.0000  Ry
     scf convergence threshold =      1.0E-06
     mixing beta               =       0.7000
     number of iterations used =            8  plain     mixing
     Exchange-correlation= PBE
                           (   1   4   3   4   0   0   0)

     celldm(1)=   8.497720  celldm(2)=   0.000000  celldm(3)=   0.000000
     celldm(4)=   0.000000  celldm(5)=   0.000000  celldm(6)=   0.000000

     crystal axes: (cart. coord. in units of alat)
               a(1) = (   1.000000   0.000000   0.000000 )  
               a(2) = (   0.000000   1.000000   0.000000 )  
               a(3) = (   0.000000   0.000000   0.690469 )  

     reciprocal axes: (cart. coord. in units 2 pi/alat)
               b(1) = (  1.000000  0.000000  0.000000 )  
               b(2) = (  0.000000  1.000000  0.000000 )  
               b(3) = (  0.000000  0.000000  1.448291 )  


     PseudoPot. # 1 for Ru read from file:
     ./Ru_ONCV_PBE-1.2.upf
     MD5 check sum: 197966c748556f6a714a34a8c7eb0781
     Pseudo is Norm-conserving, Zval = 16.0
     Generated using ONCVPSP code by D. R. Hamann
     Using radial grid of  602 points,  6 beta functions with: 
                l(1) =   0
                l(2) =   0
                l(3) =   1
                l(4) =   1
                l(5) =   2
                l(6) =   2

     PseudoPot. # 2 for O  read from file:
     ./O_ONCV_PBE-1.2.upf
     MD5 check sum: e36c48deb68f4e355fffe4602be2c42c
     Pseudo is Norm-conserving, Zval =  6.0
     Generated using ONCVPSP code by D. R. Hamann
     Using radial grid of  602 points,  4 beta functions with: 
                l(1) =   0
                l(2) =   0
                l(3) =   1
                l(4) =   1

     atomic species   valence    mass     pseudopotential
        Ru            16.00   101.07000     Ru( 1.00)
        O              6.00    15.99900     O ( 1.00)

     16 Sym. Ops., with inversion, found ( 8 have fractional translation)



   Cartesian axes

     site n.     atom                  positions (alat units)
         1           Ru  tau(   1) = (   0.0000000   0.0000000   0.0000000  )
         2           Ru  tau(   2) = (   0.5000000   0.5000000   0.3452344  )
         3           O   tau(   3) = (   0.3053000   0.3053000   0.0000000  )
         4           O   tau(   4) = (   0.6947000   0.6947000   0.0000000  )
         5           O   tau(   5) = (   0.8053000   0.1947000   0.3452344  )
         6           O   tau(   6) = (   0.1947000   0.8053000   0.3452344  )

     number of k points=    50
                       cart. coord. in units 2pi/alat
        k(    1) = (   0.0000000   0.0000000   0.0000000), wk =   0.0069444
        k(    2) = (   0.0000000   0.0000000   0.1810364), wk =   0.0138889
        k(    3) = (   0.0000000   0.0000000   0.3620729), wk =   0.0138889
        k(    4) = (   0.0000000   0.0000000   0.5431093), wk =   0.0138889
        k(    5) = (   0.0000000   0.0000000  -0.7241457), wk =   0.0069444
        k(    6) = (   0.0000000   0.1666667   0.0000000), wk =   0.0277778
        k(    7) = (   0.0000000   0.1666667   0.1810364), wk =   0.0555556
        k(    8) = (   0.0000000   0.1666667   0.3620729), wk =   0.0555556
        k(    9) = (   0.0000000   0.1666667   0.5431093), wk =   0.0555556
        k(   10) = (   0.0000000   0.1666667  -0.7241457), wk =   0.0277778
        k(   11) = (   0.0000000   0.3333333   0.0000000), wk =   0.0277778
        k(   12) = (   0.0000000   0.3333333   0.1810364), wk =   0.0555556
        k(   13) = (   0.0000000   0.3333333   0.3620729), wk =   0.0555556
        k(   14) = (   0.0000000   0.3333333   0.5431093), wk =   0.0555556
        k(   15) = (   0.0000000   0.3333333  -0.7241457), wk =   0.0277778
        k(   16) = (   0.0000000  -0.5000000   0.0000000), wk =   0.0138889
        k(   17) = (   0.0000000  -0.5000000   0.1810364), wk =   0.0277778
        k(   18) = (   0.0000000  -0.5000000   0.3620729), wk =   0.0277778
        k(   19) = (   0.0000000  -0.5000000   0.5431093), wk =   0.0277778
        k(   20) = (   0.0000000  -0.5000000  -0.7241457), wk =   0.0138889
        k(   21) = (   0.1666667   0.1666667   0.0000000), wk =   0.0277778
        k(   22) = (   0.1666667   0.1666667   0.1810364), wk =   0.0555556
        k(   23) = (   0.1666667   0.1666667   0.3620729), wk =   0.0555556
        k(   24) = (   0.1666667   0.1666667   0.5431093), wk =   0.0555556
        k(   25) = (   0.1666667   0.1666667  -0.7241457), wk =   0.0277778
        k(   26) = (   0.1666667   0.3333333   0.0000000), wk =   0.0555556
        k(   27) = (   0.1666667   0.3333333   0.1810364), wk =   0.1111111
        k(   28) = (   0.1666667   0.3333333   0.3620729), wk =   0.1111111
        k(   29) = (   0.1666667   0.3333333   0.5431093), wk =   0.1111111
        k(   30) = (   0.1666667   0.3333333  -0.7241457), wk =   0.0555556
        k(   31) = (   0.1666667  -0.5000000   0.0000000), wk =   0.0277778
        k(   32) = (   0.1666667  -0.5000000   0.1810364), wk =   0.0555556
        k(   33) = (   0.1666667  -0.5000000   0.3620729), wk =   0.0555556
        k(   34) = (   0.1666667  -0.5000000   0.5431093), wk =   0.0555556
        k(   35) = (   0.1666667  -0.5000000  -0.7241457), wk =   0.0277778
        k(   36) = (   0.3333333   0.3333333   0.0000000), wk =   0.0277778
        k(   37) = (   0.3333333   0.3333333   0.1810364), wk =   0.0555556
        k(   38) = (   0.3333333   0.3333333   0.3620729), wk =   0.0555556
        k(   39) = (   0.3333333   0.3333333   0.5431093), wk =   0.0555556
        k(   40) = (   0.3333333   0.3333333  -0.7241457), wk =   0.0277778
        k(   41) = (   0.3333333  -0.5000000   0.0000000), wk =   0.0277778
        k(   42) = (   0.3333333  -0.5000000   0.1810364), wk =   0.0555556
        k(   43) = (   0.3333333  -0.5000000   0.3620729), wk =   0.0555556
        k(   44) = (   0.3333333  -0.5000000   0.5431093), wk =   0.0555556
        k(   45) = (   0.3333333  -0.5000000  -0.7241457), wk =   0.0277778
        k(   46) = (  -0.5000000  -0.5000000   0.0000000), wk =   0.0069444
        k(   47) = (  -0.5000000  -0.5000000   0.1810364), wk =   0.0138889
        k(   48) = (  -0.5000000  -0.5000000   0.3620729), wk =   0.0138889
        k(   49) = (  -0.5000000  -0.5000000   0.5431093), wk =   0.0138889
        k(   50) = (  -0.5000000  -0.5000000  -0.7241457), wk =   0.0069444

     Dense  grid:    75221 G-vectors     FFT dimensions: (  60,  60,  48)

     Estimated max dynamical RAM per process >      13.53 MB

     Estimated total dynamical RAM >     468.60 MB

     Initial potential from superposition of free atoms

     starting charge      55.8739, renormalised to      56.0000
     Starting wfcs are random

     total cpu time spent up to now is        0.2 secs

     per-process dynamical memory:   119.4 Mb

     Self-consistent Calculation

     iteration #  1     ecut=   120.00 Ry     beta= 0.70
     Davidson diagonalization with overlap
     ethr =  1.00E-02,  avg # of iterations = 10.2

     total cpu time spent up to now is        1.4 secs

     total energy              =    -504.26510091 Ry
     estimated scf accuracy    <       0.98374895 Ry

     iteration #  2     ecut=   120.00 Ry     beta= 0.70
     Davidson diagonalization with overlap
     ethr =  1.76E-03,  avg # of iterations =  6.5

     total cpu time spent up to now is        2.2 secs

     total energy              =    -504.24577261 Ry
     estimated scf accuracy    <       4.25385375 Ry

     iteration #  3     ecut=   120.00 Ry     beta= 0.70
     Davidson diagonalization with overlap
     ethr =  1.76E-03,  avg # of iterations =  6.0

     total cpu time spent up to now is        2.8 secs

     total energy              =    -504.96271560 Ry
     estimated scf accuracy    <       0.02948261 Ry

     iteration #  4     ecut=   120.00 Ry     beta= 0.70
     Davidson diagonalization with overlap
     ethr =  5.26E-05,  avg # of iterations =  4.9

     total cpu time spent up to now is        3.4 secs

     total energy              =    -504.96916899 Ry
     estimated scf accuracy    <       0.01575911 Ry

     iteration #  5     ecut=   120.00 Ry     beta= 0.70
     Davidson diagonalization with overlap
     ethr =  2.81E-05,  avg # of iterations =  5.3

     total cpu time spent up to now is        4.0 secs

     total energy              =    -504.97479640 Ry
     estimated scf accuracy    <       0.00146030 Ry

     iteration #  6     ecut=   120.00 Ry     beta= 0.70
     Davidson diagonalization with overlap
     ethr =  2.61E-06,  avg # of iterations =  4.0

     total cpu time spent up to now is        4.4 secs

     total energy              =    -504.97478164 Ry
     estimated scf accuracy    <       0.00053562 Ry

     iteration #  7     ecut=   120.00 Ry     beta= 0.70
     Davidson diagonalization with overlap
     ethr =  9.56E-07,  avg # of iterations =  5.6

     total cpu time spent up to now is        5.0 secs

     total energy              =    -504.97498772 Ry
     estimated scf accuracy    <       0.00009329 Ry

     iteration #  8     ecut=   120.00 Ry     beta= 0.70
     Davidson diagonalization with overlap
     ethr =  1.67E-07,  avg # of iterations =  5.2

     total cpu time spent up to now is        5.6 secs

     total energy              =    -504.97500544 Ry
     estimated scf accuracy    <       0.00000749 Ry

     iteration #  9     ecut=   120.00 Ry     beta= 0.70
     Davidson diagonalization with overlap
     ethr =  1.34E-08,  avg # of iterations =  6.2

     total cpu time spent up to now is        6.2 secs

     End of self-consistent calculation

          k = 0.0000 0.0000 0.0000 (  9357 PWs)   bands (ev):

   -60.3194 -60.3126 -30.6018 -30.6018 -30.1665 -30.1577 -30.1577 -30.1422
    -7.0110  -5.9746  -5.0063  -5.0063   4.7141   4.8536   5.9669   6.3797
     6.3797   8.9481   8.9658   8.9658  10.4178  10.8564  10.8564  11.3845
    11.6459  11.7552  11.8356  11.8356

          k = 0.0000 0.0000 0.1810 (  9385 PWs)   bands (ev):

   -60.3176 -60.3113 -30.5995 -30.5995 -30.1926 -30.1703 -30.1535 -30.1535
    -6.8751  -5.9012  -5.0873  -5.0873   4.8687   5.0632   6.1304   6.4301
     6.4301   8.4862   9.1346   9.1346   9.6969  10.2479  10.2479  11.1884
    11.7786  12.1369  12.3330  12.4246

          k = 0.0000 0.0000 0.3621 (  9424 PWs)   bands (ev):

   -60.3131 -60.3083 -30.5942 -30.5942 -30.2547 -30.2379 -30.1435 -30.1435
    -6.5200  -5.7419  -5.2777  -5.2777   5.2580   5.5974   6.6055   6.6055
     6.6102   7.6179   8.6305   9.2809   9.2809   9.6100   9.6100  10.4657
    12.0621  12.3537  12.6618  13.2159

          k = 0.0000 0.0000 0.5431 (  9388 PWs)   bands (ev):

   -60.3083 -60.3057 -30.5888 -30.5888 -30.3149 -30.3060 -30.1333 -30.1333
    -6.0867  -5.6458  -5.4611  -5.4611   5.6659   6.0275   6.8943   6.8943
     7.1439   7.3726   7.8359   8.6281   8.6281   9.4400   9.8371   9.8371
    12.3769  12.5550  12.8189  13.8163

          k = 0.0000 0.0000-0.7241 (  9420 PWs)   bands (ev):

   -60.3054 -60.3054 -30.5866 -30.5866 -30.3368 -30.3368 -30.1291 -30.1291
    -5.7542  -5.7542  -5.5352  -5.5352   5.9185   5.9185   7.0893   7.0893
     7.3927   7.3927   8.2969   8.2969   8.3524   8.3524   9.9300   9.9300
    12.5893  12.5893  13.1713  13.1713

          k = 0.0000 0.1667 0.0000 (  9383 PWs)   bands (ev):

   -60.3189 -60.3130 -30.6012 -30.6011 -30.1649 -30.1587 -30.1586 -30.1439
    -6.9079  -5.9484  -5.1373  -5.0696   4.9168   5.0871   6.1581   6.4032
     6.4163   8.5940   8.7118   8.8627  10.0122  10.1800  10.5317  11.2695
    11.9359  12.0619  12.1688  12.2236

          k = 0.0000 0.1667 0.1810 (  9389 PWs)   bands (ev):

   -60.3171 -60.3117 -30.5991 -30.5991 -30.1911 -30.1723 -30.1542 -30.1538
    -6.7775  -5.8715  -5.2112  -5.1445   5.0660   5.2703   6.2171   6.4392
     6.5875   8.3254   8.6906   8.9301   9.3722  10.0900  10.1733  11.1386
    11.8235  12.3619  12.4027  12.6720

          k = 0.0000 0.1667 0.3621 (  9393 PWs)   bands (ev):

   -60.3128 -60.3086 -30.5943 -30.5942 -30.2533 -30.2390 -30.1438 -30.1437
    -6.4434  -5.7164  -5.3687  -5.3149   5.4275   5.7112   6.4332   6.5951
     7.0557   7.4953   8.1134   9.2234   9.3330   9.5112   9.5297  10.6536
    11.8359  12.6089  12.8078  13.0583

          k = 0.0000 0.1667 0.5431 (  9414 PWs)   bands (ev):

   -60.3081 -60.3059 -30.5895 -30.5895 -30.3137 -30.3061 -30.1333 -30.1333
    -6.0657  -5.7106  -5.4524  -5.4244   5.7543   6.0658   6.4311   6.7852
     7.4062   7.5640   7.8392   8.6552   8.8469   9.5814   9.6760   9.7981
    12.2733  12.5100  12.8517  13.2697

          k = 0.0000 0.1667-0.7241 (  9416 PWs)   bands (ev):

   -60.3054 -60.3054 -30.5876 -30.5876 -30.3361 -30.3361 -30.1290 -30.1290
    -5.8342  -5.8342  -5.4484  -5.4484   5.9156   5.9156   6.6373   6.6373
     7.7256   7.7256   8.3464   8.3464   8.7402   8.7402   9.7660   9.7660
    12.6052  12.6052  12.8320  12.8320

          k = 0.0000 0.3333 0.0000 (  9404 PWs)   bands (ev):

   -60.3177 -60.3143 -30.6000 -30.5999 -30.1607 -30.1606 -30.1604 -30.1483
    -6.6204  -5.9481  -5.3923  -5.2286   5.4521   5.6337   6.4606   6.4862
     6.7512   7.8771   7.9741   8.7740   8.9838   9.3817  10.3901  10.9628
    12.3736  12.5383  12.7420  12.7916

          k = 0.0000 0.3333 0.1810 (  9414 PWs)   bands (ev):

   -60.3160 -60.3129 -30.5983 -30.5982 -30.1873 -30.1769 -30.1554 -30.1548
    -6.5048  -5.8495  -5.4651  -5.2900   5.5980   5.7748   6.3882   6.4395
     7.0321   7.9879   8.1792   8.2193   8.6085   9.4019  10.3767  10.9037
    12.2756  12.5183  12.7442  13.0308

          k = 0.0000 0.3333 0.3621 (  9413 PWs)   bands (ev):

   -60.3119 -60.3095 -30.5945 -30.5943 -30.2500 -30.2419 -30.1444 -30.1442
    -6.2303  -5.6502  -5.6035  -5.4114   5.8710   6.0001   6.4788   6.5832
     7.2607   7.4024   7.7360   8.5983   8.7450   9.4089   9.9993  10.6703
    11.8671  12.7146  13.0327  13.0468

          k = 0.0000 0.3333 0.5431 (  9411 PWs)   bands (ev):

   -60.3076 -60.3063 -30.5910 -30.5908 -30.3110 -30.3068 -30.1333 -30.1332
    -6.0088  -5.8222  -5.4275  -5.3915   5.9105   6.0468   6.2182   6.5509
     7.3737   7.7530   8.1219   8.9069   8.9999   9.1637   9.6430  10.3356
    11.7259  12.5251  12.7571  12.9071

          k = 0.0000 0.3333-0.7241 (  9406 PWs)   bands (ev):

   -60.3054 -60.3054 -30.5896 -30.5896 -30.3346 -30.3346 -30.1287 -30.1287
    -5.9312  -5.9312  -5.3378  -5.3378   5.7923   5.7923   6.4065   6.4065
     7.9058   7.9058   8.5061   8.5061   9.2512   9.2512   9.7307   9.7307
    12.0797  12.0797  12.6371  12.6371

          k = 0.0000-0.5000 0.0000 (  9410 PWs)   bands (ev):

   -60.3160 -60.3160 -30.5993 -30.5993 -30.1616 -30.1616 -30.1543 -30.1543
    -6.2269  -6.2269  -5.3984  -5.3984   5.9418   5.9418   6.5070   6.5070
     7.4377   7.4377   7.7488   7.7488   8.9266   8.9266  10.6061  10.6061
    12.6928  12.6928  12.8696  12.8696

          k = 0.0000-0.5000 0.1810 (  9400 PWs)   bands (ev):

   -60.3144 -60.3144 -30.5978 -30.5978 -30.1822 -30.1822 -30.1557 -30.1557
    -6.1253  -6.1253  -5.4549  -5.4549   6.1569   6.1569   6.3426   6.3426
     7.5004   7.5004   7.9286   7.9286   8.5736   8.5736  10.6584  10.6584
    12.5250  12.5250  13.1251  13.1251

          k = 0.0000-0.5000 0.3621 (  9414 PWs)   bands (ev):

   -60.3107 -60.3107 -30.5945 -30.5945 -30.2458 -30.2458 -30.1446 -30.1446
    -5.9289  -5.9289  -5.5318  -5.5318   6.2142   6.2142   6.6189   6.6189
     6.9959   6.9959   8.2354   8.2354   8.7884   8.7884  10.3976  10.3976
    12.3123  12.3123  13.1848  13.1848

          k = 0.0000-0.5000 0.5431 (  9404 PWs)   bands (ev):

   -60.3070 -60.3070 -30.5916 -30.5916 -30.3084 -30.3084 -30.1333 -30.1333
    -5.9257  -5.9257  -5.3985  -5.3985   5.9536   5.9536   6.3620   6.3620
     7.5860   7.5860   8.4882   8.4882   9.0926   9.0926  10.2149  10.2149
    11.8165  11.8165  12.8944  12.8944

          k = 0.0000-0.5000-0.7241 (  9412 PWs)   bands (ev):

   -60.3054 -60.3054 -30.5906 -30.5906 -30.3339 -30.3339 -30.1286 -30.1286
    -5.9682  -5.9682  -5.2939  -5.2939   5.6872   5.6872   6.3997   6.3997
     7.9752   7.9752   8.7677   8.7677   8.8946   8.8946  10.3417  10.3417
    11.4867  11.4867  12.6478  12.6478

          k = 0.1667 0.1667 0.0000 (  9379 PWs)   bands (ev):

   -60.3185 -60.3134 -30.6023 -30.5997 -30.1635 -30.1606 -30.1577 -30.1453
    -6.8248  -5.9313  -5.2994  -5.0443   4.7767   5.5801   6.3351   6.3573
     6.4873   7.9549   8.7950   8.8787   9.9491   9.9664  10.3618  11.1493
    11.8050  11.8447  12.5182  12.6571

          k = 0.1667 0.1667 0.1810 (  9392 PWs)   bands (ev):

   -60.3168 -60.3121 -30.6000 -30.5980 -30.1899 -30.1737 -30.1550 -30.1536
    -6.6984  -5.8474  -5.3654  -5.1236   4.9532   5.7120   6.2165   6.5318
     6.6780   8.0572   8.3173   9.0273   9.1997  10.0829  10.2067  10.9685
    11.8359  12.0582  12.6522  12.8389

          k = 0.1667 0.1667 0.3621 (  9397 PWs)   bands (ev):

   -60.3125 -60.3089 -30.5945 -30.5942 -30.2524 -30.2398 -30.1442 -30.1436
    -6.3789  -5.6898  -5.4790  -5.3102   5.4038   5.9513   6.2918   6.7726
     7.2130   7.2617   8.1916   8.6878   9.1541   9.5663   9.8913  10.7484
    11.7195  12.4559  12.9356  13.1824

          k = 0.1667 0.1667 0.5431 (  9414 PWs)   bands (ev):

   -60.3080 -60.3060 -30.5907 -30.5891 -30.3133 -30.3061 -30.1335 -30.1332
    -6.0437  -5.7264  -5.4903  -5.3905   5.8136   6.1259   6.3422   6.5095
     7.3500   7.8500   7.9407   8.5991   8.8884   9.4883   9.7025  10.0115
    12.0795  12.5469  12.8823  13.3619

          k = 0.1667 0.1667-0.7241 (  9430 PWs)   bands (ev):

   -60.3054 -60.3054 -30.5895 -30.5868 -30.3375 -30.3340 -30.1293 -30.1286
    -5.9389  -5.7214  -5.5631  -5.3325   5.7827   6.0961   6.4430   6.6536
     7.0800   8.2951   8.4401   8.6302   8.6717   9.1866   9.3589   9.8942
    12.4069  12.6096  12.6270  13.0497

          k = 0.1667 0.3333 0.0000 (  9397 PWs)   bands (ev):

   -60.3174 -60.3145 -30.6020 -30.5993 -30.1616 -30.1596 -30.1587 -30.1491
    -6.5942  -5.9930  -5.4370  -5.1489   4.9922   5.9881   6.3737   6.5081
     6.8799   7.4863   8.4443   8.8131   9.3732   9.5749  10.0475  10.7935
    12.1315  12.1359  12.7759  12.8865

          k = 0.1667 0.3333 0.1810 (  9395 PWs)   bands (ev):

   -60.3158 -60.3131 -30.5998 -30.5978 -30.1866 -30.1773 -30.1557 -30.1541
    -6.4789  -5.8924  -5.5037  -5.2202   5.1604   6.1992   6.2789   6.3498
     7.1441   7.8117   8.0662   8.5517   9.0827   9.5646  10.1307  10.6545
    12.1646  12.2848  12.7404  13.1577

          k = 0.1667 0.3333 0.3621 (  9395 PWs)   bands (ev):

   -60.3117 -60.3097 -30.5948 -30.5945 -30.2496 -30.2423 -30.1446 -30.1439
    -6.2013  -5.6987  -5.6072  -5.3792   5.5748   6.2009   6.2875   6.6826
     7.0339   7.6937   7.9294   8.4519   9.1492   9.3007   9.9680  10.5954
    11.9062  12.5668  12.8629  13.2577

          k = 0.1667 0.3333 0.5431 (  9408 PWs)   bands (ev):

   -60.3075 -60.3064 -30.5916 -30.5899 -30.3115 -30.3067 -30.1336 -30.1333
    -5.9824  -5.7944  -5.4811  -5.3885   5.9051   6.0393   6.2922   6.4131
     7.1686   7.8737   8.2700   8.7501   8.8223   9.4159   9.7840  10.4357
    11.7424  12.6241  12.7420  12.9247

          k = 0.1667 0.3333-0.7241 (  9416 PWs)   bands (ev):

   -60.3054 -60.3054 -30.5906 -30.5880 -30.3367 -30.3332 -30.1293 -30.1286
    -5.9716  -5.8112  -5.4638  -5.2903   5.7029   6.0419   6.3529   6.4042
     7.2172   8.1993   8.4832   8.6989   8.8633   9.5698   9.7232  10.0699
    11.8882  12.4655  12.6360  12.6472

          k = 0.1667-0.5000 0.0000 (  9404 PWs)   bands (ev):

   -60.3160 -60.3160 -30.6005 -30.6005 -30.1606 -30.1606 -30.1543 -30.1543
    -6.2746  -6.2746  -5.3303  -5.3303   5.5340   5.5340   6.4463   6.4463
     7.5729   7.5729   8.3223   8.3223   9.1024   9.1024  10.3348  10.3348
    12.5505  12.5505  12.6400  12.6400

          k = 0.1667-0.5000 0.1810 (  9408 PWs)   bands (ev):

   -60.3144 -60.3144 -30.5988 -30.5988 -30.1820 -30.1820 -30.1552 -30.1552
    -6.1722  -6.1722  -5.3905  -5.3905   5.6896   5.6896   6.3681   6.3681
     7.6991   7.6991   8.3960   8.3960   8.7263   8.7263  10.3803  10.3803
    12.4370  12.4370  12.9566  12.9566

          k = 0.1667-0.5000 0.3621 (  9402 PWs)   bands (ev):

   -60.3107 -60.3107 -30.5948 -30.5948 -30.2459 -30.2459 -30.1444 -30.1444
    -5.9546  -5.9546  -5.4958  -5.4958   5.9491   5.9491   6.4367   6.4367
     7.3039   7.3039   8.4959   8.4959   8.9065   8.9065  10.2205  10.2205
    12.3832  12.3832  13.0427  13.0427

          k = 0.1667-0.5000 0.5431 (  9410 PWs)   bands (ev):

   -60.3070 -60.3070 -30.5912 -30.5912 -30.3089 -30.3089 -30.1335 -30.1335
    -5.8929  -5.8929  -5.4291  -5.4291   5.9328   5.9328   6.3683   6.3683
     7.4187   7.4187   8.6129   8.6129   9.1013   9.1013  10.2820  10.2820
    11.9887  11.9887  12.8308  12.8308

          k = 0.1667-0.5000-0.7241 (  9392 PWs)   bands (ev):

   -60.3054 -60.3054 -30.5899 -30.5899 -30.3346 -30.3346 -30.1289 -30.1289
    -5.9237  -5.9237  -5.3400  -5.3400   5.7685   5.7685   6.3751   6.3751
     7.7256   7.7256   8.5064   8.5064   9.2405   9.2405  10.3980  10.3980
    11.7314  11.7314  12.6524  12.6524

          k = 0.3333 0.3333 0.0000 (  9415 PWs)   bands (ev):

   -60.3168 -60.3151 -30.6034 -30.6007 -30.1606 -30.1577 -30.1573 -30.1513
    -6.5076  -6.1559  -5.3602  -5.1179   4.7869   5.5452   6.3126   6.4334
     7.3219   8.0553   8.7129   9.0709   9.3995   9.7123   9.7523  10.5481
    11.7988  11.8640  12.5664  12.6493

          k = 0.3333 0.3333 0.1810 (  9419 PWs)   bands (ev):

   -60.3152 -60.3136 -30.6010 -30.5990 -30.1845 -30.1788 -30.1552 -30.1536
    -6.3950  -6.0569  -5.4216  -5.1939   4.9660   5.7017   6.2172   6.3588
     7.5850   8.2723   8.3737   8.8296   9.1269   9.7734   9.8659  10.1170
    12.0002  12.1553  12.6163  12.9346

          k = 0.3333 0.3333 0.3621 (  9396 PWs)   bands (ev):

   -60.3113 -60.3101 -30.5953 -30.5950 -30.2483 -30.2437 -30.1445 -30.1438
    -6.1197  -5.8476  -5.5277  -5.3734   5.4367   5.9542   6.1534   6.4274
     7.3651   8.1128   8.1194   8.8474   9.0424   9.4250   9.7593  10.3246
    12.2088  12.3957  12.8555  13.1068

          k = 0.3333 0.3333 0.5431 (  9396 PWs)   bands (ev):

   -60.3073 -60.3066 -30.5914 -30.5897 -30.3114 -30.3077 -30.1339 -30.1336
    -5.9086  -5.7526  -5.5474  -5.4307   5.9071   6.0151   6.2170   6.3763
     7.0570   7.6742   8.4558   8.6705   8.9366   9.5165  10.0201  10.5694
    11.9462  12.6147  12.8208  13.0540

          k = 0.3333 0.3333-0.7241 (  9398 PWs)   bands (ev):

   -60.3054 -60.3054 -30.5900 -30.5874 -30.3374 -30.3338 -30.1298 -30.1290
    -5.9240  -5.6560  -5.6179  -5.3368   5.7639   6.2764   6.3093   6.3675
     6.7798   7.9299   8.3178   8.4463   9.2072   9.6362  10.1642  10.4941
    11.8944  12.6467  12.6590  12.8115

          k = 0.3333-0.5000 0.0000 (  9442 PWs)   bands (ev):

   -60.3159 -60.3159 -30.6028 -30.6028 -30.1587 -30.1587 -30.1543 -30.1543
    -6.3541  -6.3541  -5.2091  -5.2091   4.9982   4.9982   6.3388   6.3388
     7.9971   7.9971   9.0341   9.0341   9.4925   9.4925   9.9648   9.9648
    12.1310  12.1310  12.1532  12.1532

          k = 0.3333-0.5000 0.1810 (  9420 PWs)   bands (ev):

   -60.3144 -60.3144 -30.6006 -30.6006 -30.1815 -30.1815 -30.1542 -30.1542
    -6.2483  -6.2483  -5.2786  -5.2786   5.1681   5.1681   6.2602   6.2602
     8.1793   8.1793   8.9069   8.9069   9.2594   9.2594   9.8285   9.8285
    12.2277  12.2277  12.4981  12.4981

          k = 0.3333-0.5000 0.3621 (  9400 PWs)   bands (ev):

   -60.3107 -60.3107 -30.5954 -30.5954 -30.2460 -30.2460 -30.1441 -30.1441
    -5.9970  -5.9970  -5.4328  -5.4328   5.5872   5.5872   6.2053   6.2053
     7.8288   7.8288   8.7429   8.7429   9.2213   9.2213   9.8956   9.8956
    12.5454  12.5454  12.7470  12.7470

          k = 0.3333-0.5000 0.5431 (  9402 PWs)   bands (ev):

   -60.3070 -60.3070 -30.5904 -30.5904 -30.3098 -30.3098 -30.1339 -30.1339
    -5.8087  -5.8087  -5.5091  -5.5091   5.9380   5.9380   6.2681   6.2681
     7.2996   7.2996   8.5812   8.5812   9.2717   9.2717  10.3919  10.3919
    12.4527  12.4527  12.7078  12.7078

          k = 0.3333-0.5000-0.7241 (  9380 PWs)   bands (ev):

   -60.3054 -60.3054 -30.5884 -30.5884 -30.3359 -30.3359 -30.1296 -30.1296
    -5.8019  -5.8019  -5.4648  -5.4648   5.9846   5.9846   6.3241   6.3241
     7.2356   7.2356   8.3727   8.3727   9.4656   9.4656  10.5723  10.5723
    12.2790  12.2790  12.6598  12.6598

          k =-0.5000-0.5000 0.0000 (  9432 PWs)   bands (ev):

   -60.3159 -60.3159 -30.6039 -30.6039 -30.1577 -30.1577 -30.1543 -30.1543
    -6.3885  -6.3885  -5.1535  -5.1535   4.7895   4.7895   6.2903   6.2903
     8.5946   8.5946   8.6362   8.6362   9.7274   9.7274  10.2580  10.2580
    11.7657  11.7657  11.8742  11.8742

          k =-0.5000-0.5000 0.1810 (  9416 PWs)   bands (ev):

   -60.3144 -60.3144 -30.6015 -30.6015 -30.1813 -30.1813 -30.1537 -30.1537
    -6.2808  -6.2808  -5.2281  -5.2281   4.9686   4.9686   6.2076   6.2076
     8.7390   8.7390   8.8845   8.8845   9.1489   9.1489   9.9339   9.9339
    12.0826  12.0826  12.2182  12.2182

          k =-0.5000-0.5000 0.3621 (  9388 PWs)   bands (ev):

   -60.3107 -60.3107 -30.5958 -30.5958 -30.2461 -30.2461 -30.1439 -30.1439
    -6.0151  -6.0151  -5.4042  -5.4042   5.4398   5.4398   6.1216   6.1216
     8.1313   8.1313   8.9753   8.9753   9.0164   9.0164   9.9113   9.9113
    12.4702  12.4702  12.7884  12.7884

          k =-0.5000-0.5000 0.5431 (  9416 PWs)   bands (ev):

   -60.3070 -60.3070 -30.5900 -30.5900 -30.3102 -30.3102 -30.1341 -30.1341
    -5.7404  -5.7404  -5.5753  -5.5753   5.9925   5.9925   6.1397   6.1397
     7.3018   7.3018   8.5297   8.5297   9.3545   9.3545  10.4540  10.4540
    12.6371  12.6371  12.9252  12.9252

          k =-0.5000-0.5000-0.7241 (  9368 PWs)   bands (ev):

   -60.3054 -60.3054 -30.5876 -30.5876 -30.3366 -30.3366 -30.1300 -30.1300
    -5.6447  -5.6447  -5.6236  -5.6236   6.1734   6.1734   6.2774   6.2774
     6.9572   6.9572   8.3312   8.3312   9.5231   9.5231  10.6808  10.6808
    12.6624  12.6624  12.6951  12.6951

     highest occupied level (ev):    13.8163

!    total energy              =    -504.97500849 Ry
     estimated scf accuracy    <       0.00000069 Ry

     The total energy is the sum of the following terms:
     one-electron contribution =    -163.69571918 Ry
     hartree contribution      =     112.56560792 Ry
     xc contribution           =     -67.48836804 Ry
     ewald contribution        =    -386.35652920 Ry

     convergence has been achieved in   9 iterations

     Forces acting on atoms (cartesian axes, Ry/au):

     atom    1 type  1   force =     0.00000000    0.00000000   -0.00000000
     atom    2 type  1   force =     0.00000000    0.00000000    0.00000000
     atom    3 type  2   force =     0.00401148    0.00401148    0.00000000
     atom    4 type  2   force =    -0.00401148   -0.00401148    0.00000000
     atom    5 type  2   force =     0.00401148   -0.00401148    0.00000000
     atom    6 type  2   force =    -0.00401148    0.00401148    0.00000000

     Total force =     0.011346     Total SCF correction =     0.000584
 
     init_run     :      0.14s CPU      0.16s WALL (       1 calls)
     electrons    :      5.74s CPU      5.96s WALL (       1 calls)
     forces       :      0.04s CPU      0.04s WALL (       1 calls)

     Called by init_run:
     wfcinit      :      0.10s CPU      0.11s WALL (       1 calls)
     potinit      :      0.01s CPU      0.01s WALL (       1 calls)
     hinit0       :      0.01s CPU      0.01s WALL (       1 calls)

     Called by electrons:
     c_bands      :      5.35s CPU      5.54s WALL (       9 calls)
     sum_band     :      0.36s CPU      0.37s WALL (       9 calls)
     v_of_rho     :      0.03s CPU      0.03s WALL (      10 calls)
     mix_rho      :      0.01s CPU      0.01s WALL (       9 calls)

     Called by c_bands:
     init_us_2    :      0.06s CPU      0.06s WALL (     500 calls)
     init_us_2:cp :      0.06s CPU      0.06s WALL (     500 calls)
     cegterg      :      4.61s CPU      4.72s WALL (     225 calls)

     Called by *egterg:
     cdiaghg      :      1.04s CPU      1.06s WALL (    1641 calls)
     h_psi        :      2.98s CPU      3.07s WALL (    1666 calls)
     g_psi        :      0.02s CPU      0.02s WALL (    1416 calls)

     Called by h_psi:
     h_psi:calbec :      0.18s CPU      0.18s WALL (    1666 calls)
     vloc_psi     :      2.65s CPU      2.73s WALL (    1666 calls)
     add_vuspsi   :      0.12s CPU      0.12s WALL (    1666 calls)

     General routines
     calbec       :      0.19s CPU      0.20s WALL (    1766 calls)
     fft          :      0.01s CPU      0.02s WALL (     101 calls)
     ffts         :      0.00s CPU      0.00s WALL (       9 calls)
     fftw         :      2.62s CPU      2.70s WALL (   53622 calls)
 
     Parallel routines
 
     PWSCF        :      5.95s CPU      6.27s WALL

 
   This run was terminated on:  14: 5:48  13Jul2026            

=------------------------------------------------------------------------------=
   JOB DONE.
=------------------------------------------------------------------------------=
